584
Atoms. Timestep: 1
N 79 50 0 
N 65 0 0 
N 18 1 0 
N 65 10 0 
N 10 54 0 
N 30 45 0 
N 21 91 0 
N 4 49 0 
N 5 37 0 
N 74 4 0 
N 95 50 0 
N 42 12 0 
N 38 33 0 
N 82 75 0 
N 42 20 0 
N 14 98 0 
N 51 75 0 
N 7 37 0 
N 29 81 0 
N 17 70 0 
N 37 53 0 
N 3 82 0 
N 94 26 0 
N 68 67 0 
N 12 55 0 
N 28 67 0 
N 41 0 0 
N 56 50 0 
N 46 79 0 
N 18 60 0 
N 20 90 0 
N 30 70 0 
N 26 37 0 
N 47 70 0 
N 51 7 0 
N 55 44 0 
N 39 63 0 
N 14 66 0 
N 44 61 0 
N 66 53 0 
N 68 92 0 
N 86 46 0 
N 52 90 0 
N 44 16 0 
N 37 93 0 
N 17 19 0 
N 0 70 0 
N 61 2 0 
N 53 50 0 
N 86 70 0 
N 76 90 0 
N 99 1 0 
N 87 83 0 
N 90 75 0 
N 91 42 0 
N 9 1 0 
N 31 7 0 
N 10 43 0 
N 68 60 0 
N 8 56 0 
N 24 48 0 
N 17 64 0 
N 84 42 0 
N 36 30 0 
N 12 61 0 
N 56 18 0 
N 52 58 0 
N 26 32 0 
N 20 72 0 
N 67 55 0 
N 35 23 0 
N 30 89 0 
N 96 7 0 
N 85 16 0 
N 83 36 0 
N 41 2 0 
N 75 32 0 
N 63 42 0 
N 30 11 0 
N 26 16 0 
N 28 55 0 
N 76 80 0 
N 49 6 0 
N 12 42 0 
N 45 46 0 
N 26 58 0 
N 25 65 0 
N 8 54 0 
N 2 12 0 
N 48 12 0 
N 14 34 0 
N 95 14 0 
N 41 27 0 
N 29 72 0 
N 63 36 0 
N 64 47 0 
N 9 24 0 
N 69 86 0 
N 29 68 0 
N 48 59 0 
N 48 5 0 
N 39 16 0 
N 52 29 0 
N 70 75 0 
N 10 41 0 
N 76 78 0 
N 46 5 0 
N 94 61 0 
N 44 35 0 
N 33 17 0 
N 52 75 0 
N 32 54 0 
N 22 10 0 
N 9 16 0 
N 35 44 0 
N 55 34 0 
N 82 18 0 
N 22 47 0 
N 86 38 0 
N 8 33 0 
N 6 74 0 
N 91 3 0 
N 59 50 0 
N 7 19 0 
N 28 74 0 
N 15 32 0 
N 51 23 0 
N 9 32 0 
N 39 99 0 
N 2 41 0 
N 95 60 0 
N 61 80 0 
N 12 19 0 
N 10 25 0 
N 32 64 0 
N 17 36 0 
N 26 78 0 
N 7 45 0 
N 74 52 0 
N 41 5 0 
N 11 59 0 
N 31 33 0 
N 16 18 0 
N 40 95 0 
N 54 30 0 
N 81 25 0 
N 92 43 0 
N 55 86 0 
N 99 7 0 
N 3 3 0 
N 95 11 0 
N 99 48 0 
N 38 49 0 
N 39 57 0 
N 92 87 0 
N 45 50 0 
N 58 98 0 
N 88 26 0 
N 17 47 0 
N 88 84 0 
N 54 72 0 
N 55 11 0 
N 58 73 0 
N 4 80 0 
N 73 30 0 
N 91 90 0 
N 61 68 0 
N 64 87 0 
N 11 97 0 
N 52 32 0 
N 38 9 0 
N 63 89 0 
N 23 56 0 
N 99 22 0 
N 43 70 0 
N 95 96 0 
N 13 81 0 
N 57 15 0 
N 54 7 0 
N 70 18 0 
N 13 59 0 
N 11 19 0 
N 22 7 0 
N 27 15 0 
N 35 46 0 
N 81 51 0 
N 83 58 0 
N 1 23 0 
N 0 32 0 
N 88 55 0 
N 80 75 0 
N 22 19 0 
N 35 61 0 
N 0 81 0 
N 92 70 0 
N 1 54 0 
N 39 7 0 
N 60 54 0 
N 34 25 0 
N 56 69 0 
N 95 0 0 
N 70 59 0 
N 69 6 0 
N 68 40 0 
N 70 50 0 
N 57 65 0 
N 10 83 0 
N 30 30 0 
N 47 75 0 
N 40 13 0 
N 34 35 0 
N 14 82 0 
N 91 67 0 
N 84 41 0 
N 13 33 0 
N 74 54 0 
N 1 46 0 
N 81 14 0 
N 98 36 0 
N 57 46 0 
N 48 27 0 
N 92 6 0 
N 7 9 0 
N 7 17 0 
N 93 84 0 
N 17 13 0 
N 86 35 0 
N 72 97 0 
N 87 1 0 
N 52 68 0 
N 14 85 0 
N 98 18 0 
N 60 82 0 
N 84 91 0 
N 33 38 0 
N 82 14 0 
N 73 49 0 
N 24 23 0 
N 59 33 0 
N 87 57 0 
N 84 20 0 
N 97 47 0 
N 5 8 0 
N 27 73 0 
N 5 53 0 
N 67 13 0 
N 98 59 0 
N 99 5 0 
N 93 46 0 
N 58 37 0 
N 14 35 0 
N 2 73 0 
N 28 39 0 
N 16 99 0 
N 77 44 0 
N 30 55 0 
N 11 80 0 
N 73 4 0 
N 31 17 0 
N 15 78 0 
N 12 28 0 
N 22 85 0 
N 48 56 0 
N 61 3 0 
N 12 69 0 
N 73 61 0 
N 16 10 0 
N 58 94 0 
N 82 87 0 
N 25 67 0 
N 15 60 0 
N 88 34 0 
N 32 11 0 
N 56 40 0 
N 7 50 0 
N 26 59 0 
N 34 69 0 
N 10 56 0 
N 72 11 0 
N 9 65 0 
N 38 5 0 
N 74 36 0 
N 7 5 0 
N 36 28 0 
N 42 37 0 
N 51 44 0 
N 57 25 0 
N 6 49 0 
N 97 78 0 
N 91 76 0 
N 1 97 0 
N 49 93 0 
N 48 23 0 
N 63 21 0 
N 74 28 0 
N 62 86 0 
N 63 79 0 
N 66 50 0 
N 13 94 0 
N 67 41 0 
N 37 3 0 
N 32 82 0 
N 51 53 0 
N 94 72 0 
N 58 35 0 
N 9 18 0 
N 18 52 0 
N 60 28 0 
N 76 73 0 
N 47 87 0 
N 19 96 0 
N 98 10 0 
N 67 12 0 
N 43 50 0 
N 2 33 0 
N 79 10 0 
N 40 88 0 
N 18 65 0 
N 23 4 0 
N 68 81 0 
N 36 40 0 
N 46 54 0 
N 28 76 0 
N 0 59 0 
N 85 77 0 
N 24 85 0 
N 93 42 0 
N 91 71 0 
N 97 4 0 
N 49 59 0 
N 73 95 0 
N 53 14 0 
N 49 94 0 
N 33 14 0 
N 11 25 0 
N 3 97 0 
N 76 46 0 
N 43 61 0 
N 15 4 0 
N 74 51 0 
N 32 71 0 
N 68 27 0 
N 20 47 0 
N 39 55 0 
N 78 3 0 
N 94 86 0 
N 52 0 0 
N 77 96 0 
N 66 7 0 
N 65 54 0 
N 61 50 0 
N 29 49 0 
N 17 87 0 
N 21 37 0 
N 58 50 0 
N 94 65 0 
N 61 76 0 
N 11 95 0 
N 44 30 0 
N 22 23 0 
N 99 61 0 
N 20 4 0 
N 45 99 0 
N 93 81 0 
N 43 75 0 
N 12 39 0 
N 72 44 0 
N 58 71 0 
N 4 44 0 
N 45 87 0 
N 85 96 0 
N 57 43 0 
N 26 64 0 
N 69 58 0 
N 39 97 0 
N 45 59 0 
N 3 6 0 
N 73 3 0 
N 20 74 0 
N 59 43 0 
N 42 2 0 
N 62 35 0 
N 28 60 0 
N 85 26 0 
N 37 66 0 
N 51 1 0 
N 90 98 0 
N 38 28 0 
N 7 98 0 
N 92 84 0 
N 63 1 0 
N 37 52 0 
N 11 2 0 
N 47 9 0 
N 74 88 0 
N 65 70 0 
N 32 18 0 
N 72 33 0 
N 66 36 0 
N 46 25 0 
N 93 36 0 
N 89 86 0 
N 49 0 0 
N 7 94 0 
N 9 42 0 
N 71 83 0 
N 5 7 0 
N 56 27 0 
N 47 1 0 
N 92 56 0 
N 97 95 0 
N 97 33 0 
N 5 82 0 
N 85 37 0 
N 67 34 0 
N 57 51 0 
N 37 20 0 
N 21 78 0 
N 1 87 0 
N 83 15 0 
N 7 76 0 
N 54 58 0 
N 63 10 0 
N 49 43 0 
N 28 85 0 
N 73 23 0 
N 66 2 0 
N 62 59 0 
N 21 22 0 
N 30 67 0 
N 40 91 0 
N 74 59 0 
N 44 46 0 
N 85 38 0 
N 71 84 0 
N 5 50 0 
N 66 1 0 
N 85 50 0 
N 1 38 0 
N 50 98 0 
N 29 88 0 
N 42 54 0 
N 96 70 0 
N 54 3 0 
N 45 80 0 
N 19 71 0 
N 33 48 0 
N 36 79 0 
N 39 44 0 
N 63 6 0 
N 3 32 0 
N 3 43 0 
N 48 0 0 
N 9 45 0 
N 79 23 0 
N 31 47 0 
N 97 7 0 
N 70 33 0 
N 65 69 0 
N 10 61 0 
N 77 36 0 
N 3 92 0 
N 82 79 0 
N 13 35 0 
N 60 34 0 
N 43 36 0 
N 96 57 0 
N 1 24 0 
N 5 30 0 
N 68 93 0 
N 16 84 0 
N 24 12 0 
N 77 53 0 
N 75 89 0 
N 2 74 0 
N 37 59 0 
N 12 77 0 
N 98 51 0 
N 71 89 0 
N 40 34 0 
N 79 12 0 
N 6 64 0 
N 73 59 0 
N 33 15 0 
N 59 66 0 
N 29 0 0 
N 78 95 0 
N 12 13 0 
N 87 76 0 
N 17 59 0 
N 43 16 0 
N 58 32 0 
N 8 6 0 
N 67 64 0 
N 13 1 0 
N 91 79 0 
N 92 95 0 
N 57 78 0 
N 28 99 0 
N 28 46 0 
O 90 11 0 
O 82 49 0 
O 39 29 0 
O 2 71 0 
O 13 79 0 
O 80 2 0 
O 38 8 0 
O 73 70 0 
O 28 17 0 
O 52 19 0 
O 95 59 0 
O 97 13 0 
O 79 41 0 
O 25 31 0 
O 80 24 0 
O 89 62 0 
O 64 81 0 
O 98 48 0 
O 42 51 0 
O 46 20 0 
O 23 38 0 
O 78 11 0 
O 93 58 0 
O 89 3 0 
O 23 79 0 
O 37 22 0 
O 33 96 0 
O 80 81 0 
O 13 11 0 
O 36 37 0 
O 56 66 0 
O 74 34 0 
O 37 64 0 
O 55 62 0 
O 91 53 0 
O 61 11 0 
O 78 45 0 
O 98 3 0 
O 60 36 0 
O 85 57 0 
O 54 48 0 
O 10 99 0 
O 13 41 0 
O 57 36 0 
O 86 87 0 
O 75 45 0 
O 34 21 0 
O 82 89 0 
O 84 99 0 
O 48 10 0 
O 92 92 0 
O 24 17 0 
O 70 99 0 
O 67 54 0 
O 66 94 0 
O 23 34 0 
O 32 9 0 
O 40 28 0 
O 22 64 0 
O 36 34 0 
O 98 70 0 
O 29 9 0 
O 3 95 0 
O 19 73 0 
O 51 87 0 
O 80 74 0 
O 27 38 0 
O 59 96 0 
O 59 57 0 
O 49 97 0 
O 50 23 0 
O 13 27 0 
O 18 45 0 
O 24 58 0 
O 84 71 0 
O 96 80 0 
O 2 44 0 
O 74 79 0 
O 13 87 0 
O 61 26 0 
O 22 15 0 
O 79 81 0 
O 83 0 0 
O 64 26 0 
578
Atoms. Timestep: 2
N 80 50 0 
N 65 1 0 
N 17 1 0 
N 64 10 0 
N 9 54 0 
N 30 44 0 
N 21 90 0 
N 4 48 0 
N 4 37 0 
N 74 5 0 
N 95 49 0 
N 41 12 0 
N 37 33 0 
N 82 76 0 
N 43 20 0 
N 13 98 0 
N 51 74 0 
N 8 37 0 
N 30 81 0 
N 18 70 0 
N 36 53 0 
N 3 81 0 
N 94 27 0 
N 68 68 0 
N 13 55 0 
N 28 66 0 
N 40 0 0 
N 56 49 0 
N 46 80 0 
N 18 61 0 
N 20 89 0 
N 30 69 0 
N 27 37 0 
N 48 70 0 
N 52 7 0 
N 55 45 0 
N 39 64 0 
N 15 66 0 
N 43 61 0 
N 67 53 0 
N 68 93 0 
N 87 46 0 
N 51 90 0 
N 44 15 0 
N 37 92 0 
N 16 19 0 
N 1 70 0 
N 60 2 0 
N 54 50 0 
N 86 71 0 
N 76 89 0 
N 99 2 0 
N 86 83 0 
N 91 75 0 
N 91 43 0 
N 10 1 0 
N 32 7 0 
N 11 43 0 
N 69 60 0 
N 7 56 0 
N 23 48 0 
N 17 64 0 
N 85 42 0 
N 37 30 0 
N 12 62 0 
N 55 18 0 
N 52 59 0 
N 25 32 0 
N 20 73 0 
N 67 54 0 
N 35 22 0 
N 31 89 0 
N 97 7 0 
N 84 16 0 
N 83 37 0 
N 42 2 0 
N 75 31 0 
N 64 42 0 
N 30 10 0 
N 26 17 0 
N 27 55 0 
N 75 80 0 
N 49 7 0 
N 12 41 0 
N 44 46 0 
N 25 58 0 
N 24 65 0 
N 7 54 0 
N 2 13 0 
N 48 11 0 
N 14 33 0 
N 96 14 0 
N 41 28 0 
N 29 71 0 
N 62 36 0 
N 64 48 0 
N 9 23 0 
N 69 87 0 
N 30 68 0 
N 49 59 0 
N 48 6 0 
N 38 16 0 
N 52 28 0 
N 70 76 0 
N 11 41 0 
N 76 79 0 
N 46 4 0 
N 94 60 0 
N 43 35 0 
N 32 17 0 
N 52 76 0 
N 32 53 0 
N 22 11 0 
N 8 16 0 
N 35 45 0 
N 56 34 0 
N 81 18 0 
N 23 47 0 
N 87 38 0 
N 8 32 0 
N 6 73 0 
N 90 3 0 
N 59 51 0 
N 7 18 0 
N 29 74 0 
N 16 32 0 
N 50 23 0 
N 9 31 0 
N 39 0 0 
N 2 42 0 
N 95 59 0 
N 62 80 0 
N 12 18 0 
N 10 26 0 
N 33 64 0 
N 16 36 0 
N 25 78 0 
N 6 45 0 
N 73 52 0 
N 41 6 0 
N 12 59 0 
N 31 34 0 
N 15 18 0 
N 40 96 0 
N 54 29 0 
N 81 24 0 
N 92 42 0 
N 54 86 0 
N 98 7 0 
N 4 3 0 
N 96 11 0 
N 98 48 0 
N 37 49 0 
N 39 58 0 
N 92 88 0 
N 45 51 0 
N 58 97 0 
N 88 27 0 
N 17 46 0 
N 87 84 0 
N 53 72 0 
N 55 12 0 
N 58 74 0 
N 4 79 0 
N 74 30 0 
N 91 91 0 
N 60 68 0 
N 63 87 0 
N 10 97 0 
N 51 32 0 
N 38 8 0 
N 64 89 0 
N 23 57 0 
N 98 22 0 
N 43 71 0 
N 95 95 0 
N 13 80 0 
N 57 16 0 
N 54 8 0 
N 70 17 0 
N 14 59 0 
N 11 20 0 
N 22 6 0 
N 28 15 0 
N 36 46 0 
N 82 51 0 
N 83 57 0 
N 1 22 0 
N 99 32 0 
N 88 54 0 
N 80 74 0 
N 22 18 0 
N 36 61 0 
N 1 81 0 
N 92 71 0 
N 1 55 0 
N 40 7 0 
N 60 55 0 
N 34 24 0 
N 56 68 0 
N 95 99 0 
N 70 58 0 
N 70 6 0 
N 67 40 0 
N 69 50 0 
N 57 66 0 
N 11 83 0 
N 30 29 0 
N 46 75 0 
N 40 14 0 
N 34 34 0 
N 14 81 0 
N 92 67 0 
N 83 41 0 
N 13 34 0 
N 74 55 0 
N 1 45 0 
N 81 15 0 
N 99 36 0 
N 56 46 0 
N 48 26 0 
N 92 5 0 
N 6 9 0 
N 6 17 0 
N 92 84 0 
N 16 13 0 
N 86 36 0 
N 72 98 0 
N 88 1 0 
N 52 67 0 
N 14 86 0 
N 97 18 0 
N 61 82 0 
N 83 91 0 
N 33 37 0 
N 83 14 0 
N 73 50 0 
N 24 24 0 
N 60 33 0 
N 86 57 0 
N 83 20 0 
N 98 47 0 
N 5 9 0 
N 28 73 0 
N 6 53 0 
N 68 13 0 
N 97 59 0 
N 98 5 0 
N 93 47 0 
N 58 36 0 
N 13 35 0 
N 2 72 0 
N 28 38 0 
N 15 99 0 
N 77 43 0 
N 29 55 0 
N 12 80 0 
N 73 5 0 
N 30 17 0 
N 15 79 0 
N 13 28 0 
N 22 86 0 
N 47 56 0 
N 60 3 0 
N 11 69 0 
N 73 62 0 
N 15 10 0 
N 58 95 0 
N 82 88 0 
N 24 67 0 
N 14 60 0 
N 88 35 0 
N 32 10 0 
N 57 40 0 
N 8 50 0 
N 25 59 0 
N 33 69 0 
N 10 57 0 
N 71 11 0 
N 9 66 0 
N 38 6 0 
N 74 35 0 
N 7 6 0 
N 36 29 0 
N 43 37 0 
N 50 44 0 
N 57 26 0 
N 7 49 0 
N 96 78 0 
N 91 77 0 
N 1 96 0 
N 49 92 0 
N 49 23 0 
N 63 20 0 
N 74 27 0 
N 61 86 0 
N 63 80 0 
N 67 50 0 
N 14 94 0 
N 66 41 0 
N 36 3 0 
N 33 82 0 
N 52 53 0 
N 95 72 0 
N 57 35 0 
N 10 18 0 
N 18 53 0 
N 61 28 0 
N 76 74 0 
N 48 87 0 
N 19 97 0 
N 97 10 0 
N 66 12 0 
N 43 51 0 
N 2 32 0 
N 78 10 0 
N 41 88 0 
N 18 64 0 
N 23 3 0 
N 67 81 0 
N 36 39 0 
N 47 54 0 
N 29 76 0 
N 1 59 0 
N 85 76 0 
N 24 86 0 
N 94 42 0 
N 91 70 0 
N 98 4 0 
N 50 59 0 
N 73 96 0 
N 53 13 0 
N 49 95 0 
N 34 14 0 
N 12 25 0 
N 3 96 0 
N 75 46 0 
N 43 60 0 
N 14 4 0 
N 73 51 0 
N 32 72 0 
N 67 27 0 
N 19 47 0 
N 38 55 0 
N 78 2 0 
N 93 86 0 
N 52 99 0 
N 78 96 0 
N 67 7 0 
N 66 54 0 
N 62 50 0 
N 28 49 0 
N 16 87 0 
N 21 38 0 
N 58 49 0 
N 94 66 0 
N 61 77 0 
N 11 96 0 
N 43 30 0 
N 22 24 0 
N 98 61 0 
N 20 3 0 
N 44 99 0 
N 93 80 0 
N 44 75 0 
N 12 40 0 
N 72 45 0 
N 58 70 0 
N 4 44 0 
N 45 86 0 
N 84 96 0 
N 58 43 0 
N 25 64 0 
N 69 59 0 
N 40 97 0 
N 45 60 0 
N 2 6 0 
N 72 3 0 
N 19 74 0 
N 59 44 0 
N 42 3 0 
N 62 34 0 
N 27 60 0 
N 85 27 0 
N 37 65 0 
N 51 0 0 
N 90 99 0 
N 38 29 0 
N 8 98 0 
N 92 83 0 
N 62 1 0 
N 36 52 0 
N 10 2 0 
N 48 9 0 
N 74 87 0 
N 65 71 0 
N 31 18 0 
N 73 33 0 
N 66 35 0 
N 46 26 0 
N 93 37 0 
N 89 87 0 
N 49 1 0 
N 7 95 0 
N 10 42 0 
N 70 83 0 
N 6 7 0 
N 56 26 0 
N 46 1 0 
N 92 57 0 
N 98 95 0 
N 97 32 0 
N 5 83 0 
N 85 38 0 
N 66 34 0 
N 57 52 0 
N 37 21 0 
N 22 78 0 
N 1 88 0 
N 84 15 0 
N 7 75 0 
N 54 57 0 
N 63 11 0 
N 48 43 0 
N 27 85 0 
N 74 23 0 
N 66 1 0 
N 62 58 0 
N 21 23 0 
N 29 67 0 
N 39 91 0 
N 74 60 0 
N 44 45 0 
N 85 39 0 
N 70 84 0 
N 6 50 0 
N 67 1 0 
N 85 49 0 
N 0 38 0 
N 50 97 0 
N 30 88 0 
N 42 53 0 
N 97 70 0 
N 54 4 0 
N 45 79 0 
N 19 72 0 
N 34 48 0 
N 36 78 0 
N 40 44 0 
N 63 7 0 
N 3 33 0 
N 3 44 0 
N 48 1 0 
N 9 46 0 
N 80 23 0 
N 32 47 0 
N 97 6 0 
N 71 33 0 
N 65 68 0 
N 11 61 0 
N 77 35 0 
N 3 93 0 
N 81 79 0 
N 13 36 0 
N 60 35 0 
N 42 36 0 
N 96 58 0 
N 2 24 0 
N 5 29 0 
N 67 93 0 
N 16 85 0 
N 24 13 0 
N 77 52 0 
N 75 88 0 
N 2 74 0 
N 37 60 0 
N 13 77 0 
N 98 50 0 
N 70 89 0 
N 39 34 0 
N 79 11 0 
N 7 64 0 
N 73 60 0 
N 32 15 0 
N 58 66 0 
N 29 99 0 
N 79 95 0 
N 13 13 0 
N 88 76 0 
N 17 60 0 
N 42 16 0 
N 57 32 0 
N 8 7 0 
N 67 63 0 
N 12 1 0 
N 91 80 0 
N 92 94 0 
N 57 77 0 
N 28 98 0 
N 27 46 0 
O 90 12 0 
O 81 49 0 
O 40 29 0 
O 1 71 0 
O 12 79 0 
O 81 2 0 
O 73 71 0 
O 28 16 0 
O 52 20 0 
O 97 12 0 
O 79 42 0 
O 25 30 0 
O 79 24 0 
O 88 62 0 
O 64 82 0 
O 41 51 0 
O 47 20 0 
O 23 37 0 
O 77 11 0 
O 94 58 0 
O 88 3 0 
O 23 80 0 
O 36 22 0 
O 32 96 0 
O 79 81 0 
O 12 11 0 
O 35 37 0 
O 56 65 0 
O 73 34 0 
O 37 63 0 
O 55 63 0 
O 92 53 0 
O 60 11 0 
O 78 46 0 
O 97 3 0 
O 60 37 0 
O 85 56 0 
O 53 48 0 
O 9 99 0 
O 14 41 0 
O 57 37 0 
O 86 86 0 
O 74 45 0 
O 33 21 0 
O 81 89 0 
O 84 0 0 
O 49 10 0 
O 93 92 0 
O 24 16 0 
O 70 0 0 
O 66 95 0 
O 22 34 0 
O 32 8 0 
O 40 27 0 
O 22 63 0 
O 35 34 0 
O 98 69 0 
O 28 9 0 
O 4 95 0 
O 18 73 0 
O 52 87 0 
O 27 39 0 
O 59 95 0 
O 58 57 0 
O 49 96 0 
O 12 27 0 
O 19 45 0 
O 24 57 0 
O 83 71 0 
O 97 80 0 
O 2 43 0 
O 73 79 0 
O 13 88 0 
O 61 25 0 
O 22 14 0 
O 79 82 0 
O 83 99 0 
O 63 26 0 
567
Atoms. Timestep: 3
N 81 50 0 
N 65 0 0 
N 17 2 0 
N 63 10 0 
N 10 54 0 
N 30 45 0 
N 20 90 0 
N 5 48 0 
N 3 37 0 
N 75 5 0 
N 95 50 0 
N 41 11 0 
N 38 33 0 
N 82 75 0 
N 44 20 0 
N 12 98 0 
N 51 75 0 
N 9 37 0 
N 30 80 0 
N 18 71 0 
N 35 53 0 
N 2 81 0 
N 94 28 0 
N 68 69 0 
N 13 56 0 
N 29 66 0 
N 39 0 0 
N 56 48 0 
N 46 79 0 
N 18 62 0 
N 20 88 0 
N 30 68 0 
N 27 38 0 
N 48 71 0 
N 52 8 0 
N 55 46 0 
N 39 63 0 
N 14 66 0 
N 44 61 0 
N 68 53 0 
N 68 94 0 
N 88 46 0 
N 51 89 0 
N 43 15 0 
N 38 92 0 
N 17 19 0 
N 1 71 0 
N 59 2 0 
N 53 50 0 
N 85 71 0 
N 77 89 0 
N 99 3 0 
N 86 83 0 
N 91 76 0 
N 92 43 0 
N 10 2 0 
N 32 8 0 
N 12 43 0 
N 69 61 0 
N 8 56 0 
N 24 48 0 
N 17 63 0 
N 86 42 0 
N 38 30 0 
N 13 62 0 
N 55 19 0 
N 52 58 0 
N 25 31 0 
N 20 73 0 
N 67 55 0 
N 36 22 0 
N 31 88 0 
N 97 6 0 
N 85 16 0 
N 84 37 0 
N 42 1 0 
N 76 31 0 
N 65 42 0 
N 29 10 0 
N 26 16 0 
N 28 55 0 
N 74 80 0 
N 49 8 0 
N 13 41 0 
N 45 46 0 
N 26 58 0 
N 24 64 0 
N 6 54 0 
N 1 13 0 
N 49 11 0 
N 15 33 0 
N 96 13 0 
N 41 29 0 
N 28 71 0 
N 62 37 0 
N 64 49 0 
N 9 24 0 
N 69 88 0 
N 29 68 0 
N 48 59 0 
N 48 7 0 
N 37 16 0 
N 53 28 0 
N 69 76 0 
N 11 41 0 
N 75 79 0 
N 46 3 0 
N 94 59 0 
N 44 35 0 
N 33 17 0 
N 53 76 0 
N 32 54 0 
N 22 12 0 
N 8 15 0 
N 35 44 0 
N 57 34 0 
N 81 17 0 
N 23 46 0 
N 87 37 0 
N 8 33 0 
N 6 74 0 
N 89 3 0 
N 59 50 0 
N 6 18 0 
N 30 74 0 
N 17 32 0 
N 51 23 0 
N 10 31 0 
N 39 1 0 
N 2 43 0 
N 95 58 0 
N 63 80 0 
N 12 17 0 
N 11 26 0 
N 34 64 0 
N 17 36 0 
N 25 79 0 
N 5 45 0 
N 72 52 0 
N 42 6 0 
N 12 58 0 
N 31 33 0 
N 15 19 0 
N 41 96 0 
N 54 30 0 
N 81 24 0 
N 91 42 0 
N 53 86 0 
N 98 6 0 
N 5 3 0 
N 96 12 0 
N 98 49 0 
N 37 48 0 
N 40 58 0 
N 92 89 0 
N 44 51 0 
N 58 98 0 
N 88 28 0 
N 18 46 0 
N 86 84 0 
N 53 73 0 
N 54 12 0 
N 58 75 0 
N 4 78 0 
N 74 29 0 
N 91 92 0 
N 61 68 0 
N 62 87 0 
N 10 98 0 
N 50 32 0 
N 38 7 0 
N 63 89 0 
N 24 57 0 
N 98 21 0 
N 42 71 0 
N 94 95 0 
N 12 80 0 
N 57 17 0 
N 55 8 0 
N 71 17 0 
N 13 59 0 
N 10 20 0 
N 21 6 0 
N 28 16 0 
N 36 47 0 
N 82 50 0 
N 83 56 0 
N 0 22 0 
N 99 31 0 
N 88 53 0 
N 81 74 0 
N 23 18 0 
N 36 62 0 
N 1 80 0 
N 93 71 0 
N 2 55 0 
N 40 8 0 
N 60 56 0 
N 35 24 0 
N 56 67 0 
N 94 99 0 
N 69 58 0 
N 71 6 0 
N 67 39 0 
N 69 49 0 
N 56 66 0 
N 11 84 0 
N 31 29 0 
N 46 76 0 
N 39 14 0 
N 35 34 0 
N 13 81 0 
N 91 67 0 
N 82 41 0 
N 13 33 0 
N 73 55 0 
N 2 45 0 
N 81 16 0 
N 98 36 0 
N 56 47 0 
N 48 27 0 
N 93 5 0 
N 5 9 0 
N 5 17 0 
N 92 85 0 
N 16 12 0 
N 87 36 0 
N 71 98 0 
N 88 2 0 
N 51 67 0 
N 15 86 0 
N 97 19 0 
N 62 82 0 
N 82 91 0 
N 34 37 0 
N 83 15 0 
N 74 50 0 
N 23 24 0 
N 60 34 0 
N 86 56 0 
N 83 21 0 
N 98 46 0 
N 4 9 0 
N 28 74 0 
N 7 53 0 
N 67 13 0 
N 97 58 0 
N 98 4 0 
N 92 47 0 
N 58 37 0 
N 14 35 0 
N 2 71 0 
N 28 39 0 
N 15 0 0 
N 78 43 0 
N 29 56 0 
N 12 79 0 
N 72 5 0 
N 30 16 0 
N 14 79 0 
N 12 28 0 
N 22 85 0 
N 46 56 0 
N 59 3 0 
N 10 69 0 
N 73 63 0 
N 14 10 0 
N 59 95 0 
N 81 88 0 
N 23 67 0 
N 14 61 0 
N 88 34 0 
N 32 9 0 
N 57 39 0 
N 8 49 0 
N 24 59 0 
N 33 70 0 
N 11 57 0 
N 71 12 0 
N 8 66 0 
N 37 6 0 
N 74 34 0 
N 7 5 0 
N 37 29 0 
N 43 38 0 
N 51 44 0 
N 58 26 0 
N 7 48 0 
N 97 78 0 
N 91 78 0 
N 1 95 0 
N 49 93 0 
N 48 23 0 
N 63 21 0 
N 74 28 0 
N 62 86 0 
N 64 80 0 
N 67 51 0 
N 15 94 0 
N 67 41 0 
N 35 3 0 
N 32 82 0 
N 51 53 0 
N 96 72 0 
N 57 36 0 
N 11 18 0 
N 19 53 0 
N 61 27 0 
N 75 74 0 
N 49 87 0 
N 19 96 0 
N 97 11 0 
N 65 12 0 
N 42 51 0 
N 3 32 0 
N 77 10 0 
N 41 87 0 
N 18 63 0 
N 24 3 0 
N 66 81 0 
N 35 39 0 
N 48 54 0 
N 29 75 0 
N 1 60 0 
N 85 77 0 
N 24 87 0 
N 93 42 0 
N 91 71 0 
N 97 4 0 
N 51 59 0 
N 74 96 0 
N 54 13 0 
N 49 96 0 
N 33 14 0 
N 12 26 0 
N 3 95 0 
N 74 46 0 
N 44 60 0 
N 14 3 0 
N 74 51 0 
N 32 73 0 
N 66 27 0 
N 19 46 0 
N 39 55 0 
N 79 2 0 
N 93 87 0 
N 53 99 0 
N 78 95 0 
N 66 7 0 
N 66 53 0 
N 63 50 0 
N 28 48 0 
N 15 87 0 
N 21 37 0 
N 59 49 0 
N 93 66 0 
N 61 76 0 
N 11 97 0 
N 43 29 0 
N 22 25 0 
N 98 60 0 
N 21 3 0 
N 44 0 0 
N 94 80 0 
N 44 76 0 
N 13 40 0 
N 73 45 0 
N 57 70 0 
N 3 44 0 
N 45 87 0 
N 84 95 0 
N 58 42 0 
N 25 63 0 
N 68 59 0 
N 40 98 0 
N 46 60 0 
N 2 7 0 
N 71 3 0 
N 18 74 0 
N 60 44 0 
N 41 3 0 
N 62 35 0 
N 28 60 0 
N 86 27 0 
N 37 64 0 
N 51 1 0 
N 91 99 0 
N 39 29 0 
N 9 98 0 
N 93 83 0 
N 62 2 0 
N 35 52 0 
N 10 3 0 
N 48 10 0 
N 75 87 0 
N 65 72 0 
N 31 17 0 
N 73 34 0 
N 65 35 0 
N 45 26 0 
N 93 38 0 
N 88 87 0 
N 49 2 0 
N 6 95 0 
N 10 41 0 
N 71 83 0 
N 6 8 0 
N 56 25 0 
N 46 2 0 
N 93 57 0 
N 97 95 0 
N 98 32 0 
N 5 84 0 
N 86 38 0 
N 65 34 0 
N 57 51 0 
N 36 21 0 
N 22 79 0 
N 1 89 0 
N 85 15 0 
N 8 75 0 
N 55 57 0 
N 62 11 0 
N 49 43 0 
N 27 86 0 
N 74 24 0 
N 67 1 0 
N 62 57 0 
N 21 24 0 
N 30 67 0 
N 39 92 0 
N 75 60 0 
N 43 45 0 
N 84 39 0 
N 69 84 0 
N 5 50 0 
N 68 1 0 
N 85 50 0 
N 0 37 0 
N 49 97 0 
N 30 87 0 
N 41 53 0 
N 98 70 0 
N 54 5 0 
N 45 80 0 
N 19 73 0 
N 33 48 0 
N 35 78 0 
N 40 43 0 
N 63 8 0 
N 2 33 0 
N 2 44 0 
N 47 1 0 
N 8 46 0 
N 80 24 0 
N 32 48 0 
N 97 5 0 
N 72 33 0 
N 65 69 0 
N 11 62 0 
N 76 35 0 
N 3 94 0 
N 80 79 0 
N 14 36 0 
N 60 36 0 
N 41 36 0 
N 96 57 0 
N 1 24 0 
N 4 29 0 
N 67 94 0 
N 17 85 0 
N 24 14 0 
N 77 51 0 
N 74 88 0 
N 2 73 0 
N 38 60 0 
N 13 78 0 
N 97 50 0 
N 69 89 0 
N 38 34 0 
N 78 11 0 
N 7 63 0 
N 72 60 0 
N 32 16 0 
N 58 65 0 
N 29 0 0 
N 79 96 0 
N 12 13 0 
N 89 76 0 
N 16 60 0 
N 41 16 0 
N 57 33 0 
N 8 6 0 
N 67 62 0 
N 12 2 0 
N 91 79 0 
N 92 93 0 
N 56 77 0 
N 28 99 0 
N 26 46 0 
O 90 13 0 
O 80 49 0 
O 40 30 0 
O 82 2 0 
O 73 70 0 
O 51 20 0 
O 97 13 0 
O 80 42 0 
O 26 30 0 
O 79 25 0 
O 88 61 0 
O 65 82 0 
O 41 52 0 
O 47 19 0 
O 23 36 0 
O 76 11 0 
O 93 58 0 
O 88 4 0 
O 23 81 0 
O 32 97 0 
O 79 82 0 
O 12 10 0 
O 36 37 0 
O 57 65 0 
O 38 63 0 
O 55 62 0 
O 93 53 0 
O 60 12 0 
O 78 47 0 
O 97 2 0 
O 59 37 0 
O 85 55 0 
O 52 48 0 
O 8 99 0 
O 14 40 0 
O 57 38 0 
O 87 86 0 
O 74 44 0 
O 33 22 0 
O 82 89 0 
O 83 0 0 
O 50 10 0 
O 93 93 0 
O 24 17 0 
O 69 0 0 
O 65 95 0 
O 23 34 0 
O 40 26 0 
O 21 63 0 
O 99 69 0 
O 28 8 0 
O 4 94 0 
O 18 72 0 
O 51 87 0 
O 26 39 0 
O 58 58 0 
O 11 27 0 
O 18 45 0 
O 82 71 0 
O 98 80 0 
O 72 79 0 
O 13 89 0 
O 62 25 0 
O 21 14 0 
O 78 82 0 
O 82 99 0 
O 63 25 0 
556
Atoms. Timestep: 4
N 80 50 0 
N 66 0 0 
N 16 2 0 
N 62 10 0 
N 11 54 0 
N 30 46 0 
N 21 90 0 
N 4 48 0 
N 3 38 0 
N 75 4 0 
N 95 51 0 
N 40 11 0 
N 38 32 0 
N 82 74 0 
N 44 19 0 
N 12 99 0 
N 50 75 0 
N 10 37 0 
N 29 80 0 
N 18 72 0 
N 35 52 0 
N 3 81 0 
N 94 27 0 
N 67 69 0 
N 14 56 0 
N 29 65 0 
N 40 0 0 
N 55 48 0 
N 45 79 0 
N 19 62 0 
N 20 87 0 
N 31 68 0 
N 26 38 0 
N 48 70 0 
N 51 8 0 
N 54 46 0 
N 39 64 0 
N 13 66 0 
N 44 62 0 
N 67 53 0 
N 68 95 0 
N 88 45 0 
N 51 90 0 
N 42 15 0 
N 38 91 0 
N 18 19 0 
N 1 70 0 
N 59 1 0 
N 53 49 0 
N 84 71 0 
N 78 89 0 
N 99 2 0 
N 85 83 0 
N 92 76 0 
N 92 44 0 
N 9 2 0 
N 32 7 0 
N 12 44 0 
N 68 61 0 
N 8 55 0 
N 24 47 0 
N 18 63 0 
N 85 42 0 
N 38 30 0 
N 14 62 0 
N 54 19 0 
N 52 57 0 
N 25 30 0 
N 20 72 0 
N 66 55 0 
N 37 22 0 
N 32 88 0 
N 97 6 0 
N 86 16 0 
N 83 37 0 
N 43 1 0 
N 77 31 0 
N 65 41 0 
N 28 10 0 
N 25 16 0 
N 28 54 0 
N 73 80 0 
N 49 9 0 
N 13 40 0 
N 44 46 0 
N 27 58 0 
N 23 64 0 
N 5 54 0 
N 0 13 0 
N 50 11 0 
N 15 34 0 
N 97 13 0 
N 40 29 0 
N 27 71 0 
N 62 36 0 
N 64 50 0 
N 9 23 0 
N 69 89 0 
N 29 67 0 
N 47 59 0 
N 49 7 0 
N 37 17 0 
N 53 29 0 
N 69 77 0 
N 11 42 0 
N 74 79 0 
N 46 4 0 
N 94 58 0 
N 43 35 0 
N 33 18 0 
N 52 76 0 
N 32 53 0 
N 21 12 0 
N 8 14 0 
N 34 44 0 
N 56 34 0 
N 81 18 0 
N 23 47 0 
N 88 37 0 
N 8 32 0 
N 7 74 0 
N 89 4 0 
N 60 50 0 
N 6 17 0 
N 31 74 0 
N 18 32 0 
N 51 22 0 
N 9 31 0 
N 39 2 0 
N 1 43 0 
N 95 59 0 
N 64 80 0 
N 11 17 0 
N 11 27 0 
N 34 63 0 
N 18 36 0 
N 24 79 0 
N 4 45 0 
N 72 51 0 
N 42 7 0 
N 11 58 0 
N 31 34 0 
N 16 19 0 
N 40 96 0 
N 55 30 0 
N 80 24 0 
N 90 42 0 
N 53 87 0 
N 98 5 0 
N 5 4 0 
N 96 12 0 
N 98 48 0 
N 38 48 0 
N 40 57 0 
N 92 90 0 
N 43 51 0 
N 58 99 0 
N 88 27 0 
N 18 45 0 
N 85 84 0 
N 53 74 0 
N 54 13 0 
N 58 74 0 
N 3 78 0 
N 73 29 0 
N 91 91 0 
N 61 67 0 
N 61 87 0 
N 10 99 0 
N 49 32 0 
N 37 7 0 
N 62 89 0 
N 24 56 0 
N 98 20 0 
N 43 71 0 
N 94 96 0 
N 12 79 0 
N 57 18 0 
N 55 7 0 
N 71 16 0 
N 13 60 0 
N 10 19 0 
N 20 6 0 
N 28 17 0 
N 37 47 0 
N 82 49 0 
N 84 56 0 
N 0 23 0 
N 99 32 0 
N 89 53 0 
N 81 73 0 
N 24 18 0 
N 37 62 0 
N 2 80 0 
N 94 71 0 
N 2 54 0 
N 40 9 0 
N 59 56 0 
N 35 23 0 
N 56 66 0 
N 95 99 0 
N 70 58 0 
N 72 6 0 
N 68 39 0 
N 68 49 0 
N 56 65 0 
N 12 84 0 
N 31 28 0 
N 45 76 0 
N 39 15 0 
N 36 34 0 
N 13 82 0 
N 91 68 0 
N 82 42 0 
N 14 33 0 
N 73 56 0 
N 1 45 0 
N 81 15 0 
N 99 36 0 
N 55 47 0 
N 48 28 0 
N 92 5 0 
N 5 8 0 
N 4 17 0 
N 91 85 0 
N 16 11 0 
N 86 36 0 
N 70 98 0 
N 88 3 0 
N 52 67 0 
N 15 87 0 
N 97 20 0 
N 63 82 0 
N 82 90 0 
N 35 37 0 
N 84 15 0 
N 73 50 0 
N 23 25 0 
N 60 33 0 
N 86 55 0 
N 82 21 0 
N 98 45 0 
N 4 8 0 
N 27 74 0 
N 7 54 0 
N 67 12 0 
N 97 59 0 
N 98 3 0 
N 92 46 0 
N 59 37 0 
N 15 35 0 
N 3 71 0 
N 27 39 0 
N 16 0 0 
N 78 42 0 
N 30 56 0 
N 12 78 0 
N 71 5 0 
N 29 16 0 
N 14 78 0 
N 11 28 0 
N 23 85 0 
N 45 56 0 
N 58 3 0 
N 9 69 0 
N 72 63 0 
N 13 10 0 
N 60 95 0 
N 81 89 0 
N 24 67 0 
N 13 61 0 
N 88 33 0 
N 31 9 0 
N 57 38 0 
N 8 50 0 
N 24 60 0 
N 33 71 0 
N 10 57 0 
N 71 13 0 
N 8 65 0 
N 37 5 0 
N 74 33 0 
N 7 4 0 
N 38 29 0 
N 43 39 0 
N 52 44 0 
N 58 25 0 
N 7 49 0 
N 98 78 0 
N 91 79 0 
N 0 95 0 
N 48 93 0 
N 48 22 0 
N 63 22 0 
N 74 27 0 
N 63 86 0 
N 64 81 0 
N 68 51 0 
N 15 95 0 
N 67 40 0 
N 35 4 0 
N 32 81 0 
N 51 52 0 
N 95 72 0 
N 57 37 0 
N 12 18 0 
N 19 54 0 
N 61 26 0 
N 75 75 0 
N 50 87 0 
N 19 95 0 
N 97 12 0 
N 64 12 0 
N 41 51 0 
N 2 32 0 
N 76 10 0 
N 42 87 0 
N 19 63 0 
N 24 2 0 
N 65 81 0 
N 35 38 0 
N 48 53 0 
N 30 75 0 
N 2 60 0 
N 85 76 0 
N 25 87 0 
N 92 42 0 
N 91 70 0 
N 97 3 0 
N 52 59 0 
N 73 96 0 
N 53 13 0 
N 49 95 0 
N 34 14 0 
N 12 27 0 
N 2 95 0 
N 74 45 0 
N 43 60 0 
N 14 4 0 
N 75 51 0 
N 31 73 0 
N 66 26 0 
N 19 45 0 
N 40 55 0 
N 80 2 0 
N 93 88 0 
N 52 99 0 
N 78 94 0 
N 66 8 0 
N 66 54 0 
N 63 51 0 
N 28 49 0 
N 14 87 0 
N 21 36 0 
N 59 48 0 
N 94 66 0 
N 62 76 0 
N 11 98 0 
N 42 29 0 
N 22 24 0 
N 98 59 0 
N 20 3 0 
N 44 99 0 
N 95 80 0 
N 43 76 0 
N 14 40 0 
N 73 44 0 
N 56 70 0 
N 2 44 0 
N 45 86 0 
N 84 96 0 
N 57 42 0 
N 24 63 0 
N 67 59 0 
N 40 99 0 
N 46 61 0 
N 2 8 0 
N 70 3 0 
N 18 74 0 
N 61 44 0 
N 41 2 0 
N 61 35 0 
N 27 60 0 
N 87 27 0 
N 37 63 0 
N 51 0 0 
N 91 98 0 
N 39 30 0 
N 9 99 0 
N 93 84 0 
N 62 3 0 
N 34 52 0 
N 11 3 0 
N 49 10 0 
N 74 87 0 
N 65 73 0 
N 30 17 0 
N 72 34 0 
N 66 35 0 
N 44 26 0 
N 93 39 0 
N 88 86 0 
N 49 1 0 
N 7 95 0 
N 10 40 0 
N 71 82 0 
N 6 7 0 
N 56 24 0 
N 45 2 0 
N 93 58 0 
N 98 95 0 
N 98 31 0 
N 5 85 0 
N 86 37 0 
N 64 34 0 
N 58 51 0 
N 35 21 0 
N 23 79 0 
N 1 88 0 
N 85 14 0 
N 9 75 0 
N 56 57 0 
N 61 11 0 
N 49 44 0 
N 26 86 0 
N 73 24 0 
N 67 0 0 
N 61 57 0 
N 20 24 0 
N 31 67 0 
N 40 92 0 
N 75 59 0 
N 43 44 0 
N 84 40 0 
N 69 83 0 
N 5 49 0 
N 69 1 0 
N 85 51 0 
N 1 37 0 
N 49 98 0 
N 30 88 0 
N 42 53 0 
N 99 70 0 
N 55 5 0 
N 45 81 0 
N 18 73 0 
N 34 48 0 
N 34 78 0 
N 39 43 0 
N 64 8 0 
N 2 34 0 
N 1 44 0 
N 47 2 0 
N 8 47 0 
N 79 24 0 
N 31 48 0 
N 97 5 0 
N 73 33 0 
N 65 70 0 
N 10 62 0 
N 75 35 0 
N 4 94 0 
N 80 80 0 
N 14 37 0 
N 60 37 0 
N 40 36 0 
N 95 57 0 
N 1 23 0 
N 4 30 0 
N 67 95 0 
N 18 85 0 
N 24 15 0 
N 78 51 0 
N 73 88 0 
N 2 72 0 
N 38 61 0 
N 13 77 0 
N 97 51 0 
N 68 89 0 
N 38 35 0 
N 77 11 0 
N 7 64 0 
N 71 60 0 
N 31 16 0 
N 57 65 0 
N 30 0 0 
N 80 96 0 
N 12 12 0 
N 89 75 0 
N 17 60 0 
N 40 16 0 
N 57 33 0 
N 8 7 0 
N 68 62 0 
N 11 2 0 
N 90 79 0 
N 93 93 0 
N 57 77 0 
N 29 99 0 
N 26 45 0 
O 91 13 0 
O 80 48 0 
O 41 30 0 
O 82 1 0 
O 74 70 0 
O 52 20 0 
O 80 43 0 
O 26 29 0 
O 79 26 0 
O 88 62 0 
O 65 83 0 
O 42 52 0 
O 46 19 0 
O 23 37 0 
O 75 11 0 
O 87 4 0 
O 24 81 0 
O 32 98 0 
O 78 82 0 
O 11 10 0 
O 36 38 0 
O 38 64 0 
O 54 62 0 
O 92 53 0 
O 59 12 0 
O 77 47 0 
O 97 1 0 
O 85 54 0 
O 51 48 0 
O 7 99 0 
O 87 87 0 
O 74 43 0 
O 33 21 0 
O 82 88 0 
O 84 0 0 
O 51 10 0 
O 23 17 0 
O 69 99 0 
O 65 94 0 
O 24 34 0 
O 41 26 0 
O 21 64 0 
O 0 69 0 
O 28 7 0 
O 51 88 0 
O 26 40 0 
O 58 57 0 
O 82 70 0 
O 97 80 0 
O 72 78 0 
O 13 90 0 
O 63 25 0 
O 22 14 0 
O 77 82 0 
O 83 99 0 
O 63 26 0 
553
Atoms. Timestep: 5
N 80 49 0 
N 66 1 0 
N 16 3 0 
N 61 10 0 
N 11 53 0 
N 30 47 0 
N 21 89 0 
N 3 48 0 
N 2 38 0 
N 74 4 0 
N 94 51 0 
N 40 10 0 
N 39 32 0 
N 82 74 0 
N 45 19 0 
N 11 99 0 
N 51 75 0 
N 10 36 0 
N 28 80 0 
N 18 73 0 
N 35 51 0 
N 3 82 0 
N 93 27 0 
N 67 68 0 
N 14 57 0 
N 30 65 0 
N 41 0 0 
N 54 48 0 
N 46 79 0 
N 20 62 0 
N 20 86 0 
N 30 68 0 
N 26 39 0 
N 47 70 0 
N 51 9 0 
N 53 46 0 
N 38 64 0 
N 12 66 0 
N 45 62 0 
N 68 53 0 
N 67 95 0 
N 87 45 0 
N 51 89 0 
N 41 15 0 
N 38 92 0 
N 18 20 0 
N 0 70 0 
N 59 2 0 
N 53 48 0 
N 84 70 0 
N 78 88 0 
N 99 1 0 
N 85 84 0 
N 92 77 0 
N 92 43 0 
N 8 2 0 
N 31 7 0 
N 12 43 0 
N 69 61 0 
N 8 56 0 
N 24 48 0 
N 17 63 0 
N 85 41 0 
N 39 30 0 
N 15 62 0 
N 54 20 0 
N 53 57 0 
N 25 29 0 
N 19 72 0 
N 66 56 0 
N 37 21 0 
N 32 89 0 
N 97 6 0 
N 86 15 0 
N 82 37 0 
N 42 1 0 
N 77 30 0 
N 65 40 0 
N 28 9 0 
N 25 17 0 
N 29 54 0 
N 72 80 0 
N 49 10 0 
N 12 40 0 
N 45 46 0 
N 26 58 0 
N 22 64 0 
N 5 55 0 
N 1 13 0 
N 51 11 0 
N 15 33 0 
N 97 14 0 
N 41 29 0 
N 26 71 0 
N 63 36 0 
N 63 50 0 
N 10 23 0 
N 68 89 0 
N 29 66 0 
N 47 60 0 
N 49 8 0 
N 36 17 0 
N 53 30 0 
N 69 78 0 
N 12 42 0 
N 73 79 0 
N 45 4 0 
N 95 58 0 
N 43 34 0 
N 33 19 0 
N 51 76 0 
N 32 52 0 
N 22 12 0 
N 9 14 0 
N 33 44 0 
N 56 35 0 
N 80 18 0 
N 23 48 0 
N 87 37 0 
N 8 33 0 
N 6 74 0 
N 89 4 0 
N 60 49 0 
N 5 17 0 
N 31 73 0 
N 19 32 0 
N 51 21 0 
N 10 31 0 
N 39 3 0 
N 2 43 0 
N 95 60 0 
N 65 80 0 
N 10 17 0 
N 10 27 0 
N 34 64 0 
N 17 36 0 
N 24 80 0 
N 4 44 0 
N 72 52 0 
N 43 7 0 
N 12 58 0 
N 32 34 0 
N 16 20 0 
N 39 96 0 
N 56 30 0 
N 79 24 0 
N 90 43 0 
N 52 87 0 
N 97 5 0 
N 5 5 0 
N 95 12 0 
N 99 48 0 
N 38 47 0 
N 41 57 0 
N 92 91 0 
N 43 52 0 
N 58 0 0 
N 88 28 0 
N 18 46 0 
N 85 85 0 
N 52 74 0 
N 54 14 0 
N 57 74 0 
N 4 78 0 
N 73 28 0 
N 91 92 0 
N 62 67 0 
N 61 88 0 
N 9 99 0 
N 49 31 0 
N 38 7 0 
N 62 88 0 
N 24 57 0 
N 97 20 0 
N 43 72 0 
N 94 95 0 
N 11 79 0 
N 57 19 0 
N 55 8 0 
N 71 15 0 
N 13 61 0 
N 10 20 0 
N 21 6 0 
N 27 17 0 
N 37 48 0 
N 81 49 0 
N 85 56 0 
N 0 24 0 
N 0 32 0 
N 90 53 0 
N 82 73 0 
N 23 18 0 
N 37 63 0 
N 3 80 0 
N 94 72 0 
N 1 54 0 
N 40 8 0 
N 59 57 0 
N 34 23 0 
N 57 66 0 
N 95 98 0 
N 70 59 0 
N 73 6 0 
N 69 39 0 
N 69 49 0 
N 55 65 0 
N 12 83 0 
N 31 27 0 
N 46 76 0 
N 38 15 0 
N 36 35 0 
N 13 81 0 
N 90 68 0 
N 82 43 0 
N 14 32 0 
N 74 56 0 
N 2 45 0 
N 81 16 0 
N 0 36 0 
N 54 47 0 
N 48 29 0 
N 92 6 0 
N 5 9 0 
N 4 18 0 
N 91 86 0 
N 16 10 0 
N 85 36 0 
N 70 99 0 
N 88 4 0 
N 52 68 0 
N 14 87 0 
N 97 19 0 
N 63 83 0 
N 82 89 0 
N 34 37 0 
N 84 14 0 
N 73 51 0 
N 23 24 0 
N 59 33 0 
N 85 55 0 
N 83 21 0 
N 97 45 0 
N 4 7 0 
N 26 74 0 
N 7 55 0 
N 67 11 0 
N 97 60 0 
N 97 3 0 
N 91 46 0 
N 60 37 0 
N 15 36 0 
N 3 70 0 
N 27 40 0 
N 15 0 0 
N 79 42 0 
N 30 57 0 
N 13 78 0 
N 71 6 0 
N 29 15 0 
N 15 78 0 
N 12 28 0 
N 23 84 0 
N 45 55 0 
N 57 3 0 
N 9 70 0 
N 71 63 0 
N 12 10 0 
N 61 95 0 
N 81 88 0 
N 25 67 0 
N 12 61 0 
N 88 34 0 
N 30 9 0 
N 57 39 0 
N 8 51 0 
N 25 60 0 
N 32 71 0 
N 11 57 0 
N 71 12 0 
N 7 65 0 
N 37 4 0 
N 74 34 0 
N 7 5 0 
N 39 29 0 
N 42 39 0 
N 51 44 0 
N 59 25 0 
N 8 49 0 
N 97 78 0 
N 91 80 0 
N 0 94 0 
N 47 93 0 
N 48 21 0 
N 63 23 0 
N 75 27 0 
N 63 85 0 
N 65 81 0 
N 68 50 0 
N 16 95 0 
N 68 40 0 
N 35 3 0 
N 33 81 0 
N 51 51 0 
N 95 71 0 
N 56 37 0 
N 11 18 0 
N 19 53 0 
N 62 26 0 
N 75 76 0 
N 51 87 0 
N 19 96 0 
N 97 11 0 
N 63 12 0 
N 41 52 0 
N 3 32 0 
N 75 10 0 
N 41 87 0 
N 20 63 0 
N 24 1 0 
N 65 82 0 
N 36 38 0 
N 47 53 0 
N 30 76 0 
N 2 61 0 
N 85 77 0 
N 26 87 0 
N 91 42 0 
N 91 71 0 
N 97 2 0 
N 52 60 0 
N 73 95 0 
N 53 14 0 
N 50 95 0 
N 34 13 0 
N 13 27 0 
N 2 96 0 
N 74 45 0 
N 43 59 0 
N 14 3 0 
N 74 51 0 
N 30 73 0 
N 65 26 0 
N 19 44 0 
N 41 55 0 
N 80 1 0 
N 94 88 0 
N 51 99 0 
N 78 93 0 
N 66 9 0 
N 67 54 0 
N 62 51 0 
N 28 48 0 
N 14 88 0 
N 22 36 0 
N 59 47 0 
N 94 65 0 
N 63 76 0 
N 10 98 0 
N 42 30 0 
N 22 25 0 
N 98 58 0 
N 20 2 0 
N 43 99 0 
N 96 80 0 
N 42 76 0 
N 14 41 0 
N 74 44 0 
N 56 71 0 
N 3 44 0 
N 45 87 0 
N 84 95 0 
N 57 43 0 
N 23 63 0 
N 68 59 0 
N 40 98 0 
N 46 62 0 
N 1 8 0 
N 69 3 0 
N 17 74 0 
N 62 44 0 
N 40 2 0 
N 60 35 0 
N 27 61 0 
N 87 26 0 
N 37 64 0 
N 50 0 0 
N 90 98 0 
N 39 31 0 
N 8 99 0 
N 93 83 0 
N 62 4 0 
N 34 51 0 
N 12 3 0 
N 50 10 0 
N 75 87 0 
N 65 72 0 
N 31 17 0 
N 73 34 0 
N 65 35 0 
N 43 26 0 
N 94 39 0 
N 87 86 0 
N 49 0 0 
N 7 96 0 
N 10 39 0 
N 71 81 0 
N 6 8 0 
N 56 23 0 
N 45 3 0 
N 93 59 0 
N 99 95 0 
N 99 31 0 
N 6 85 0 
N 85 37 0 
N 63 34 0 
N 58 50 0 
N 34 21 0 
N 23 80 0 
N 2 88 0 
N 85 15 0 
N 9 76 0 
N 57 57 0 
N 61 12 0 
N 49 43 0 
N 25 86 0 
N 72 24 0 
N 68 0 0 
N 60 57 0 
N 19 24 0 
N 31 66 0 
N 39 92 0 
N 76 59 0 
N 42 44 0 
N 85 40 0 
N 68 83 0 
N 6 49 0 
N 69 2 0 
N 85 52 0 
N 2 37 0 
N 49 99 0 
N 31 88 0 
N 42 52 0 
N 99 69 0 
N 55 4 0 
N 45 80 0 
N 19 73 0 
N 34 47 0 
N 34 77 0 
N 39 44 0 
N 65 8 0 
N 2 35 0 
N 0 44 0 
N 47 1 0 
N 7 47 0 
N 78 24 0 
N 32 48 0 
N 97 4 0 
N 73 32 0 
N 65 69 0 
N 9 62 0 
N 74 35 0 
N 5 94 0 
N 80 81 0 
N 14 36 0 
N 61 37 0 
N 40 37 0 
N 95 56 0 
N 1 22 0 
N 4 29 0 
N 66 95 0 
N 17 85 0 
N 24 16 0 
N 79 51 0 
N 74 88 0 
N 2 71 0 
N 38 62 0 
N 14 77 0 
N 98 51 0 
N 67 89 0 
N 37 35 0 
N 76 11 0 
N 6 64 0 
N 72 60 0 
N 30 16 0 
N 57 64 0 
N 30 1 0 
N 81 96 0 
N 12 11 0 
N 90 75 0 
N 17 61 0 
N 40 17 0 
N 56 33 0 
N 8 6 0 
N 68 63 0 
N 12 2 0 
N 89 79 0 
N 93 92 0 
N 58 77 0 
N 30 99 0 
N 26 44 0 
O 91 14 0 
O 81 48 0 
O 40 30 0 
O 83 1 0 
O 74 69 0 
O 51 20 0 
O 79 43 0 
O 26 30 0 
O 80 26 0 
O 88 61 0 
O 64 83 0 
O 46 18 0 
O 23 38 0 
O 74 11 0 
O 86 4 0 
O 25 81 0 
O 32 97 0 
O 78 83 0 
O 11 11 0 
O 54 61 0 
O 92 52 0 
O 59 11 0 
O 76 47 0 
O 97 0 0 
O 85 53 0 
O 51 47 0 
O 6 99 0 
O 88 87 0 
O 75 43 0 
O 32 21 0 
O 82 87 0 
O 84 99 0 
O 52 10 0 
O 23 16 0 
O 68 99 0 
O 65 93 0 
O 24 33 0 
O 41 27 0 
O 21 63 0 
O 0 68 0 
O 27 7 0 
O 52 88 0 
O 25 40 0 
O 58 58 0 
O 82 71 0 
O 97 79 0 
O 72 77 0 
O 13 89 0 
O 64 25 0 
O 22 15 0 
O 77 83 0 
O 83 0 0 
O 64 26 0 
542
Atoms. Timestep: 6
N 80 50 0 
N 66 2 0 
N 16 2 0 
N 60 10 0 
N 11 52 0 
N 29 47 0 
N 21 90 0 
N 3 47 0 
N 3 38 0 
N 74 3 0 
N 93 51 0 
N 40 11 0 
N 40 32 0 
N 82 73 0 
N 45 18 0 
N 10 99 0 
N 51 74 0 
N 11 36 0 
N 27 80 0 
N 19 73 0 
N 35 50 0 
N 3 83 0 
N 94 27 0 
N 66 68 0 
N 13 57 0 
N 30 64 0 
N 41 1 0 
N 53 48 0 
N 46 78 0 
N 20 63 0 
N 20 85 0 
N 29 68 0 
N 25 39 0 
N 47 71 0 
N 52 9 0 
N 52 46 0 
N 38 63 0 
N 13 66 0 
N 45 63 0 
N 69 53 0 
N 67 94 0 
N 86 45 0 
N 52 89 0 
N 40 15 0 
N 37 92 0 
N 19 20 0 
N 0 69 0 
N 59 1 0 
N 52 48 0 
N 83 70 0 
N 78 87 0 
N 99 0 0 
N 86 84 0 
N 91 77 0 
N 92 42 0 
N 7 2 0 
N 30 7 0 
N 12 42 0 
N 69 60 0 
N 9 56 0 
N 25 48 0 
N 18 63 0 
N 85 40 0 
N 40 30 0 
N 15 61 0 
N 54 19 0 
N 54 57 0 
N 25 30 0 
N 20 72 0 
N 65 56 0 
N 36 21 0 
N 33 89 0 
N 98 6 0 
N 86 14 0 
N 82 36 0 
N 42 2 0 
N 77 31 0 
N 65 39 0 
N 28 8 0 
N 24 17 0 
N 30 54 0 
N 72 80 0 
N 50 10 0 
N 11 40 0 
N 44 46 0 
N 27 58 0 
N 21 64 0 
N 5 56 0 
N 1 14 0 
N 52 11 0 
N 15 34 0 
N 97 13 0 
N 41 29 0 
N 27 71 0 
N 63 37 0 
N 62 50 0 
N 10 22 0 
N 68 90 0 
N 29 65 0 
N 46 60 0 
N 49 9 0 
N 35 17 0 
N 53 29 0 
N 70 78 0 
N 13 42 0 
N 72 79 0 
N 45 5 0 
N 95 59 0 
N 44 34 0 
N 32 19 0 
N 51 77 0 
N 32 53 0 
N 22 13 0 
N 9 13 0 
N 34 44 0 
N 57 35 0 
N 80 17 0 
N 23 47 0 
N 88 37 0 
N 7 33 0 
N 6 75 0 
N 88 4 0 
N 59 49 0 
N 6 17 0 
N 32 73 0 
N 19 31 0 
N 51 20 0 
N 10 30 0 
N 39 4 0 
N 1 43 0 
N 94 60 0 
N 66 80 0 
N 9 17 0 
N 10 28 0 
N 33 64 0 
N 16 36 0 
N 24 81 0 
N 5 44 0 
N 72 53 0 
N 42 7 0 
N 12 57 0 
N 33 34 0 
N 16 21 0 
N 38 96 0 
N 57 30 0 
N 80 24 0 
N 90 44 0 
N 53 87 0 
N 97 5 0 
N 5 6 0 
N 94 12 0 
N 99 47 0 
N 38 46 0 
N 40 57 0 
N 91 91 0 
N 43 51 0 
N 58 99 0 
N 87 28 0 
N 19 46 0 
N 85 86 0 
N 52 75 0 
N 53 14 0 
N 58 74 0 
N 4 77 0 
N 74 28 0 
N 91 93 0 
N 61 67 0 
N 61 87 0 
N 8 99 0 
N 49 32 0 
N 38 6 0 
N 62 89 0 
N 24 58 0 
N 98 20 0 
N 44 72 0 
N 94 94 0 
N 11 78 0 
N 57 20 0 
N 55 9 0 
N 70 15 0 
N 12 61 0 
N 11 20 0 
N 21 5 0 
N 27 16 0 
N 38 48 0 
N 81 48 0 
N 86 56 0 
N 0 23 0 
N 0 31 0 
N 91 53 0 
N 82 72 0 
N 22 18 0 
N 37 62 0 
N 4 80 0 
N 93 72 0 
N 1 53 0 
N 39 8 0 
N 59 58 0 
N 33 23 0 
N 56 66 0 
N 96 98 0 
N 70 58 0 
N 73 7 0 
N 69 40 0 
N 68 49 0 
N 55 64 0 
N 11 83 0 
N 30 27 0 
N 47 76 0 
N 39 15 0 
N 36 36 0 
N 12 81 0 
N 89 68 0 
N 82 44 0 
N 14 33 0 
N 74 57 0 
N 2 44 0 
N 81 17 0 
N 0 37 0 
N 53 47 0 
N 48 30 0 
N 91 6 0 
N 4 9 0 
N 5 18 0 
N 90 86 0 
N 15 10 0 
N 86 36 0 
N 69 99 0 
N 87 4 0 
N 52 67 0 
N 14 88 0 
N 96 19 0 
N 64 83 0 
N 82 89 0 
N 35 37 0 
N 84 13 0 
N 74 51 0 
N 23 23 0 
N 60 33 0 
N 84 55 0 
N 82 21 0 
N 97 44 0 
N 5 7 0 
N 25 74 0 
N 8 55 0 
N 66 11 0 
N 97 59 0 
N 97 2 0 
N 91 45 0 
N 59 37 0 
N 14 36 0 
N 2 70 0 
N 26 40 0 
N 16 0 0 
N 79 43 0 
N 30 58 0 
N 12 78 0 
N 71 7 0 
N 28 15 0 
N 14 78 0 
N 11 28 0 
N 23 83 0 
N 45 54 0 
N 58 3 0 
N 8 70 0 
N 71 62 0 
N 12 11 0 
N 60 95 0 
N 82 88 0 
N 25 66 0 
N 12 60 0 
N 89 34 0 
N 29 9 0 
N 57 38 0 
N 8 52 0 
N 24 60 0 
N 33 71 0 
N 11 58 0 
N 71 11 0 
N 7 66 0 
N 38 4 0 
N 74 33 0 
N 6 5 0 
N 40 29 0 
N 42 40 0 
N 51 45 0 
N 60 25 0 
N 7 49 0 
N 97 79 0 
N 91 79 0 
N 1 94 0 
N 48 93 0 
N 49 21 0 
N 64 23 0 
N 74 27 0 
N 64 85 0 
N 65 82 0 
N 67 50 0 
N 17 95 0 
N 68 39 0 
N 34 3 0 
N 32 81 0 
N 51 50 0 
N 96 71 0 
N 56 36 0 
N 10 18 0 
N 19 54 0 
N 62 25 0 
N 75 77 0 
N 51 88 0 
N 18 96 0 
N 97 10 0 
N 62 12 0 
N 42 52 0 
N 2 32 0 
N 74 10 0 
N 40 87 0 
N 21 63 0 
N 23 1 0 
N 64 82 0 
N 36 39 0 
N 48 53 0 
N 31 76 0 
N 2 60 0 
N 84 77 0 
N 26 88 0 
N 91 43 0 
N 91 72 0 
N 97 1 0 
N 53 60 0 
N 72 95 0 
N 53 13 0 
N 51 95 0 
N 34 12 0 
N 14 27 0 
N 1 96 0 
N 74 44 0 
N 44 59 0 
N 13 3 0 
N 74 50 0 
N 30 72 0 
N 64 26 0 
N 19 45 0 
N 42 55 0 
N 81 1 0 
N 94 89 0 
N 51 98 0 
N 78 92 0 
N 67 9 0 
N 67 53 0 
N 61 51 0 
N 28 49 0 
N 14 89 0 
N 22 37 0 
N 59 48 0 
N 93 65 0 
N 62 76 0 
N 9 98 0 
N 41 30 0 
N 23 25 0 
N 98 57 0 
N 20 3 0 
N 43 0 0 
N 96 79 0 
N 42 77 0 
N 14 40 0 
N 74 43 0 
N 56 72 0 
N 3 43 0 
N 45 88 0 
N 84 96 0 
N 58 43 0 
N 22 63 0 
N 68 58 0 
N 41 98 0 
N 47 62 0 
N 1 7 0 
N 68 3 0 
N 17 75 0 
N 61 44 0 
N 41 2 0 
N 60 36 0 
N 27 62 0 
N 86 26 0 
N 36 64 0 
N 51 0 0 
N 89 98 0 
N 40 31 0 
N 7 99 0 
N 92 83 0 
N 62 3 0 
N 34 52 0 
N 12 4 0 
N 51 10 0 
N 76 87 0 
N 65 71 0 
N 31 18 0 
N 72 34 0 
N 66 35 0 
N 42 26 0 
N 95 39 0 
N 88 86 0 
N 49 99 0 
N 6 96 0 
N 10 40 0 
N 71 80 0 
N 6 9 0 
N 57 23 0 
N 45 2 0 
N 94 59 0 
N 0 95 0 
N 99 32 0 
N 6 86 0 
N 85 38 0 
N 63 33 0 
N 58 49 0 
N 33 21 0 
N 23 81 0 
N 3 88 0 
N 84 15 0 
N 8 76 0 
N 58 57 0 
N 61 11 0 
N 49 44 0 
N 25 85 0 
N 72 25 0 
N 68 1 0 
N 60 58 0 
N 20 24 0 
N 30 66 0 
N 40 92 0 
N 76 58 0 
N 42 45 0 
N 86 40 0 
N 67 83 0 
N 6 50 0 
N 68 2 0 
N 85 53 0 
N 2 36 0 
N 50 99 0 
N 30 88 0 
N 42 51 0 
N 99 68 0 
N 55 3 0 
N 46 80 0 
N 20 73 0 
N 33 47 0 
N 35 77 0 
N 39 45 0 
N 66 8 0 
N 1 35 0 
N 99 44 0 
N 47 0 0 
N 8 47 0 
N 78 25 0 
N 33 48 0 
N 97 4 0 
N 73 31 0 
N 66 69 0 
N 8 62 0 
N 73 35 0 
N 5 93 0 
N 79 81 0 
N 14 37 0 
N 61 36 0 
N 40 38 0 
N 94 56 0 
N 1 23 0 
N 5 29 0 
N 65 95 0 
N 18 85 0 
N 23 16 0 
N 80 51 0 
N 73 88 0 
N 1 71 0 
N 38 61 0 
N 13 77 0 
N 97 51 0 
N 66 89 0 
N 38 35 0 
N 76 12 0 
N 5 64 0 
N 72 61 0 
N 30 17 0 
N 58 64 0 
N 30 2 0 
N 81 95 0 
N 11 11 0 
N 91 75 0 
N 16 61 0 
N 39 17 0 
N 56 34 0 
N 8 5 0 
N 69 63 0 
N 11 2 0 
N 89 78 0 
N 92 92 0 
N 59 77 0 
N 31 99 0 
N 26 43 0 
O 91 15 0 
O 83 2 0 
O 74 70 0 
O 27 30 0 
O 79 26 0 
O 89 61 0 
O 47 18 0 
O 22 38 0 
O 73 11 0 
O 85 4 0 
O 26 81 0 
O 32 96 0 
O 77 83 0 
O 55 61 0 
O 92 53 0 
O 58 11 0 
O 76 48 0 
O 97 99 0 
O 50 47 0 
O 6 0 0 
O 88 88 0 
O 75 44 0 
O 32 20 0 
O 83 87 0 
O 83 99 0 
O 53 10 0 
O 67 99 0 
O 65 92 0 
O 24 34 0 
O 42 27 0 
O 0 67 0 
O 27 6 0 
O 53 88 0 
O 25 41 0 
O 58 59 0 
O 83 71 0 
O 73 77 0 
O 12 89 0 
O 63 25 0 
O 23 15 0 
O 76 83 0 
O 84 0 0 
533
Atoms. Timestep: 7
N 80 49 0 
N 66 3 0 
N 15 2 0 
N 59 10 0 
N 12 52 0 
N 29 48 0 
N 20 90 0 
N 3 48 0 
N 2 38 0 
N 73 3 0 
N 92 51 0 
N 40 10 0 
N 40 33 0 
N 82 72 0 
N 46 18 0 
N 10 98 0 
N 51 73 0 
N 11 35 0 
N 27 81 0 
N 19 74 0 
N 35 49 0 
N 2 83 0 
N 94 26 0 
N 66 67 0 
N 13 56 0 
N 31 64 0 
N 41 2 0 
N 53 47 0 
N 47 78 0 
N 20 62 0 
N 20 84 0 
N 29 67 0 
N 25 39 0 
N 47 72 0 
N 53 9 0 
N 51 46 0 
N 38 62 0 
N 14 66 0 
N 44 63 0 
N 69 54 0 
N 67 93 0 
N 86 46 0 
N 53 89 0 
N 39 15 0 
N 37 93 0 
N 19 21 0 
N 0 69 0 
N 60 1 0 
N 52 47 0 
N 83 71 0 
N 77 87 0 
N 98 0 0 
N 86 83 0 
N 92 77 0 
N 93 42 0 
N 6 2 0 
N 29 7 0 
N 11 42 0 
N 68 60 0 
N 9 55 0 
N 24 48 0 
N 19 63 0 
N 86 40 0 
N 39 30 0 
N 14 61 0 
N 55 19 0 
N 54 58 0 
N 26 30 0 
N 19 72 0 
N 65 55 0 
N 37 21 0 
N 33 90 0 
N 98 5 0 
N 86 15 0 
N 83 36 0 
N 42 3 0 
N 77 30 0 
N 64 39 0 
N 27 8 0 
N 24 18 0 
N 31 54 0 
N 72 79 0 
N 51 10 0 
N 12 40 0 
N 43 46 0 
N 27 59 0 
N 20 64 0 
N 6 56 0 
N 1 15 0 
N 53 11 0 
N 14 34 0 
N 97 12 0 
N 41 28 0 
N 26 71 0 
N 63 38 0 
N 63 50 0 
N 11 22 0 
N 68 91 0 
N 29 64 0 
N 46 61 0 
N 49 10 0 
N 34 17 0 
N 53 28 0 
N 71 78 0 
N 13 43 0 
N 73 79 0 
N 45 6 0 
N 95 60 0 
N 44 33 0 
N 32 20 0 
N 51 78 0 
N 33 53 0 
N 23 13 0 
N 8 13 0 
N 33 44 0 
N 57 34 0 
N 80 18 0 
N 23 48 0 
N 88 36 0 
N 7 32 0 
N 7 75 0 
N 88 3 0 
N 58 49 0 
N 6 18 0 
N 32 72 0 
N 19 32 0 
N 52 20 0 
N 9 30 0 
N 38 4 0 
N 1 42 0 
N 94 61 0 
N 65 80 0 
N 8 17 0 
N 10 29 0 
N 33 65 0 
N 16 35 0 
N 25 81 0 
N 5 43 0 
N 73 53 0 
N 43 7 0 
N 12 58 0 
N 34 34 0 
N 16 20 0 
N 37 96 0 
N 57 29 0 
N 80 25 0 
N 90 43 0 
N 53 88 0 
N 97 6 0 
N 6 6 0 
N 94 11 0 
N 99 46 0 
N 39 46 0 
N 39 57 0 
N 91 90 0 
N 44 51 0 
N 58 0 0 
N 87 27 0 
N 19 45 0 
N 84 86 0 
N 52 74 0 
N 53 13 0 
N 59 74 0 
N 4 76 0 
N 74 29 0 
N 91 92 0 
N 60 67 0 
N 60 87 0 
N 9 99 0 
N 48 32 0 
N 38 5 0 
N 61 89 0 
N 24 59 0 
N 97 20 0 
N 44 71 0 
N 95 94 0 
N 12 78 0 
N 58 20 0 
N 54 9 0 
N 70 14 0 
N 11 61 0 
N 10 20 0 
N 20 5 0 
N 26 16 0 
N 39 48 0 
N 80 48 0 
N 85 56 0 
N 99 23 0 
N 0 32 0 
N 92 53 0 
N 83 72 0 
N 22 19 0 
N 37 63 0 
N 4 79 0 
N 94 72 0 
N 1 54 0 
N 39 7 0 
N 59 59 0 
N 32 23 0 
N 56 65 0 
N 95 98 0 
N 70 59 0 
N 73 8 0 
N 69 39 0 
N 67 49 0 
N 55 63 0 
N 10 83 0 
N 30 26 0 
N 47 75 0 
N 38 15 0 
N 35 36 0 
N 11 81 0 
N 89 67 0 
N 82 45 0 
N 15 33 0 
N 75 57 0 
N 2 45 0 
N 81 16 0 
N 99 37 0 
N 54 47 0 
N 48 31 0 
N 91 7 0 
N 4 8 0 
N 5 17 0 
N 90 87 0 
N 15 9 0 
N 86 35 0 
N 68 99 0 
N 86 4 0 
N 53 67 0 
N 13 88 0 
N 96 18 0 
N 64 84 0 
N 83 89 0 
N 34 37 0 
N 85 13 0 
N 75 51 0 
N 23 22 0 
N 59 33 0 
N 84 54 0 
N 81 21 0 
N 97 43 0 
N 5 8 0 
N 24 74 0 
N 8 56 0 
N 66 12 0 
N 98 59 0 
N 97 3 0 
N 91 46 0 
N 60 37 0 
N 15 36 0 
N 2 69 0 
N 25 40 0 
N 16 99 0 
N 80 43 0 
N 30 59 0 
N 13 78 0 
N 71 8 0 
N 29 15 0 
N 14 77 0 
N 12 28 0 
N 24 83 0 
N 46 54 0 
N 59 3 0 
N 9 70 0 
N 71 63 0 
N 12 10 0 
N 59 95 0 
N 82 87 0 
N 25 65 0 
N 11 60 0 
N 89 33 0 
N 28 9 0 
N 56 38 0 
N 9 52 0 
N 25 60 0 
N 33 70 0 
N 11 57 0 
N 72 11 0 
N 8 66 0 
N 38 3 0 
N 73 33 0 
N 6 4 0 
N 39 29 0 
N 43 40 0 
N 50 45 0 
N 61 25 0 
N 7 48 0 
N 97 78 0 
N 91 78 0 
N 0 94 0 
N 49 93 0 
N 48 21 0 
N 65 23 0 
N 73 27 0 
N 63 85 0 
N 65 83 0 
N 66 50 0 
N 16 95 0 
N 67 39 0 
N 35 3 0 
N 32 82 0 
N 51 49 0 
N 96 72 0 
N 56 35 0 
N 11 18 0 
N 20 54 0 
N 63 25 0 
N 74 77 0 
N 52 88 0 
N 18 95 0 
N 98 10 0 
N 61 12 0 
N 42 51 0 
N 3 32 0 
N 73 10 0 
N 41 87 0 
N 22 63 0 
N 24 1 0 
N 64 81 0 
N 35 39 0 
N 49 53 0 
N 32 76 0 
N 3 60 0 
N 84 78 0 
N 27 88 0 
N 92 43 0 
N 92 72 0 
N 97 1 0 
N 54 60 0 
N 73 95 0 
N 53 12 0 
N 51 94 0 
N 35 12 0 
N 15 27 0 
N 1 95 0 
N 75 44 0 
N 43 59 0 
N 13 2 0 
N 74 49 0 
N 29 72 0 
N 64 25 0 
N 18 45 0 
N 42 56 0 
N 82 1 0 
N 94 88 0 
N 50 98 0 
N 77 92 0 
N 67 10 0 
N 66 53 0 
N 61 50 0 
N 29 49 0 
N 13 89 0 
N 22 38 0 
N 59 47 0 
N 93 66 0 
N 62 75 0 
N 9 97 0 
N 41 31 0 
N 22 25 0 
N 98 56 0 
N 19 3 0 
N 44 0 0 
N 96 78 0 
N 42 78 0 
N 13 40 0 
N 75 43 0 
N 56 71 0 
N 3 42 0 
N 44 88 0 
N 83 96 0 
N 57 43 0 
N 22 62 0 
N 67 58 0 
N 40 98 0 
N 48 62 0 
N 2 7 0 
N 67 3 0 
N 17 74 0 
N 61 45 0 
N 41 3 0 
N 61 36 0 
N 27 63 0 
N 87 26 0 
N 35 64 0 
N 52 0 0 
N 89 97 0 
N 39 31 0 
N 7 98 0 
N 92 82 0 
N 62 4 0 
N 34 53 0 
N 12 3 0 
N 52 10 0 
N 76 86 0 
N 65 72 0 
N 31 19 0 
N 71 34 0 
N 66 34 0 
N 42 27 0 
N 96 39 0 
N 88 87 0 
N 48 99 0 
N 6 95 0 
N 10 39 0 
N 71 79 0 
N 6 10 0 
N 57 22 0 
N 46 2 0 
N 93 59 0 
N 0 96 0 
N 99 33 0 
N 5 86 0 
N 85 39 0 
N 63 34 0 
N 58 48 0 
N 33 20 0 
N 23 81 0 
N 2 88 0 
N 83 15 0 
N 7 76 0 
N 58 58 0 
N 60 11 0 
N 50 44 0 
N 26 85 0 
N 73 25 0 
N 68 2 0 
N 60 59 0 
N 21 24 0 
N 31 66 0 
N 39 92 0 
N 76 57 0 
N 41 45 0 
N 86 39 0 
N 67 82 0 
N 5 50 0 
N 67 2 0 
N 85 52 0 
N 3 36 0 
N 51 99 0 
N 30 87 0 
N 41 51 0 
N 0 68 0 
N 55 4 0 
N 46 79 0 
N 21 73 0 
N 34 47 0 
N 35 78 0 
N 40 45 0 
N 66 9 0 
N 2 35 0 
N 0 44 0 
N 47 1 0 
N 7 47 0 
N 78 26 0 
N 32 48 0 
N 97 4 0 
N 73 30 0 
N 66 70 0 
N 8 63 0 
N 72 35 0 
N 5 94 0 
N 78 81 0 
N 13 37 0 
N 61 35 0 
N 40 37 0 
N 94 55 0 
N 1 22 0 
N 4 29 0 
N 65 94 0 
N 18 84 0 
N 23 15 0 
N 79 51 0 
N 73 89 0 
N 1 70 0 
N 37 61 0 
N 12 77 0 
N 97 50 0 
N 66 90 0 
N 38 34 0 
N 75 12 0 
N 6 64 0 
N 71 61 0 
N 31 17 0 
N 58 63 0 
N 29 2 0 
N 81 96 0 
N 11 10 0 
N 91 76 0 
N 16 62 0 
N 39 16 0 
N 55 34 0 
N 7 5 0 
N 69 64 0 
N 10 2 0 
N 89 79 0 
N 93 92 0 
N 59 78 0 
N 32 99 0 
N 25 43 0 
O 91 14 0 
O 84 2 0 
O 73 70 0 
O 28 30 0 
O 79 27 0 
O 89 60 0 
O 48 18 0 
O 73 12 0 
O 85 5 0 
O 26 82 0 
O 33 96 0 
O 77 84 0 
O 55 60 0 
O 58 12 0 
O 76 47 0 
O 96 99 0 
O 50 48 0 
O 7 0 0 
O 87 88 0 
O 83 88 0 
O 83 0 0 
O 54 10 0 
O 67 0 0 
O 64 92 0 
O 23 34 0 
O 1 67 0 
O 26 6 0 
O 24 41 0 
O 58 60 0 
O 73 78 0 
O 11 89 0 
O 76 82 0 
O 85 0 0 
529
Atoms. Timestep: 8
N 80 50 0 
N 66 2 0 
N 14 2 0 
N 58 10 0 
N 13 52 0 
N 29 49 0 
N 19 90 0 
N 4 48 0 
N 2 37 0 
N 73 4 0 
N 91 51 0 
N 41 10 0 
N 41 33 0 
N 82 73 0 
N 47 18 0 
N 10 97 0 
N 51 72 0 
N 10 35 0 
N 27 82 0 
N 19 73 0 
N 36 49 0 
N 2 84 0 
N 94 27 0 
N 67 67 0 
N 13 57 0 
N 32 64 0 
N 40 2 0 
N 52 47 0 
N 48 78 0 
N 20 61 0 
N 20 85 0 
N 29 68 0 
N 24 39 0 
N 47 73 0 
N 54 9 0 
N 51 46 0 
N 37 62 0 
N 15 66 0 
N 45 63 0 
N 69 55 0 
N 66 93 0 
N 86 47 0 
N 54 89 0 
N 39 16 0 
N 36 93 0 
N 20 21 0 
N 99 69 0 
N 60 0 0 
N 51 47 0 
N 84 71 0 
N 77 86 0 
N 98 1 0 
N 86 82 0 
N 93 77 0 
N 92 42 0 
N 7 2 0 
N 28 7 0 
N 10 42 0 
N 69 60 0 
N 8 55 0 
N 24 49 0 
N 20 63 0 
N 86 39 0 
N 39 31 0 
N 13 61 0 
N 55 18 0 
N 54 57 0 
N 27 30 0 
N 19 71 0 
N 64 55 0 
N 37 20 0 
N 34 90 0 
N 98 4 0 
N 85 15 0 
N 83 35 0 
N 42 2 0 
N 77 29 0 
N 63 39 0 
N 26 8 0 
N 24 19 0 
N 30 54 0 
N 73 79 0 
N 50 10 0 
N 12 41 0 
N 42 46 0 
N 27 58 0 
N 20 65 0 
N 7 56 0 
N 2 15 0 
N 52 11 0 
N 15 34 0 
N 98 12 0 
N 41 29 0 
N 25 71 0 
N 63 37 0 
N 64 50 0 
N 12 22 0 
N 67 91 0 
N 29 63 0 
N 45 61 0 
N 49 9 0 
N 34 18 0 
N 52 28 0 
N 70 78 0 
N 13 42 0 
N 73 78 0 
N 44 6 0 
N 95 61 0 
N 43 33 0 
N 33 20 0 
N 52 78 0 
N 32 53 0 
N 23 14 0 
N 8 14 0 
N 33 43 0 
N 57 35 0 
N 79 18 0 
N 22 48 0 
N 88 35 0 
N 7 31 0 
N 8 75 0 
N 88 2 0 
N 59 49 0 
N 6 17 0 
N 33 72 0 
N 19 31 0 
N 53 20 0 
N 9 29 0 
N 39 4 0 
N 0 42 0 
N 94 62 0 
N 64 80 0 
N 8 16 0 
N 10 30 0 
N 33 66 0 
N 16 34 0 
N 26 81 0 
N 5 44 0 
N 73 52 0 
N 43 6 0 
N 12 57 0 
N 34 35 0 
N 16 19 0 
N 36 96 0 
N 58 29 0 
N 80 26 0 
N 89 43 0 
N 54 88 0 
N 96 6 0 
N 6 7 0 
N 95 11 0 
N 98 46 0 
N 39 47 0 
N 39 56 0 
N 91 89 0 
N 44 52 0 
N 58 1 0 
N 87 26 0 
N 20 45 0 
N 85 86 0 
N 51 74 0 
N 54 13 0 
N 59 73 0 
N 5 76 0 
N 74 28 0 
N 91 91 0 
N 60 68 0 
N 61 87 0 
N 9 98 0 
N 49 32 0 
N 39 5 0 
N 60 89 0 
N 25 59 0 
N 97 21 0 
N 45 71 0 
N 94 94 0 
N 12 79 0 
N 58 19 0 
N 54 10 0 
N 71 14 0 
N 12 61 0 
N 10 19 0 
N 20 4 0 
N 25 16 0 
N 38 48 0 
N 79 48 0 
N 85 55 0 
N 0 23 0 
N 0 31 0 
N 92 54 0 
N 83 73 0 
N 21 19 0 
N 37 64 0 
N 3 79 0 
N 94 71 0 
N 1 53 0 
N 39 6 0 
N 59 60 0 
N 33 23 0 
N 56 64 0 
N 95 99 0 
N 69 59 0 
N 73 9 0 
N 68 39 0 
N 67 48 0 
N 54 63 0 
N 11 83 0 
N 31 26 0 
N 47 76 0 
N 38 14 0 
N 34 36 0 
N 12 81 0 
N 89 66 0 
N 82 46 0 
N 16 33 0 
N 75 58 0 
N 2 44 0 
N 82 16 0 
N 0 37 0 
N 54 48 0 
N 48 30 0 
N 90 7 0 
N 4 9 0 
N 5 18 0 
N 91 87 0 
N 15 10 0 
N 86 34 0 
N 68 98 0 
N 86 5 0 
N 53 66 0 
N 12 88 0 
N 96 17 0 
N 64 85 0 
N 83 88 0 
N 34 38 0 
N 86 13 0 
N 75 50 0 
N 22 22 0 
N 59 34 0 
N 83 54 0 
N 80 21 0 
N 96 43 0 
N 5 7 0 
N 25 74 0 
N 9 56 0 
N 65 12 0 
N 98 60 0 
N 96 3 0 
N 91 47 0 
N 60 38 0 
N 16 36 0 
N 2 68 0 
N 24 40 0 
N 16 98 0 
N 80 42 0 
N 30 60 0 
N 13 77 0 
N 72 8 0 
N 30 15 0 
N 14 76 0 
N 11 28 0 
N 23 83 0 
N 46 53 0 
N 60 3 0 
N 10 70 0 
N 71 62 0 
N 12 9 0 
N 59 94 0 
N 83 87 0 
N 26 65 0 
N 11 59 0 
N 88 33 0 
N 27 9 0 
N 55 38 0 
N 10 52 0 
N 26 60 0 
N 33 71 0 
N 10 57 0 
N 72 12 0 
N 9 66 0 
N 37 3 0 
N 73 34 0 
N 6 3 0 
N 39 28 0 
N 43 41 0 
N 50 46 0 
N 61 24 0 
N 6 48 0 
N 97 79 0 
N 92 78 0 
N 99 94 0 
N 48 93 0 
N 48 20 0 
N 66 23 0 
N 72 27 0 
N 62 85 0 
N 66 83 0 
N 67 50 0 
N 17 95 0 
N 66 39 0 
N 36 3 0 
N 32 83 0 
N 50 49 0 
N 95 72 0 
N 55 35 0 
N 10 18 0 
N 19 54 0 
N 64 25 0 
N 73 77 0 
N 52 87 0 
N 18 94 0 
N 97 10 0 
N 61 12 0 
N 41 51 0 
N 4 32 0 
N 73 11 0 
N 41 88 0 
N 21 63 0 
N 25 1 0 
N 64 82 0 
N 35 40 0 
N 49 54 0 
N 32 75 0 
N 2 60 0 
N 85 78 0 
N 26 88 0 
N 92 44 0 
N 92 71 0 
N 97 2 0 
N 55 60 0 
N 74 95 0 
N 54 12 0 
N 50 94 0 
N 35 11 0 
N 16 27 0 
N 1 96 0 
N 75 45 0 
N 42 59 0 
N 13 3 0 
N 74 48 0 
N 29 71 0 
N 64 24 0 
N 18 44 0 
N 41 56 0 
N 83 1 0 
N 95 88 0 
N 50 99 0 
N 77 93 0 
N 66 10 0 
N 65 53 0 
N 60 50 0 
N 30 49 0 
N 12 89 0 
N 23 38 0 
N 59 48 0 
N 92 66 0 
N 63 75 0 
N 8 97 0 
N 40 31 0 
N 23 25 0 
N 98 57 0 
N 19 4 0 
N 44 99 0 
N 96 77 0 
N 43 78 0 
N 14 40 0 
N 76 43 0 
N 56 72 0 
N 3 43 0 
N 44 89 0 
N 83 95 0 
N 58 43 0 
N 23 62 0 
N 68 58 0 
N 40 97 0 
N 47 62 0 
N 2 6 0 
N 67 3 0 
N 17 73 0 
N 60 45 0 
N 41 4 0 
N 60 36 0 
N 26 63 0 
N 87 25 0 
N 35 65 0 
N 53 0 0 
N 89 98 0 
N 39 32 0 
N 7 97 0 
N 92 81 0 
N 61 4 0 
N 35 53 0 
N 12 2 0 
N 53 10 0 
N 76 85 0 
N 64 72 0 
N 32 19 0 
N 70 34 0 
N 65 34 0 
N 41 27 0 
N 96 38 0 
N 87 87 0 
N 49 99 0 
N 6 96 0 
N 9 39 0 
N 71 79 0 
N 6 11 0 
N 57 23 0 
N 46 3 0 
N 93 60 0 
N 0 95 0 
N 0 33 0 
N 5 87 0 
N 85 38 0 
N 63 35 0 
N 57 48 0 
N 33 19 0 
N 24 81 0 
N 2 87 0 
N 84 15 0 
N 8 76 0 
N 58 59 0 
N 60 12 0 
N 50 44 0 
N 26 84 0 
N 74 25 0 
N 67 2 0 
N 60 60 0 
N 21 23 0 
N 31 67 0 
N 39 91 0 
N 77 57 0 
N 41 46 0 
N 87 39 0 
N 67 83 0 
N 4 50 0 
N 67 1 0 
N 84 52 0 
N 3 35 0 
N 52 99 0 
N 29 87 0 
N 41 52 0 
N 1 68 0 
N 54 4 0 
N 46 80 0 
N 20 73 0 
N 33 47 0 
N 35 79 0 
N 40 46 0 
N 66 8 0 
N 2 34 0 
N 0 45 0 
N 46 1 0 
N 7 46 0 
N 78 27 0 
N 32 49 0 
N 97 5 0 
N 74 30 0 
N 65 70 0 
N 7 63 0 
N 72 34 0 
N 5 93 0 
N 78 82 0 
N 12 37 0 
N 60 35 0 
N 40 36 0 
N 94 54 0 
N 2 22 0 
N 3 29 0 
N 64 94 0 
N 17 84 0 
N 22 15 0 
N 78 51 0 
N 74 89 0 
N 1 69 0 
N 36 61 0 
N 11 77 0 
N 97 51 0 
N 66 91 0 
N 39 34 0 
N 74 12 0 
N 6 65 0 
N 72 61 0 
N 30 17 0 
N 58 62 0 
N 28 2 0 
N 81 97 0 
N 11 9 0 
N 91 75 0 
N 17 62 0 
N 40 16 0 
N 55 33 0 
N 7 4 0 
N 69 65 0 
N 9 2 0 
N 89 80 0 
N 93 93 0 
N 59 79 0 
N 33 99 0 
N 24 43 0 
O 92 14 0 
O 85 2 0 
O 72 70 0 
O 29 30 0 
O 79 26 0 
O 88 60 0 
O 48 17 0 
O 73 13 0 
O 85 4 0 
O 25 82 0 
O 32 96 0 
O 77 83 0 
O 58 13 0 
O 77 47 0 
O 96 98 0 
O 51 48 0 
O 6 0 0 
O 88 88 0 
O 83 99 0 
O 68 0 0 
O 65 92 0 
O 23 33 0 
O 2 67 0 
O 25 6 0 
O 25 41 0 
O 57 60 0 
O 11 88 0 
O 76 81 0 
O 85 99 0 
525
Atoms. Timestep: 9
N 79 50 0 
N 66 1 0 
N 14 1 0 
N 58 11 0 
N 12 52 0 
N 29 48 0 
N 19 89 0 
N 4 49 0 
N 2 36 0 
N 74 4 0 
N 91 50 0 
N 42 10 0 
N 41 32 0 
N 83 73 0 
N 48 18 0 
N 11 97 0 
N 52 72 0 
N 10 34 0 
N 27 82 0 
N 19 74 0 
N 36 48 0 
N 2 85 0 
N 93 27 0 
N 68 67 0 
N 14 57 0 
N 32 63 0 
N 39 2 0 
N 52 46 0 
N 48 77 0 
N 21 61 0 
N 19 85 0 
N 28 68 0 
N 24 40 0 
N 47 74 0 
N 54 8 0 
N 50 46 0 
N 37 63 0 
N 15 67 0 
N 44 63 0 
N 69 56 0 
N 67 93 0 
N 86 46 0 
N 53 89 0 
N 40 16 0 
N 37 93 0 
N 20 22 0 
N 99 70 0 
N 60 1 0 
N 51 48 0 
N 84 70 0 
N 77 86 0 
N 98 2 0 
N 87 82 0 
N 93 76 0 
N 92 41 0 
N 7 1 0 
N 28 6 0 
N 9 42 0 
N 69 59 0 
N 7 55 0 
N 24 50 0 
N 20 64 0 
N 85 39 0 
N 39 32 0 
N 13 60 0 
N 54 18 0 
N 54 56 0 
N 28 30 0 
N 19 70 0 
N 63 55 0 
N 37 21 0 
N 34 89 0 
N 98 5 0 
N 84 15 0 
N 82 35 0 
N 42 3 0 
N 76 29 0 
N 63 40 0 
N 25 8 0 
N 24 18 0 
N 30 53 0 
N 74 79 0 
N 50 9 0 
N 12 40 0 
N 41 46 0 
N 27 59 0 
N 20 66 0 
N 6 56 0 
N 1 15 0 
N 52 10 0 
N 15 33 0 
N 99 12 0 
N 42 29 0 
N 24 71 0 
N 63 36 0 
N 64 49 0 
N 12 21 0 
N 66 91 0 
N 29 64 0 
N 46 61 0 
N 49 10 0 
N 34 19 0 
N 51 28 0 
N 71 78 0 
N 14 42 0 
N 72 78 0 
N 44 7 0 
N 95 60 0 
N 42 33 0 
N 33 21 0 
N 53 78 0 
N 32 52 0 
N 22 14 0 
N 8 13 0 
N 32 43 0 
N 57 34 0 
N 79 19 0 
N 21 48 0 
N 88 36 0 
N 7 30 0 
N 9 75 0 
N 87 2 0 
N 59 50 0 
N 6 16 0 
N 33 71 0 
N 19 32 0 
N 54 20 0 
N 8 29 0 
N 39 5 0 
N 99 42 0 
N 94 61 0 
N 63 80 0 
N 7 16 0 
N 10 31 0 
N 34 66 0 
N 16 35 0 
N 26 82 0 
N 5 43 0 
N 72 52 0 
N 43 5 0 
N 12 58 0 
N 35 35 0 
N 15 19 0 
N 35 96 0 
N 57 29 0 
N 79 26 0 
N 88 43 0 
N 53 88 0 
N 96 7 0 
N 7 7 0 
N 95 10 0 
N 99 46 0 
N 40 47 0 
N 40 56 0 
N 91 88 0 
N 43 52 0 
N 59 1 0 
N 87 27 0 
N 20 44 0 
N 85 87 0 
N 51 73 0 
N 55 13 0 
N 58 73 0 
N 5 75 0 
N 75 28 0 
N 92 91 0 
N 61 68 0 
N 60 87 0 
N 9 97 0 
N 50 32 0 
N 40 5 0 
N 60 88 0 
N 24 59 0 
N 96 21 0 
N 45 72 0 
N 94 95 0 
N 13 79 0 
N 57 19 0 
N 54 11 0 
N 71 13 0 
N 12 60 0 
N 9 19 0 
N 20 5 0 
N 24 16 0 
N 39 48 0 
N 79 47 0 
N 85 54 0 
N 0 22 0 
N 1 31 0 
N 92 55 0 
N 83 74 0 
N 21 20 0 
N 36 64 0 
N 3 78 0 
N 95 71 0 
N 2 53 0 
N 40 6 0 
N 59 60 0 
N 33 22 0 
N 57 64 0 
N 96 99 0 
N 68 59 0 
N 73 9 0 
N 67 39 0 
N 68 48 0 
N 54 62 0 
N 10 83 0 
N 32 26 0 
N 48 76 0 
N 37 14 0 
N 35 36 0 
N 13 81 0 
N 88 66 0 
N 83 46 0 
N 16 32 0 
N 75 59 0 
N 3 44 0 
N 81 16 0 
N 0 38 0 
N 53 48 0 
N 48 29 0 
N 90 6 0 
N 5 9 0 
N 5 19 0 
N 90 87 0 
N 15 11 0 
N 87 34 0 
N 68 97 0 
N 85 5 0 
N 52 66 0 
N 11 88 0 
N 95 17 0 
N 63 85 0 
N 84 88 0 
N 35 38 0 
N 87 13 0 
N 75 49 0 
N 21 22 0 
N 59 35 0 
N 83 55 0 
N 80 22 0 
N 96 42 0 
N 5 8 0 
N 25 73 0 
N 8 56 0 
N 65 11 0 
N 99 60 0 
N 96 4 0 
N 90 47 0 
N 60 39 0 
N 16 37 0 
N 2 67 0 
N 24 41 0 
N 16 99 0 
N 80 43 0 
N 30 59 0 
N 12 77 0 
N 73 8 0 
N 30 16 0 
N 14 77 0 
N 10 28 0 
N 24 83 0 
N 46 54 0 
N 59 3 0 
N 9 70 0 
N 72 62 0 
N 12 8 0 
N 59 93 0 
N 83 86 0 
N 27 65 0 
N 11 60 0 
N 88 32 0 
N 27 8 0 
N 54 38 0 
N 10 53 0 
N 26 61 0 
N 34 71 0 
N 10 56 0 
N 72 13 0 
N 9 65 0 
N 38 3 0 
N 73 35 0 
N 6 2 0 
N 39 29 0 
N 43 42 0 
N 50 47 0 
N 62 24 0 
N 6 47 0 
N 97 80 0 
N 92 79 0 
N 99 93 0 
N 48 94 0 
N 48 19 0 
N 66 22 0 
N 71 27 0 
N 62 84 0 
N 67 83 0 
N 66 50 0 
N 16 95 0 
N 65 39 0 
N 35 3 0 
N 31 83 0 
N 50 48 0 
N 95 73 0 
N 55 34 0 
N 9 18 0 
N 20 54 0 
N 63 25 0 
N 73 76 0 
N 52 88 0 
N 18 93 0 
N 97 9 0 
N 62 12 0 
N 41 52 0 
N 4 33 0 
N 73 10 0 
N 40 88 0 
N 21 62 0 
N 25 2 0 
N 65 82 0 
N 36 40 0 
N 50 54 0 
N 33 75 0 
N 2 59 0 
N 84 78 0 
N 26 89 0 
N 92 45 0 
N 92 70 0 
N 96 2 0 
N 56 60 0 
N 74 94 0 
N 55 12 0 
N 49 94 0 
N 36 11 0 
N 16 26 0 
N 1 95 0 
N 76 45 0 
N 43 59 0 
N 14 3 0 
N 74 47 0 
N 30 71 0 
N 65 24 0 
N 18 43 0 
N 41 55 0 
N 83 2 0 
N 94 88 0 
N 50 98 0 
N 77 92 0 
N 66 11 0 
N 64 53 0 
N 60 51 0 
N 30 50 0 
N 11 89 0 
N 23 37 0 
N 60 48 0 
N 93 66 0 
N 63 74 0 
N 7 97 0 
N 40 30 0 
N 23 24 0 
N 97 57 0 
N 19 5 0 
N 45 99 0 
N 96 78 0 
N 42 78 0 
N 14 39 0 
N 77 43 0 
N 55 72 0 
N 4 43 0 
N 43 89 0 
N 83 96 0 
N 58 42 0 
N 23 61 0 
N 69 58 0 
N 40 98 0 
N 47 63 0 
N 2 5 0 
N 68 3 0 
N 17 74 0 
N 61 45 0 
N 40 4 0 
N 60 37 0 
N 26 64 0 
N 86 25 0 
N 35 66 0 
N 53 99 0 
N 88 98 0 
N 39 33 0 
N 6 97 0 
N 91 81 0 
N 60 4 0 
N 35 52 0 
N 13 2 0 
N 53 11 0 
N 77 85 0 
N 63 72 0 
N 32 18 0 
N 71 34 0 
N 66 34 0 
N 42 27 0 
N 96 37 0 
N 88 87 0 
N 48 99 0 
N 6 95 0 
N 10 39 0 
N 71 80 0 
N 6 12 0 
N 57 22 0 
N 45 3 0 
N 92 60 0 
N 99 95 0 
N 0 32 0 
N 5 86 0 
N 86 38 0 
N 63 34 0 
N 58 48 0 
N 33 18 0 
N 24 82 0 
N 2 86 0 
N 84 16 0 
N 9 76 0 
N 58 60 0 
N 59 12 0 
N 50 45 0 
N 25 84 0 
N 75 25 0 
N 68 2 0 
N 60 61 0 
N 22 23 0 
N 30 67 0 
N 39 90 0 
N 77 56 0 
N 40 46 0 
N 88 39 0 
N 68 83 0 
N 4 51 0 
N 68 1 0 
N 84 51 0 
N 3 36 0 
N 51 99 0 
N 30 87 0 
N 42 52 0 
N 1 67 0 
N 53 4 0 
N 46 79 0 
N 20 72 0 
N 33 48 0 
N 34 79 0 
N 39 46 0 
N 66 9 0 
N 3 34 0 
N 1 45 0 
N 47 1 0 
N 6 46 0 
N 79 27 0 
N 31 49 0 
N 96 5 0 
N 74 29 0 
N 66 70 0 
N 7 64 0 
N 72 35 0 
N 5 94 0 
N 78 83 0 
N 12 36 0 
N 60 34 0 
N 41 36 0 
N 94 53 0 
N 1 22 0 
N 3 30 0 
N 64 93 0 
N 17 83 0 
N 23 15 0 
N 78 50 0 
N 74 88 0 
N 2 69 0 
N 36 60 0 
N 11 78 0 
N 96 51 0 
N 65 91 0 
N 39 35 0 
N 73 12 0 
N 5 65 0 
N 73 61 0 
N 30 18 0 
N 58 61 0 
N 29 2 0 
N 82 97 0 
N 11 8 0 
N 91 74 0 
N 18 62 0 
N 41 16 0 
N 55 32 0 
N 7 3 0 
N 68 65 0 
N 8 2 0 
N 89 81 0 
N 92 93 0 
N 59 78 0 
N 33 98 0 
N 25 43 0 
O 92 13 0 
O 84 2 0 
O 72 71 0 
O 29 31 0 
O 87 60 0 
O 49 17 0 
O 74 13 0 
O 84 4 0 
O 25 81 0 
O 32 95 0 
O 77 84 0 
O 58 14 0 
O 77 48 0 
O 97 98 0 
O 5 0 0 
O 87 88 0 
O 82 99 0 
O 69 0 0 
O 66 92 0 
O 23 32 0 
O 26 6 0 
O 25 42 0 
O 57 61 0 
O 77 81 0 
O 84 99 0 
520
Atoms. Timestep: 10
N 78 50 0 
N 66 0 0 
N 15 1 0 
N 58 12 0 
N 13 52 0 
N 28 48 0 
N 20 89 0 
N 4 50 0 
N 3 36 0 
N 74 3 0 
N 91 49 0 
N 43 10 0 
N 41 31 0 
N 82 73 0 
N 49 18 0 
N 10 97 0 
N 52 73 0 
N 10 33 0 
N 26 82 0 
N 18 74 0 
N 36 49 0 
N 1 85 0 
N 93 28 0 
N 67 67 0 
N 15 57 0 
N 33 63 0 
N 39 3 0 
N 53 46 0 
N 48 78 0 
N 21 60 0 
N 19 84 0 
N 28 69 0 
N 24 41 0 
N 46 74 0 
N 54 7 0 
N 51 46 0 
N 37 64 0 
N 14 67 0 
N 44 62 0 
N 69 55 0 
N 67 94 0 
N 86 45 0 
N 53 88 0 
N 40 17 0 
N 37 92 0 
N 20 23 0 
N 98 70 0 
N 60 0 0 
N 50 48 0 
N 85 70 0 
N 77 85 0 
N 97 2 0 
N 88 82 0 
N 93 75 0 
N 92 40 0 
N 6 1 0 
N 28 7 0 
N 9 43 0 
N 70 59 0 
N 8 55 0 
N 24 49 0 
N 19 64 0 
N 84 39 0 
N 38 32 0 
N 13 61 0 
N 54 17 0 
N 54 57 0 
N 28 31 0 
N 19 71 0 
N 63 54 0 
N 37 22 0 
N 34 88 0 
N 98 6 0 
N 85 15 0 
N 82 36 0 
N 41 3 0 
N 75 29 0 
N 64 40 0 
N 26 8 0 
N 23 18 0 
N 29 53 0 
N 75 79 0 
N 50 8 0 
N 12 41 0 
N 42 46 0 
N 26 59 0 
N 21 66 0 
N 6 57 0 
N 1 16 0 
N 51 10 0 
N 15 32 0 
N 0 12 0 
N 41 29 0 
N 23 71 0 
N 63 37 0 
N 65 49 0 
N 12 22 0 
N 66 92 0 
N 29 63 0 
N 46 60 0 
N 49 9 0 
N 34 20 0 
N 51 27 0 
N 72 78 0 
N 15 42 0 
N 72 77 0 
N 44 6 0 
N 95 59 0 
N 42 34 0 
N 32 21 0 
N 53 77 0 
N 32 53 0 
N 23 14 0 
N 9 13 0 
N 32 42 0 
N 57 33 0 
N 79 20 0 
N 22 48 0 
N 89 36 0 
N 6 30 0 
N 10 75 0 
N 86 2 0 
N 58 50 0 
N 6 17 0 
N 34 71 0 
N 20 32 0 
N 53 20 0 
N 8 28 0 
N 40 5 0 
N 99 43 0 
N 93 61 0 
N 63 81 0 
N 7 15 0 
N 9 31 0 
N 35 66 0 
N 17 35 0 
N 26 81 0 
N 4 43 0 
N 73 52 0 
N 43 4 0 
N 13 58 0 
N 35 34 0 
N 15 18 0 
N 35 95 0 
N 56 29 0 
N 79 27 0 
N 89 43 0 
N 52 88 0 
N 97 7 0 
N 7 8 0 
N 95 9 0 
N 0 46 0 
N 41 47 0 
N 40 57 0 
N 90 88 0 
N 43 51 0 
N 58 1 0 
N 87 26 0 
N 21 44 0 
N 86 87 0 
N 50 73 0 
N 55 14 0 
N 58 72 0 
N 5 74 0 
N 76 28 0 
N 93 91 0 
N 61 69 0 
N 59 87 0 
N 9 96 0 
N 50 33 0 
N 41 5 0 
N 60 89 0 
N 24 58 0 
N 96 22 0 
N 45 71 0 
N 93 95 0 
N 13 78 0 
N 56 19 0 
N 53 11 0 
N 72 13 0 
N 12 61 0 
N 9 20 0 
N 21 5 0 
N 23 16 0 
N 39 49 0 
N 79 48 0 
N 84 54 0 
N 0 21 0 
N 1 32 0 
N 91 55 0 
N 82 74 0 
N 21 21 0 
N 36 65 0 
N 3 79 0 
N 95 70 0 
N 2 54 0 
N 39 6 0 
N 59 61 0 
N 33 23 0 
N 57 63 0 
N 97 99 0 
N 68 60 0 
N 73 10 0 
N 67 38 0 
N 68 49 0 
N 53 62 0 
N 9 83 0 
N 32 27 0 
N 48 75 0 
N 36 14 0 
N 35 37 0 
N 13 82 0 
N 89 66 0 
N 83 47 0 
N 16 33 0 
N 74 59 0 
N 4 44 0 
N 80 16 0 
N 0 37 0 
N 52 48 0 
N 49 29 0 
N 90 5 0 
N 5 8 0 
N 5 20 0 
N 89 87 0 
N 15 10 0 
N 87 33 0 
N 69 97 0 
N 84 5 0 
N 53 66 0 
N 12 88 0 
N 94 17 0 
N 64 85 0 
N 85 88 0 
N 34 38 0 
N 88 13 0 
N 75 48 0 
N 22 22 0 
N 60 35 0 
N 83 56 0 
N 80 21 0 
N 97 42 0 
N 6 8 0 
N 25 74 0 
N 8 57 0 
N 65 12 0 
N 99 61 0 
N 95 4 0 
N 90 48 0 
N 59 39 0 
N 17 37 0 
N 3 67 0 
N 25 41 0 
N 15 99 0 
N 80 44 0 
N 31 59 0 
N 12 78 0 
N 74 8 0 
N 30 17 0 
N 13 77 0 
N 10 27 0 
N 24 82 0 
N 46 55 0 
N 59 2 0 
N 9 71 0 
N 72 61 0 
N 12 7 0 
N 58 93 0 
N 82 86 0 
N 27 66 0 
N 11 61 0 
N 88 33 0 
N 27 7 0 
N 54 39 0 
N 9 53 0 
N 26 62 0 
N 35 71 0 
N 10 55 0 
N 73 13 0 
N 8 65 0 
N 38 2 0 
N 73 34 0 
N 5 2 0 
N 39 30 0 
N 42 42 0 
N 51 47 0 
N 61 24 0 
N 6 46 0 
N 96 80 0 
N 92 78 0 
N 98 93 0 
N 49 94 0 
N 49 19 0 
N 65 22 0 
N 71 28 0 
N 62 85 0 
N 66 83 0 
N 67 50 0 
N 16 94 0 
N 65 38 0 
N 36 3 0 
N 30 83 0 
N 49 48 0 
N 95 74 0 
N 55 35 0 
N 10 18 0 
N 20 53 0 
N 63 24 0 
N 74 76 0 
N 51 88 0 
N 19 93 0 
N 97 8 0 
N 61 12 0 
N 41 51 0 
N 4 34 0 
N 73 11 0 
N 41 88 0 
N 22 62 0 
N 25 3 0 
N 66 82 0 
N 36 39 0 
N 49 54 0 
N 34 75 0 
N 2 58 0 
N 84 77 0 
N 25 89 0 
N 92 46 0 
N 93 70 0 
N 96 3 0 
N 57 60 0 
N 74 93 0 
N 56 12 0 
N 49 93 0 
N 36 10 0 
N 15 26 0 
N 2 95 0 
N 77 45 0 
N 42 59 0 
N 14 4 0 
N 74 48 0 
N 31 71 0 
N 65 25 0 
N 19 43 0 
N 40 55 0 
N 84 2 0 
N 95 88 0 
N 50 97 0 
N 77 91 0 
N 66 12 0 
N 64 54 0 
N 61 51 0 
N 30 49 0 
N 12 89 0 
N 23 36 0 
N 61 48 0 
N 93 67 0 
N 63 73 0 
N 7 96 0 
N 40 31 0 
N 23 25 0 
N 96 57 0 
N 18 5 0 
N 45 0 0 
N 96 77 0 
N 42 79 0 
N 14 40 0 
N 77 44 0 
N 54 72 0 
N 3 43 0 
N 43 88 0 
N 82 96 0 
N 59 42 0 
N 22 61 0 
N 68 58 0 
N 39 98 0 
N 48 63 0 
N 2 4 0 
N 68 2 0 
N 17 75 0 
N 60 45 0 
N 40 3 0 
N 59 37 0 
N 25 64 0 
N 87 25 0 
N 35 65 0 
N 53 98 0 
N 87 98 0 
N 40 33 0 
N 6 96 0 
N 92 81 0 
N 60 5 0 
N 34 52 0 
N 13 1 0 
N 53 10 0 
N 77 84 0 
N 63 71 0 
N 32 19 0 
N 71 33 0 
N 65 34 0 
N 41 27 0 
N 95 37 0 
N 88 88 0 
N 47 99 0 
N 7 95 0 
N 9 39 0 
N 71 79 0 
N 6 13 0 
N 56 22 0 
N 45 2 0 
N 91 60 0 
N 99 96 0 
N 99 32 0 
N 5 85 0 
N 87 38 0 
N 64 34 0 
N 59 48 0 
N 33 19 0 
N 25 82 0 
N 2 87 0 
N 83 16 0 
N 10 76 0 
N 58 61 0 
N 59 13 0 
N 50 44 0 
N 25 83 0 
N 75 26 0 
N 68 1 0 
N 60 60 0 
N 22 24 0 
N 29 67 0 
N 38 90 0 
N 77 57 0 
N 40 45 0 
N 88 38 0 
N 69 83 0 
N 4 52 0 
N 68 0 0 
N 85 51 0 
N 4 36 0 
N 51 98 0 
N 31 87 0 
N 42 51 0 
N 1 66 0 
N 53 5 0 
N 46 80 0 
N 21 72 0 
N 33 49 0 
N 33 79 0 
N 39 45 0 
N 66 8 0 
N 3 33 0 
N 2 45 0 
N 46 1 0 
N 7 46 0 
N 80 27 0 
N 31 48 0 
N 97 5 0 
N 74 28 0 
N 65 70 0 
N 7 63 0 
N 71 35 0 
N 5 95 0 
N 77 83 0 
N 12 35 0 
N 59 34 0 
N 40 36 0 
N 94 54 0 
N 1 23 0 
N 4 30 0 
N 64 92 0 
N 17 82 0 
N 24 15 0 
N 78 49 0 
N 74 87 0 
N 2 68 0 
N 37 60 0 
N 11 79 0 
N 96 52 0 
N 65 92 0 
N 39 34 0 
N 74 12 0 
N 5 64 0 
N 74 61 0 
N 29 18 0 
N 57 61 0 
N 29 3 0 
N 82 98 0 
N 11 9 0 
N 90 74 0 
N 17 62 0 
N 42 16 0 
N 55 33 0 
N 6 3 0 
N 68 64 0 
N 7 2 0 
N 90 81 0 
N 92 94 0 
N 59 79 0 
N 32 98 0 
N 25 42 0 
O 92 12 0 
O 71 71 0 
O 30 31 0 
O 86 60 0 
O 49 16 0 
O 74 14 0 
O 83 4 0 
O 25 80 0 
O 32 94 0 
O 57 14 0 
O 77 49 0 
O 98 98 0 
O 4 0 0 
O 87 87 0 
O 81 99 0 
O 69 99 0 
O 24 32 0 
O 27 6 0 
O 77 80 0 
O 84 0 0 
517
Atoms. Timestep: 11
N 77 50 0 
N 67 0 0 
N 15 2 0 
N 57 12 0 
N 13 51 0 
N 28 47 0 
N 21 89 0 
N 4 49 0 
N 3 35 0 
N 74 4 0 
N 92 49 0 
N 42 10 0 
N 41 32 0 
N 81 73 0 
N 49 17 0 
N 10 98 0 
N 53 73 0 
N 9 33 0 
N 26 81 0 
N 17 74 0 
N 35 49 0 
N 0 85 0 
N 93 29 0 
N 68 67 0 
N 14 57 0 
N 33 64 0 
N 40 3 0 
N 52 46 0 
N 48 79 0 
N 22 60 0 
N 20 84 0 
N 29 69 0 
N 25 41 0 
N 46 73 0 
N 55 7 0 
N 51 45 0 
N 37 65 0 
N 14 68 0 
N 44 61 0 
N 69 54 0 
N 67 93 0 
N 85 45 0 
N 52 88 0 
N 41 17 0 
N 36 92 0 
N 20 24 0 
N 98 71 0 
N 59 0 0 
N 50 47 0 
N 85 71 0 
N 77 84 0 
N 98 2 0 
N 88 83 0 
N 93 74 0 
N 93 40 0 
N 6 0 0 
N 28 6 0 
N 9 42 0 
N 69 59 0 
N 7 55 0 
N 25 49 0 
N 20 64 0 
N 84 40 0 
N 38 33 0 
N 12 61 0 
N 54 18 0 
N 54 58 0 
N 29 31 0 
N 18 71 0 
N 63 53 0 
N 38 22 0 
N 33 88 0 
N 98 7 0 
N 85 14 0 
N 82 35 0 
N 42 3 0 
N 75 28 0 
N 63 40 0 
N 27 8 0 
N 24 18 0 
N 29 52 0 
N 75 80 0 
N 51 8 0 
N 11 41 0 
N 41 46 0 
N 26 60 0 
N 21 67 0 
N 7 57 0 
N 0 16 0 
N 51 11 0 
N 15 31 0 
N 0 11 0 
N 42 29 0 
N 23 70 0 
N 64 37 0 
N 65 48 0 
N 12 21 0 
N 66 91 0 
N 29 64 0 
N 45 60 0 
N 48 9 0 
N 33 20 0 
N 51 26 0 
N 72 77 0 
N 15 41 0 
N 71 77 0 
N 45 6 0 
N 96 59 0 
N 42 33 0 
N 32 20 0 
N 54 77 0 
N 31 53 0 
N 23 15 0 
N 9 12 0 
N 32 43 0 
N 56 33 0 
N 80 20 0 
N 22 49 0 
N 89 35 0 
N 6 31 0 
N 9 75 0 
N 85 2 0 
N 58 51 0 
N 5 17 0 
N 33 71 0 
N 21 32 0 
N 52 20 0 
N 8 27 0 
N 41 5 0 
N 0 43 0 
N 92 61 0 
N 64 81 0 
N 7 14 0 
N 9 30 0 
N 35 67 0 
N 17 36 0 
N 26 80 0 
N 4 42 0 
N 74 52 0 
N 43 3 0 
N 12 58 0 
N 35 33 0 
N 15 17 0 
N 34 95 0 
N 55 29 0 
N 79 28 0 
N 89 44 0 
N 52 87 0 
N 97 6 0 
N 6 8 0 
N 94 9 0 
N 1 46 0 
N 42 47 0 
N 39 57 0 
N 90 89 0 
N 43 50 0 
N 59 1 0 
N 88 26 0 
N 20 44 0 
N 87 87 0 
N 49 73 0 
N 56 14 0 
N 57 72 0 
N 4 74 0 
N 77 28 0 
N 93 92 0 
N 61 68 0 
N 58 87 0 
N 8 96 0 
N 51 33 0 
N 41 4 0 
N 59 89 0 
N 25 58 0 
N 96 21 0 
N 45 72 0 
N 93 96 0 
N 13 79 0 
N 57 19 0 
N 53 10 0 
N 72 14 0 
N 11 61 0 
N 10 20 0 
N 20 5 0 
N 22 16 0 
N 39 50 0 
N 79 49 0 
N 84 55 0 
N 99 21 0 
N 0 32 0 
N 90 55 0 
N 83 74 0 
N 21 22 0 
N 36 66 0 
N 3 80 0 
N 95 71 0 
N 3 54 0 
N 40 6 0 
N 60 61 0 
N 34 23 0 
N 58 63 0 
N 97 98 0 
N 69 60 0 
N 73 11 0 
N 67 37 0 
N 69 49 0 
N 53 61 0 
N 8 83 0 
N 32 28 0 
N 47 75 0 
N 35 14 0 
N 35 38 0 
N 12 82 0 
N 88 66 0 
N 82 47 0 
N 17 33 0 
N 74 58 0 
N 4 45 0 
N 79 16 0 
N 99 37 0 
N 53 48 0 
N 49 30 0 
N 90 4 0 
N 5 9 0 
N 4 20 0 
N 89 87 0 
N 15 9 0 
N 88 33 0 
N 69 98 0 
N 84 4 0 
N 52 66 0 
N 13 88 0 
N 93 17 0 
N 64 86 0 
N 85 87 0 
N 34 39 0 
N 88 12 0 
N 75 47 0 
N 22 23 0 
N 60 36 0 
N 82 56 0 
N 79 21 0 
N 98 42 0 
N 6 7 0 
N 24 74 0 
N 9 57 0 
N 65 13 0 
N 99 60 0 
N 96 4 0 
N 91 48 0 
N 59 40 0 
N 18 37 0 
N 3 68 0 
N 26 41 0 
N 15 98 0 
N 79 44 0 
N 32 59 0 
N 12 79 0 
N 73 8 0 
N 31 17 0 
N 14 77 0 
N 9 27 0 
N 24 81 0 
N 46 54 0 
N 58 2 0 
N 9 72 0 
N 71 61 0 
N 12 8 0 
N 59 93 0 
N 82 85 0 
N 27 67 0 
N 11 62 0 
N 88 34 0 
N 27 6 0 
N 54 38 0 
N 10 53 0 
N 27 62 0 
N 35 72 0 
N 11 55 0 
N 73 14 0 
N 8 66 0 
N 38 1 0 
N 74 34 0 
N 4 2 0 
N 38 30 0 
N 42 41 0 
N 52 47 0 
N 61 23 0 
N 7 46 0 
N 96 81 0 
N 93 78 0 
N 98 94 0 
N 49 93 0 
N 49 19 0 
N 65 21 0 
N 70 28 0 
N 62 86 0 
N 66 84 0 
N 67 49 0 
N 16 95 0 
N 65 37 0 
N 37 3 0 
N 29 83 0 
N 49 49 0 
N 95 75 0 
N 55 34 0 
N 10 17 0 
N 20 52 0 
N 63 23 0 
N 73 76 0 
N 51 87 0 
N 19 92 0 
N 97 9 0 
N 62 12 0 
N 41 52 0 
N 4 35 0 
N 74 11 0 
N 41 89 0 
N 21 62 0 
N 24 3 0 
N 66 81 0 
N 35 39 0 
N 48 54 0 
N 34 74 0 
N 1 58 0 
N 85 77 0 
N 26 89 0 
N 92 45 0 
N 93 71 0 
N 95 3 0 
N 57 59 0 
N 73 93 0 
N 56 13 0 
N 48 93 0 
N 36 9 0 
N 16 26 0 
N 2 96 0 
N 77 46 0 
N 43 59 0 
N 15 4 0 
N 73 48 0 
N 32 71 0 
N 64 25 0 
N 20 43 0 
N 40 54 0 
N 84 1 0 
N 95 89 0 
N 50 98 0 
N 77 92 0 
N 66 13 0 
N 64 53 0 
N 62 51 0 
N 30 48 0 
N 12 90 0 
N 24 36 0 
N 62 48 0 
N 94 67 0 
N 62 73 0 
N 7 97 0 
N 40 30 0 
N 23 26 0 
N 97 57 0 
N 18 4 0 
N 44 0 0 
N 96 76 0 
N 43 79 0 
N 13 40 0 
N 76 44 0 
N 53 72 0 
N 2 43 0 
N 44 88 0 
N 82 97 0 
N 59 41 0 
N 21 61 0 
N 69 58 0 
N 40 98 0 
N 48 62 0 
N 2 3 0 
N 69 2 0 
N 17 76 0 
N 61 45 0 
N 40 4 0 
N 60 37 0 
N 26 64 0 
N 87 24 0 
N 35 64 0 
N 52 98 0 
N 87 97 0 
N 40 32 0 
N 6 97 0 
N 92 80 0 
N 60 4 0 
N 34 51 0 
N 13 2 0 
N 52 10 0 
N 77 83 0 
N 62 71 0 
N 31 19 0 
N 71 32 0 
N 65 35 0 
N 41 26 0 
N 96 37 0 
N 88 87 0 
N 48 99 0 
N 7 94 0 
N 9 38 0 
N 71 78 0 
N 6 12 0 
N 55 22 0 
N 45 3 0 
N 90 60 0 
N 99 97 0 
N 99 31 0 
N 5 86 0 
N 86 38 0 
N 64 35 0 
N 59 47 0 
N 34 19 0 
N 25 81 0 
N 1 87 0 
N 83 15 0 
N 11 76 0 
N 58 60 0 
N 58 13 0 
N 49 44 0 
N 25 83 0 
N 76 26 0 
N 69 1 0 
N 60 59 0 
N 22 25 0 
N 30 67 0 
N 37 90 0 
N 77 58 0 
N 41 45 0 
N 88 39 0 
N 69 82 0 
N 4 51 0 
N 69 0 0 
N 85 52 0 
N 5 36 0 
N 51 97 0 
N 31 88 0 
N 42 52 0 
N 0 66 0 
N 54 5 0 
N 45 80 0 
N 20 72 0 
N 33 50 0 
N 34 79 0 
N 39 44 0 
N 66 9 0 
N 3 34 0 
N 1 45 0 
N 47 1 0 
N 7 45 0 
N 80 28 0 
N 31 49 0 
N 96 5 0 
N 74 29 0 
N 65 71 0 
N 7 64 0 
N 71 36 0 
N 6 95 0 
N 77 82 0 
N 12 36 0 
N 60 34 0 
N 39 36 0 
N 94 53 0 
N 0 23 0 
N 5 30 0 
N 63 92 0 
N 17 83 0 
N 24 16 0 
N 77 49 0 
N 73 87 0 
N 1 68 0 
N 36 60 0 
N 11 80 0 
N 97 52 0 
N 65 91 0 
N 40 34 0 
N 74 13 0 
N 5 65 0 
N 75 61 0 
N 29 17 0 
N 57 62 0 
N 28 3 0 
N 81 98 0 
N 12 9 0 
N 90 73 0 
N 18 62 0 
N 41 16 0 
N 54 33 0 
N 5 3 0 
N 68 63 0 
N 6 2 0 
N 91 81 0 
N 91 94 0 
N 58 79 0 
N 32 97 0 
N 24 42 0 
O 92 11 0 
O 72 71 0 
O 30 30 0 
O 86 59 0 
O 48 16 0 
O 74 15 0 
O 82 4 0 
O 24 80 0 
O 32 93 0 
O 57 15 0 
O 98 97 0 
O 3 0 0 
O 80 99 0 
O 70 99 0 
O 25 32 0 
O 77 79 0 
O 85 0 0 
515
Atoms. Timestep: 12
N 76 50 0 
N 68 0 0 
N 15 1 0 
N 57 12 0 
N 14 51 0 
N 28 46 0 
N 21 88 0 
N 3 49 0 
N 3 34 0 
N 73 4 0 
N 92 50 0 
N 41 10 0 
N 41 33 0 
N 81 74 0 
N 49 16 0 
N 10 99 0 
N 52 73 0 
N 9 32 0 
N 26 82 0 
N 17 73 0 
N 34 49 0 
N 0 84 0 
N 93 28 0 
N 68 68 0 
N 14 56 0 
N 32 64 0 
N 39 3 0 
N 52 45 0 
N 48 78 0 
N 22 61 0 
N 19 84 0 
N 29 68 0 
N 25 40 0 
N 45 73 0 
N 55 6 0 
N 50 45 0 
N 36 65 0 
N 14 69 0 
N 44 62 0 
N 69 53 0 
N 68 93 0 
N 85 46 0 
N 52 87 0 
N 42 17 0 
N 36 93 0 
N 19 24 0 
N 98 72 0 
N 59 99 0 
N 49 47 0 
N 84 71 0 
N 77 83 0 
N 98 3 0 
N 88 82 0 
N 92 74 0 
N 93 41 0 
N 5 0 0 
N 28 7 0 
N 9 43 0 
N 69 58 0 
N 7 54 0 
N 26 49 0 
N 19 64 0 
N 84 41 0 
N 38 32 0 
N 13 61 0 
N 54 17 0 
N 54 59 0 
N 30 31 0 
N 18 70 0 
N 63 54 0 
N 39 22 0 
N 33 89 0 
N 99 7 0 
N 85 15 0 
N 81 35 0 
N 41 3 0 
N 75 29 0 
N 63 39 0 
N 26 8 0 
N 24 19 0 
N 30 52 0 
N 76 80 0 
N 52 8 0 
N 10 41 0 
N 40 46 0 
N 25 60 0 
N 21 68 0 
N 8 57 0 
N 99 16 0 
N 50 11 0 
N 14 31 0 
N 99 11 0 
N 41 29 0 
N 22 70 0 
N 64 36 0 
N 66 48 0 
N 12 20 0 
N 67 91 0 
N 28 64 0 
N 46 60 0 
N 48 8 0 
N 33 19 0 
N 52 26 0 
N 71 77 0 
N 15 40 0 
N 71 78 0 
N 44 6 0 
N 95 59 0 
N 43 33 0 
N 32 21 0 
N 53 77 0 
N 32 53 0 
N 23 14 0 
N 9 11 0 
N 33 43 0 
N 57 33 0 
N 81 20 0 
N 22 48 0 
N 90 35 0 
N 6 32 0 
N 10 75 0 
N 85 1 0 
N 58 52 0 
N 4 17 0 
N 33 70 0 
N 22 32 0 
N 51 20 0 
N 9 27 0 
N 41 6 0 
N 0 42 0 
N 91 61 0 
N 63 81 0 
N 8 14 0 
N 10 30 0 
N 34 67 0 
N 17 35 0 
N 26 79 0 
N 5 42 0 
N 74 53 0 
N 43 2 0 
N 13 58 0 
N 36 33 0 
N 14 17 0 
N 33 95 0 
N 56 29 0 
N 79 29 0 
N 89 45 0 
N 52 86 0 
N 98 6 0 
N 6 7 0 
N 93 9 0 
N 1 47 0 
N 41 47 0 
N 39 56 0 
N 89 89 0 
N 42 50 0 
N 58 1 0 
N 88 25 0 
N 19 44 0 
N 87 86 0 
N 49 74 0 
N 57 14 0 
N 57 71 0 
N 4 73 0 
N 78 28 0 
N 94 92 0 
N 60 68 0 
N 58 88 0 
N 7 96 0 
N 52 33 0 
N 40 4 0 
N 59 88 0 
N 25 59 0 
N 97 21 0 
N 45 71 0 
N 94 96 0 
N 14 79 0 
N 57 18 0 
N 54 10 0 
N 72 15 0 
N 11 62 0 
N 10 21 0 
N 19 5 0 
N 22 15 0 
N 38 50 0 
N 79 48 0 
N 83 55 0 
N 98 21 0 
N 1 32 0 
N 90 56 0 
N 83 75 0 
N 21 21 0 
N 36 67 0 
N 4 80 0 
N 95 72 0 
N 3 53 0 
N 40 7 0 
N 59 61 0 
N 35 23 0 
N 58 64 0 
N 96 98 0 
N 68 60 0 
N 73 12 0 
N 67 38 0 
N 69 48 0 
N 53 60 0 
N 8 82 0 
N 31 28 0 
N 46 75 0 
N 34 14 0 
N 36 38 0 
N 13 82 0 
N 89 66 0 
N 81 47 0 
N 17 32 0 
N 74 57 0 
N 3 45 0 
N 79 17 0 
N 99 38 0 
N 52 48 0 
N 49 31 0 
N 89 4 0 
N 5 10 0 
N 4 19 0 
N 89 88 0 
N 14 9 0 
N 89 33 0 
N 69 99 0 
N 83 4 0 
N 52 65 0 
N 13 89 0 
N 93 16 0 
N 64 87 0 
N 85 86 0 
N 35 39 0 
N 89 12 0 
N 75 48 0 
N 22 24 0 
N 59 36 0 
N 81 56 0 
N 79 20 0 
N 99 42 0 
N 5 7 0 
N 25 74 0 
N 9 56 0 
N 65 14 0 
N 0 60 0 
N 96 3 0 
N 90 48 0 
N 58 40 0 
N 18 38 0 
N 3 69 0 
N 26 40 0 
N 14 98 0 
N 79 45 0 
N 32 60 0 
N 12 78 0 
N 73 9 0 
N 31 18 0 
N 14 76 0 
N 10 27 0 
N 24 80 0 
N 46 55 0 
N 57 2 0 
N 10 72 0 
N 72 61 0 
N 13 8 0 
N 58 93 0 
N 82 84 0 
N 28 67 0 
N 11 63 0 
N 87 34 0 
N 27 5 0 
N 53 38 0 
N 10 54 0 
N 28 62 0 
N 36 72 0 
N 11 56 0 
N 73 15 0 
N 9 66 0 
N 38 0 0 
N 73 34 0 
N 3 2 0 
N 37 30 0 
N 43 41 0 
N 53 47 0 
N 61 22 0 
N 8 46 0 
N 97 81 0 
N 93 79 0 
N 98 93 0 
N 49 92 0 
N 49 20 0 
N 66 21 0 
N 70 29 0 
N 62 87 0 
N 66 83 0 
N 67 48 0 
N 16 96 0 
N 66 37 0 
N 37 2 0 
N 28 83 0 
N 49 48 0 
N 94 75 0 
N 55 33 0 
N 9 17 0 
N 21 52 0 
N 64 23 0 
N 73 77 0 
N 51 86 0 
N 20 92 0 
N 98 9 0 
N 62 13 0 
N 41 53 0 
N 5 35 0 
N 74 12 0 
N 41 90 0 
N 21 61 0 
N 24 4 0 
N 67 81 0 
N 36 39 0 
N 47 54 0 
N 34 75 0 
N 2 58 0 
N 84 77 0 
N 26 90 0 
N 92 46 0 
N 92 71 0 
N 95 2 0 
N 57 58 0 
N 73 92 0 
N 57 13 0 
N 47 93 0 
N 36 8 0 
N 16 27 0 
N 3 96 0 
N 76 46 0 
N 43 58 0 
N 15 3 0 
N 73 49 0 
N 32 70 0 
N 65 25 0 
N 21 43 0 
N 40 53 0 
N 84 0 0 
N 96 89 0 
N 50 99 0 
N 76 92 0 
N 66 12 0 
N 65 53 0 
N 63 51 0 
N 30 49 0 
N 12 89 0 
N 24 35 0 
N 61 48 0 
N 93 67 0 
N 61 73 0 
N 8 97 0 
N 39 30 0 
N 23 27 0 
N 97 58 0 
N 17 4 0 
N 44 99 0 
N 96 75 0 
N 43 78 0 
N 13 41 0 
N 76 43 0 
N 52 72 0 
N 1 43 0 
N 43 88 0 
N 82 98 0 
N 60 41 0 
N 21 60 0 
N 70 58 0 
N 39 98 0 
N 49 62 0 
N 2 2 0 
N 70 2 0 
N 17 77 0 
N 61 46 0 
N 40 5 0 
N 60 38 0 
N 27 64 0 
N 88 24 0 
N 35 65 0 
N 53 98 0 
N 86 97 0 
N 40 33 0 
N 6 96 0 
N 92 79 0 
N 60 3 0 
N 34 52 0 
N 14 2 0 
N 51 10 0 
N 77 82 0 
N 63 71 0 
N 31 20 0 
N 72 32 0 
N 65 36 0 
N 41 25 0 
N 96 38 0 
N 88 86 0 
N 47 99 0 
N 8 94 0 
N 9 39 0 
N 71 79 0 
N 7 12 0 
N 55 21 0 
N 46 3 0 
N 89 60 0 
N 98 97 0 
N 0 31 0 
N 5 85 0 
N 86 37 0 
N 63 35 0 
N 59 48 0 
N 34 20 0 
N 25 80 0 
N 0 87 0 
N 83 16 0 
N 11 77 0 
N 58 61 0 
N 58 14 0 
N 49 43 0 
N 25 82 0 
N 76 27 0 
N 70 1 0 
N 59 59 0 
N 23 25 0 
N 30 66 0 
N 37 89 0 
N 77 57 0 
N 41 44 0 
N 87 39 0 
N 70 82 0 
N 4 52 0 
N 70 0 0 
N 85 51 0 
N 6 36 0 
N 51 98 0 
N 32 88 0 
N 42 53 0 
N 0 67 0 
N 53 5 0 
N 44 80 0 
N 20 71 0 
N 33 51 0 
N 33 79 0 
N 39 45 0 
N 66 8 0 
N 3 33 0 
N 0 45 0 
N 46 1 0 
N 7 44 0 
N 80 27 0 
N 32 49 0 
N 95 5 0 
N 74 28 0 
N 65 70 0 
N 8 64 0 
N 72 36 0 
N 6 94 0 
N 77 81 0 
N 11 36 0 
N 60 33 0 
N 40 36 0 
N 95 53 0 
N 0 22 0 
N 5 31 0 
N 62 92 0 
N 17 82 0 
N 24 17 0 
N 78 49 0 
N 73 88 0 
N 2 68 0 
N 36 59 0 
N 10 80 0 
N 98 52 0 
N 65 90 0 
N 39 34 0 
N 74 14 0 
N 5 66 0 
N 76 61 0 
N 29 16 0 
N 57 61 0 
N 28 2 0 
N 81 99 0 
N 11 9 0 
N 91 73 0 
N 18 61 0 
N 42 16 0 
N 54 32 0 
N 4 3 0 
N 67 63 0 
N 6 1 0 
N 91 80 0 
N 92 94 0 
N 58 78 0 
N 32 96 0 
N 24 43 0 
O 91 11 0 
O 72 72 0 
O 29 30 0 
O 87 59 0 
O 48 15 0 
O 74 16 0 
O 82 5 0 
O 31 93 0 
O 56 15 0 
O 3 99 0 
O 79 99 0 
O 70 98 0 
O 25 33 0 
O 77 78 0 
O 86 0 0 
515
Atoms. Timestep: 13
N 77 50 0 
N 68 1 0 
N 15 0 0 
N 57 13 0 
N 13 51 0 
N 28 47 0 
N 22 88 0 
N 3 48 0 
N 3 35 0 
N 73 5 0 
N 92 51 0 
N 41 11 0 
N 41 34 0 
N 82 74 0 
N 48 16 0 
N 11 99 0 
N 53 73 0 
N 9 31 0 
N 27 82 0 
N 16 73 0 
N 35 49 0 
N 99 84 0 
N 93 29 0 
N 69 68 0 
N 13 56 0 
N 32 65 0 
N 40 3 0 
N 53 45 0 
N 47 78 0 
N 23 61 0 
N 19 83 0 
N 29 69 0 
N 24 40 0 
N 45 74 0 
N 55 5 0 
N 51 45 0 
N 37 65 0 
N 14 68 0 
N 44 63 0 
N 68 53 0 
N 67 93 0 
N 85 47 0 
N 53 87 0 
N 42 16 0 
N 35 93 0 
N 19 23 0 
N 97 72 0 
N 59 98 0 
N 49 48 0 
N 84 70 0 
N 77 82 0 
N 98 2 0 
N 88 83 0 
N 92 73 0 
N 94 41 0 
N 4 0 0 
N 29 7 0 
N 9 44 0 
N 69 59 0 
N 7 53 0 
N 27 49 0 
N 19 63 0 
N 84 42 0 
N 38 31 0 
N 13 62 0 
N 54 16 0 
N 53 59 0 
N 29 31 0 
N 18 71 0 
N 62 54 0 
N 39 21 0 
N 34 89 0 
N 98 7 0 
N 84 15 0 
N 80 35 0 
N 42 3 0 
N 76 29 0 
N 62 39 0 
N 26 9 0 
N 23 19 0 
N 31 52 0 
N 76 79 0 
N 52 9 0 
N 10 42 0 
N 40 45 0 
N 25 59 0 
N 21 69 0 
N 7 57 0 
N 99 15 0 
N 50 10 0 
N 15 31 0 
N 0 11 0 
N 41 28 0 
N 22 69 0 
N 65 36 0 
N 66 49 0 
N 13 20 0 
N 67 90 0 
N 28 65 0 
N 47 60 0 
N 47 8 0 
N 34 19 0 
N 52 25 0 
N 71 76 0 
N 15 41 0 
N 71 79 0 
N 43 6 0 
N 96 59 0 
N 42 33 0 
N 32 20 0 
N 54 77 0 
N 32 52 0 
N 22 14 0 
N 8 11 0 
N 33 42 0 
N 57 32 0 
N 81 21 0 
N 22 47 0 
N 90 34 0 
N 6 31 0 
N 11 75 0 
N 86 1 0 
N 58 51 0 
N 5 17 0 
N 33 71 0 
N 22 33 0 
N 52 20 0 
N 10 27 0 
N 41 7 0 
N 0 41 0 
N 91 60 0 
N 62 81 0 
N 8 13 0 
N 9 30 0 
N 35 67 0 
N 16 35 0 
N 27 79 0 
N 5 41 0 
N 73 53 0 
N 43 3 0 
N 13 57 0 
N 35 33 0 
N 15 17 0 
N 33 94 0 
N 56 30 0 
N 80 29 0 
N 89 46 0 
N 51 86 0 
N 97 6 0 
N 5 7 0 
N 93 10 0 
N 1 46 0 
N 40 47 0 
N 39 55 0 
N 89 90 0 
N 42 49 0 
N 58 0 0 
N 87 25 0 
N 20 44 0 
N 88 86 0 
N 49 73 0 
N 57 15 0 
N 56 71 0 
N 5 73 0 
N 78 27 0 
N 95 92 0 
N 60 67 0 
N 58 89 0 
N 7 95 0 
N 52 34 0 
N 41 4 0 
N 59 87 0 
N 26 59 0 
N 96 21 0 
N 45 70 0 
N 95 96 0 
N 15 79 0 
N 56 18 0 
N 55 10 0 
N 72 16 0 
N 10 62 0 
N 10 20 0 
N 19 4 0 
N 21 15 0 
N 39 50 0 
N 80 48 0 
N 83 56 0 
N 99 21 0 
N 1 33 0 
N 89 56 0 
N 82 75 0 
N 21 20 0 
N 36 66 0 
N 3 80 0 
N 94 72 0 
N 3 54 0 
N 40 8 0 
N 58 61 0 
N 36 23 0 
N 59 64 0 
N 96 99 0 
N 68 59 0 
N 74 12 0 
N 68 38 0 
N 69 47 0 
N 53 61 0 
N 7 82 0 
N 30 28 0 
N 46 74 0 
N 33 14 0 
N 36 37 0 
N 12 82 0 
N 90 66 0 
N 81 48 0 
N 16 32 0 
N 75 57 0 
N 2 45 0 
N 79 18 0 
N 99 39 0 
N 51 48 0 
N 49 32 0 
N 88 4 0 
N 5 9 0 
N 4 20 0 
N 88 88 0 
N 15 9 0 
N 89 34 0 
N 70 99 0 
N 83 5 0 
N 53 65 0 
N 12 89 0 
N 93 17 0 
N 65 87 0 
N 85 85 0 
N 35 38 0 
N 90 12 0 
N 75 49 0 
N 22 23 0 
N 59 37 0 
N 81 57 0 
N 78 20 0 
N 99 41 0 
N 4 7 0 
N 24 74 0 
N 9 55 0 
N 65 15 0 
N 0 59 0 
N 96 4 0 
N 89 48 0 
N 58 41 0 
N 19 38 0 
N 4 69 0 
N 26 39 0 
N 13 98 0 
N 79 46 0 
N 31 60 0 
N 12 79 0 
N 74 9 0 
N 32 18 0 
N 14 77 0 
N 11 27 0 
N 24 81 0 
N 47 55 0 
N 57 1 0 
N 11 72 0 
N 72 62 0 
N 13 7 0 
N 59 93 0 
N 81 84 0 
N 27 67 0 
N 11 64 0 
N 87 35 0 
N 26 5 0 
N 52 38 0 
N 9 54 0 
N 28 63 0 
N 36 73 0 
N 12 56 0 
N 73 16 0 
N 10 66 0 
N 39 0 0 
N 73 33 0 
N 3 3 0 
N 37 29 0 
N 44 41 0 
N 53 48 0 
N 61 23 0 
N 8 47 0 
N 97 82 0 
N 93 78 0 
N 99 93 0 
N 49 93 0 
N 49 21 0 
N 66 22 0 
N 71 29 0 
N 62 88 0 
N 66 84 0 
N 67 49 0 
N 17 96 0 
N 66 38 0 
N 36 2 0 
N 28 84 0 
N 49 49 0 
N 94 74 0 
N 55 34 0 
N 9 18 0 
N 21 53 0 
N 63 23 0 
N 73 78 0 
N 50 86 0 
N 21 92 0 
N 98 8 0 
N 62 14 0 
N 42 53 0 
N 5 34 0 
N 74 13 0 
N 41 89 0 
N 20 61 0 
N 23 4 0 
N 67 82 0 
N 36 40 0 
N 47 53 0 
N 35 75 0 
N 3 58 0 
N 84 78 0 
N 25 90 0 
N 93 46 0 
N 91 71 0 
N 96 2 0 
N 57 57 0 
N 74 92 0 
N 56 13 0 
N 47 92 0 
N 36 9 0 
N 16 26 0 
N 4 96 0 
N 77 46 0 
N 44 58 0 
N 16 3 0 
N 73 50 0 
N 31 70 0 
N 66 25 0 
N 21 42 0 
N 40 52 0 
N 85 0 0 
N 96 90 0 
N 51 99 0 
N 77 92 0 
N 65 12 0 
N 65 54 0 
N 63 52 0 
N 31 49 0 
N 12 88 0 
N 24 34 0 
N 62 48 0 
N 94 67 0 
N 60 73 0 
N 8 96 0 
N 38 30 0 
N 24 27 0 
N 97 57 0 
N 16 4 0 
N 45 99 0 
N 96 74 0 
N 43 79 0 
N 14 41 0 
N 76 42 0 
N 52 71 0 
N 1 42 0 
N 44 88 0 
N 82 99 0 
N 60 40 0 
N 22 60 0 
N 71 58 0 
N 40 98 0 
N 49 63 0 
N 2 3 0 
N 70 3 0 
N 18 77 0 
N 61 47 0 
N 41 5 0 
N 60 39 0 
N 27 65 0 
N 87 24 0 
N 35 64 0 
N 53 99 0 
N 86 96 0 
N 40 32 0 
N 5 96 0 
N 92 78 0 
N 60 2 0 
N 35 52 0 
N 15 2 0 
N 52 10 0 
N 77 81 0 
N 63 70 0 
N 30 20 0 
N 72 31 0 
N 66 36 0 
N 41 26 0 
N 96 37 0 
N 89 86 0 
N 47 0 0 
N 9 94 0 
N 8 39 0 
N 72 79 0 
N 7 11 0 
N 55 22 0 
N 45 3 0 
N 89 59 0 
N 98 98 0 
N 0 30 0 
N 5 84 0 
N 85 37 0 
N 63 36 0 
N 60 48 0 
N 33 20 0 
N 25 79 0 
N 1 87 0 
N 84 16 0 
N 10 77 0 
N 58 62 0 
N 58 15 0 
N 48 43 0 
N 24 82 0 
N 77 27 0 
N 70 1 0 
N 59 58 0 
N 23 24 0 
N 31 66 0 
N 38 89 0 
N 77 56 0 
N 41 43 0 
N 88 39 0 
N 70 83 0 
N 5 52 0 
N 70 0 0 
N 84 51 0 
N 6 37 0 
N 51 97 0 
N 31 88 0 
N 42 54 0 
N 0 66 0 
N 54 5 0 
N 43 80 0 
N 19 71 0 
N 34 51 0 
N 33 78 0 
N 39 44 0 
N 66 9 0 
N 2 33 0 
N 1 45 0 
N 46 0 0 
N 8 44 0 
N 80 28 0 
N 32 50 0 
N 94 5 0 
N 74 27 0 
N 66 70 0 
N 8 63 0 
N 73 36 0 
N 7 94 0 
N 77 80 0 
N 11 37 0 
N 59 33 0 
N 40 35 0 
N 95 52 0 
N 1 22 0 
N 5 30 0 
N 62 91 0 
N 17 81 0 
N 24 18 0 
N 79 49 0 
N 73 87 0 
N 2 69 0 
N 36 60 0 
N 10 81 0 
N 97 52 0 
N 65 91 0 
N 38 34 0 
N 74 15 0 
N 4 66 0 
N 77 61 0 
N 28 16 0 
N 56 61 0 
N 28 1 0 
N 80 99 0 
N 11 10 0 
N 91 72 0 
N 19 61 0 
N 43 16 0 
N 54 31 0 
N 4 4 0 
N 66 63 0 
N 5 1 0 
N 92 80 0 
N 92 95 0 
N 58 79 0 
N 31 96 0 
N 25 43 0 
O 91 10 0 
O 71 72 0 
O 30 30 0 
O 87 60 0 
O 48 14 0 
O 74 17 0 
O 82 6 0 
O 30 93 0 
O 56 16 0 
O 2 99 0 
O 78 99 0 
O 70 97 0 
O 26 33 0 
O 77 77 0 
O 86 99 0 
515
Atoms. Timestep: 14
N 77 49 0 
N 68 2 0 
N 15 99 0 
N 57 14 0 
N 12 51 0 
N 27 47 0 
N 21 88 0 
N 3 49 0 
N 4 35 0 
N 73 6 0 
N 92 52 0 
N 41 12 0 
N 41 33 0 
N 81 74 0 
N 48 15 0 
N 10 99 0 
N 54 73 0 
N 9 32 0 
N 27 81 0 
N 16 72 0 
N 34 49 0 
N 99 85 0 
N 94 29 0 
N 69 69 0 
N 13 57 0 
N 31 65 0 
N 40 2 0 
N 53 44 0 
N 47 79 0 
N 24 61 0 
N 19 82 0 
N 29 68 0 
N 23 40 0 
N 44 74 0 
N 56 5 0 
N 51 46 0 
N 37 66 0 
N 13 68 0 
N 43 63 0 
N 68 52 0 
N 66 93 0 
N 85 48 0 
N 53 88 0 
N 41 16 0 
N 34 93 0 
N 20 23 0 
N 98 72 0 
N 60 98 0 
N 49 47 0 
N 84 69 0 
N 77 81 0 
N 99 2 0 
N 89 83 0 
N 92 74 0 
N 93 41 0 
N 3 0 0 
N 28 7 0 
N 9 45 0 
N 68 59 0 
N 8 53 0 
N 27 48 0 
N 18 63 0 
N 83 42 0 
N 39 31 0 
N 14 62 0 
N 55 16 0 
N 53 60 0 
N 29 30 0 
N 19 71 0 
N 62 53 0 
N 38 21 0 
N 34 88 0 
N 98 8 0 
N 85 15 0 
N 80 34 0 
N 41 3 0 
N 76 28 0 
N 63 39 0 
N 27 9 0 
N 23 20 0 
N 32 52 0 
N 76 78 0 
N 51 9 0 
N 9 42 0 
N 39 45 0 
N 26 59 0 
N 21 68 0 
N 6 57 0 
N 98 15 0 
N 50 11 0 
N 16 31 0 
N 99 11 0 
N 42 28 0 
N 23 69 0 
N 65 35 0 
N 66 50 0 
N 13 19 0 
N 68 90 0 
N 28 64 0 
N 48 60 0 
N 47 7 0 
N 33 19 0 
N 51 25 0 
N 71 75 0 
N 16 41 0 
N 72 79 0 
N 43 7 0 
N 97 59 0 
N 42 34 0 
N 32 21 0 
N 55 77 0 
N 33 52 0 
N 22 15 0 
N 8 10 0 
N 33 43 0 
N 58 32 0 
N 80 21 0 
N 22 48 0 
N 91 34 0 
N 7 31 0 
N 12 75 0 
N 86 2 0 
N 57 51 0 
N 6 17 0 
N 32 71 0 
N 23 33 0 
N 51 20 0 
N 9 27 0 
N 40 7 0 
N 99 41 0 
N 90 60 0 
N 62 82 0 
N 8 12 0 
N 9 29 0 
N 35 68 0 
N 16 36 0 
N 26 79 0 
N 5 42 0 
N 74 53 0 
N 43 2 0 
N 13 58 0 
N 36 33 0 
N 16 17 0 
N 33 93 0 
N 56 29 0 
N 81 29 0 
N 88 46 0 
N 51 87 0 
N 96 6 0 
N 5 6 0 
N 92 10 0 
N 0 46 0 
N 40 46 0 
N 39 54 0 
N 89 91 0 
N 42 50 0 
N 59 0 0 
N 88 25 0 
N 21 44 0 
N 87 86 0 
N 49 72 0 
N 57 16 0 
N 57 71 0 
N 6 73 0 
N 79 27 0 
N 96 92 0 
N 60 66 0 
N 58 90 0 
N 7 94 0 
N 52 33 0 
N 42 4 0 
N 59 86 0 
N 26 58 0 
N 97 21 0 
N 46 70 0 
N 96 96 0 
N 16 79 0 
N 56 17 0 
N 55 11 0 
N 73 16 0 
N 10 61 0 
N 9 20 0 
N 19 3 0 
N 21 14 0 
N 39 51 0 
N 80 47 0 
N 84 56 0 
N 99 20 0 
N 2 33 0 
N 90 56 0 
N 83 75 0 
N 20 20 0 
N 35 66 0 
N 2 80 0 
N 93 72 0 
N 2 54 0 
N 39 8 0 
N 58 60 0 
N 37 23 0 
N 58 64 0 
N 97 99 0 
N 68 58 0 
N 74 13 0 
N 69 38 0 
N 70 47 0 
N 52 61 0 
N 6 82 0 
N 30 29 0 
N 46 73 0 
N 34 14 0 
N 35 37 0 
N 11 82 0 
N 91 66 0 
N 81 47 0 
N 16 33 0 
N 76 57 0 
N 1 45 0 
N 80 18 0 
N 98 39 0 
N 52 48 0 
N 49 31 0 
N 88 5 0 
N 5 10 0 
N 3 20 0 
N 89 88 0 
N 16 9 0 
N 89 35 0 
N 70 98 0 
N 83 6 0 
N 52 65 0 
N 12 90 0 
N 93 18 0 
N 65 86 0 
N 85 84 0 
N 34 38 0 
N 91 12 0 
N 76 49 0 
N 22 22 0 
N 59 38 0 
N 80 57 0 
N 79 20 0 
N 99 42 0 
N 4 8 0 
N 24 75 0 
N 10 55 0 
N 65 14 0 
N 0 58 0 
N 96 3 0 
N 88 48 0 
N 58 42 0 
N 20 38 0 
N 4 70 0 
N 25 39 0 
N 14 98 0 
N 78 46 0 
N 32 60 0 
N 11 79 0 
N 73 9 0 
N 32 17 0 
N 14 76 0 
N 11 26 0 
N 23 81 0 
N 48 55 0 
N 57 2 0 
N 11 71 0 
N 73 62 0 
N 12 7 0 
N 60 93 0 
N 81 85 0 
N 26 67 0 
N 11 65 0 
N 88 35 0 
N 26 6 0 
N 52 39 0 
N 8 54 0 
N 28 62 0 
N 37 73 0 
N 12 55 0 
N 73 17 0 
N 9 66 0 
N 39 1 0 
N 73 34 0 
N 3 4 0 
N 37 28 0 
N 44 40 0 
N 53 49 0 
N 62 23 0 
N 8 46 0 
N 96 82 0 
N 92 78 0 
N 0 93 0 
N 49 92 0 
N 50 21 0 
N 67 22 0 
N 71 30 0 
N 61 88 0 
N 67 84 0 
N 67 50 0 
N 17 95 0 
N 65 38 0 
N 36 3 0 
N 28 85 0 
N 49 50 0 
N 94 75 0 
N 54 34 0 
N 9 19 0 
N 21 52 0 
N 63 24 0 
N 72 78 0 
N 49 86 0 
N 20 92 0 
N 97 8 0 
N 61 14 0 
N 42 54 0 
N 5 35 0 
N 74 14 0 
N 41 90 0 
N 19 61 0 
N 23 5 0 
N 67 81 0 
N 35 40 0 
N 48 53 0 
N 35 74 0 
N 4 58 0 
N 83 78 0 
N 26 90 0 
N 93 47 0 
N 91 72 0 
N 96 1 0 
N 57 56 0 
N 74 93 0 
N 56 14 0 
N 47 93 0 
N 37 9 0 
N 16 25 0 
N 3 96 0 
N 77 47 0 
N 45 58 0 
N 16 2 0 
N 74 50 0 
N 31 69 0 
N 67 25 0 
N 21 43 0 
N 39 52 0 
N 85 1 0 
N 96 91 0 
N 52 99 0 
N 78 92 0 
N 65 13 0 
N 65 55 0 
N 64 52 0 
N 32 49 0 
N 13 88 0 
N 24 33 0 
N 62 49 0 
N 93 67 0 
N 60 72 0 
N 7 96 0 
N 39 30 0 
N 24 26 0 
N 97 58 0 
N 15 4 0 
N 44 99 0 
N 97 74 0 
N 43 78 0 
N 14 42 0 
N 76 41 0 
N 51 71 0 
N 1 41 0 
N 44 89 0 
N 81 99 0 
N 59 40 0 
N 22 61 0 
N 71 59 0 
N 40 97 0 
N 50 63 0 
N 2 4 0 
N 69 3 0 
N 19 77 0 
N 61 46 0 
N 40 5 0 
N 60 38 0 
N 27 64 0 
N 88 24 0 
N 36 64 0 
N 53 98 0 
N 86 97 0 
N 41 32 0 
N 5 95 0 
N 91 78 0 
N 61 2 0 
N 35 53 0 
N 15 3 0 
N 52 11 0 
N 77 80 0 
N 63 71 0 
N 30 21 0 
N 73 31 0 
N 66 37 0 
N 42 26 0 
N 96 38 0 
N 89 85 0 
N 48 0 0 
N 9 95 0 
N 8 40 0 
N 73 79 0 
N 7 10 0 
N 55 23 0 
N 45 2 0 
N 88 59 0 
N 98 99 0 
N 0 31 0 
N 5 85 0 
N 85 38 0 
N 62 36 0 
N 60 47 0 
N 34 20 0 
N 24 79 0 
N 0 87 0 
N 85 16 0 
N 10 76 0 
N 59 62 0 
N 58 16 0 
N 49 43 0 
N 24 83 0 
N 77 28 0 
N 70 2 0 
N 60 58 0 
N 22 24 0 
N 32 66 0 
N 39 89 0 
N 77 55 0 
N 42 43 0 
N 87 39 0 
N 70 84 0 
N 5 51 0 
N 70 0 0 
N 84 50 0 
N 6 36 0 
N 50 97 0 
N 30 88 0 
N 43 54 0 
N 0 67 0 
N 53 5 0 
N 43 81 0 
N 19 72 0 
N 33 51 0 
N 33 77 0 
N 40 44 0 
N 65 9 0 
N 2 34 0 
N 1 44 0 
N 46 99 0 
N 8 43 0 
N 81 28 0 
N 33 50 0 
N 95 5 0 
N 75 27 0 
N 66 69 0 
N 8 64 0 
N 73 35 0 
N 8 94 0 
N 77 79 0 
N 12 37 0 
N 59 34 0 
N 40 34 0 
N 94 52 0 
N 2 22 0 
N 6 30 0 
N 62 90 0 
N 17 82 0 
N 23 18 0 
N 79 50 0 
N 73 88 0 
N 1 69 0 
N 37 60 0 
N 10 82 0 
N 98 52 0 
N 65 92 0 
N 38 35 0 
N 74 16 0 
N 3 66 0 
N 77 60 0 
N 29 16 0 
N 56 60 0 
N 28 2 0 
N 79 99 0 
N 11 11 0 
N 91 73 0 
N 19 60 0 
N 44 16 0 
N 53 31 0 
N 4 3 0 
N 66 64 0 
N 4 1 0 
N 91 80 0 
N 93 95 0 
N 58 80 0 
N 31 95 0 
N 26 43 0 
O 90 10 0 
O 71 71 0 
O 31 30 0 
O 87 61 0 
O 49 14 0 
O 74 18 0 
O 81 6 0 
O 29 93 0 
O 56 15 0 
O 2 0 0 
O 77 99 0 
O 71 97 0 
O 27 33 0 
O 78 77 0 
O 85 99 0 
513
Atoms. Timestep: 15
N 76 49 0 
N 68 1 0 
N 15 0 0 
N 57 13 0 
N 12 50 0 
N 27 48 0 
N 21 89 0 
N 2 49 0 
N 4 36 0 
N 72 6 0 
N 91 52 0 
N 42 12 0 
N 41 32 0 
N 82 74 0 
N 49 15 0 
N 10 98 0 
N 53 73 0 
N 10 32 0 
N 26 81 0 
N 15 72 0 
N 34 50 0 
N 99 84 0 
N 95 29 0 
N 70 69 0 
N 13 58 0 
N 30 65 0 
N 39 2 0 
N 54 44 0 
N 47 80 0 
N 25 61 0 
N 19 83 0 
N 30 68 0 
N 23 41 0 
N 44 73 0 
N 57 5 0 
N 52 46 0 
N 36 66 0 
N 14 68 0 
N 43 64 0 
N 68 53 0 
N 65 93 0 
N 86 48 0 
N 53 87 0 
N 41 17 0 
N 33 93 0 
N 20 22 0 
N 97 72 0 
N 59 98 0 
N 50 47 0 
N 83 69 0 
N 77 80 0 
N 98 2 0 
N 88 83 0 
N 92 73 0 
N 92 41 0 
N 2 0 0 
N 28 6 0 
N 10 45 0 
N 69 59 0 
N 8 52 0 
N 26 48 0 
N 19 63 0 
N 83 43 0 
N 38 31 0 
N 13 62 0 
N 54 16 0 
N 54 60 0 
N 29 30 0 
N 20 71 0 
N 63 53 0 
N 38 20 0 
N 34 87 0 
N 99 8 0 
N 84 15 0 
N 79 34 0 
N 41 2 0 
N 76 27 0 
N 63 38 0 
N 27 10 0 
N 23 21 0 
N 32 51 0 
N 77 78 0 
N 51 8 0 
N 8 42 0 
N 39 44 0 
N 26 58 0 
N 21 67 0 
N 6 56 0 
N 98 14 0 
N 49 11 0 
N 16 32 0 
N 99 12 0 
N 41 28 0 
N 23 68 0 
N 66 35 0 
N 67 50 0 
N 13 20 0 
N 67 90 0 
N 28 63 0 
N 48 59 0 
N 47 8 0 
N 34 19 0 
N 51 26 0 
N 71 74 0 
N 16 42 0 
N 73 79 0 
N 44 7 0 
N 96 59 0 
N 41 34 0 
N 32 20 0 
N 55 76 0 
N 34 52 0 
N 22 16 0 
N 8 9 0 
N 33 42 0 
N 58 31 0 
N 80 20 0 
N 22 49 0 
N 90 34 0 
N 7 32 0 
N 12 74 0 
N 86 3 0 
N 57 52 0 
N 7 17 0 
N 31 71 0 
N 24 33 0 
N 51 19 0 
N 9 28 0 
N 41 7 0 
N 99 42 0 
N 90 61 0 
N 62 81 0 
N 7 12 0 
N 10 29 0 
N 35 67 0 
N 16 35 0 
N 25 79 0 
N 5 41 0 
N 74 52 0 
N 43 1 0 
N 13 59 0 
N 36 32 0 
N 16 16 0 
N 33 94 0 
N 55 29 0 
N 81 28 0 
N 89 46 0 
N 52 87 0 
N 96 7 0 
N 5 7 0 
N 91 10 0 
N 0 45 0 
N 41 46 0 
N 40 54 0 
N 89 92 0 
N 41 50 0 
N 59 1 0 
N 87 25 0 
N 20 44 0 
N 86 86 0 
N 50 72 0 
N 57 15 0 
N 57 70 0 
N 6 74 0 
N 80 27 0 
N 96 93 0 
N 59 66 0 
N 58 89 0 
N 7 95 0 
N 51 33 0 
N 43 4 0 
N 58 86 0 
N 25 58 0 
N 97 22 0 
N 46 69 0 
N 97 96 0 
N 17 79 0 
N 55 17 0 
N 56 11 0 
N 73 17 0 
N 10 60 0 
N 10 20 0 
N 19 2 0 
N 21 15 0 
N 39 52 0 
N 80 48 0 
N 85 56 0 
N 98 20 0 
N 1 33 0 
N 91 56 0 
N 84 75 0 
N 20 19 0 
N 35 65 0 
N 2 81 0 
N 94 72 0 
N 2 55 0 
N 39 7 0 
N 59 60 0 
N 37 22 0 
N 57 64 0 
N 97 98 0 
N 69 58 0 
N 74 14 0 
N 70 38 0 
N 70 46 0 
N 53 61 0 
N 5 82 0 
N 30 30 0 
N 46 72 0 
N 34 15 0 
N 36 37 0 
N 10 82 0 
N 91 65 0 
N 81 48 0 
N 15 33 0 
N 76 58 0 
N 1 44 0 
N 79 18 0 
N 99 39 0 
N 52 47 0 
N 48 31 0 
N 89 5 0 
N 5 9 0 
N 3 19 0 
N 88 88 0 
N 16 10 0 
N 90 35 0 
N 70 97 0 
N 82 6 0 
N 51 65 0 
N 11 90 0 
N 92 18 0 
N 64 86 0 
N 86 84 0 
N 34 37 0 
N 91 11 0 
N 76 48 0 
N 22 21 0 
N 58 38 0 
N 79 57 0 
N 79 21 0 
N 98 42 0 
N 4 7 0 
N 24 76 0 
N 10 54 0 
N 64 14 0 
N 99 58 0 
N 97 3 0 
N 89 48 0 
N 58 41 0 
N 21 38 0 
N 3 70 0 
N 25 38 0 
N 15 98 0 
N 79 46 0 
N 32 61 0 
N 11 80 0 
N 74 9 0 
N 32 18 0 
N 15 76 0 
N 12 26 0 
N 23 80 0 
N 48 56 0 
N 58 2 0 
N 10 71 0 
N 73 61 0 
N 13 7 0 
N 60 92 0 
N 82 85 0 
N 26 68 0 
N 11 66 0 
N 88 36 0 
N 26 5 0 
N 51 39 0 
N 7 54 0 
N 29 62 0 
N 37 74 0 
N 12 54 0 
N 73 18 0 
N 9 65 0 
N 40 1 0 
N 73 33 0 
N 2 4 0 
N 37 27 0 
N 44 39 0 
N 54 49 0 
N 61 23 0 
N 8 45 0 
N 97 82 0 
N 93 78 0 
N 0 92 0 
N 49 93 0 
N 50 20 0 
N 67 23 0 
N 71 31 0 
N 62 88 0 
N 66 84 0 
N 67 49 0 
N 18 95 0 
N 66 38 0 
N 37 3 0 
N 27 85 0 
N 50 50 0 
N 93 75 0 
N 55 34 0 
N 9 18 0 
N 21 51 0 
N 63 25 0 
N 72 77 0 
N 50 86 0 
N 20 91 0 
N 97 9 0 
N 62 14 0 
N 41 54 0 
N 5 34 0 
N 74 15 0 
N 40 90 0 
N 20 61 0 
N 23 4 0 
N 67 82 0 
N 36 40 0 
N 49 53 0 
N 36 74 0 
N 5 58 0 
N 83 79 0 
N 26 91 0 
N 94 47 0 
N 90 72 0 
N 96 2 0 
N 56 56 0 
N 75 93 0 
N 56 15 0 
N 48 93 0 
N 37 8 0 
N 15 25 0 
N 3 95 0 
N 78 47 0 
N 46 58 0 
N 16 1 0 
N 73 50 0 
N 30 69 0 
N 67 26 0 
N 21 42 0 
N 39 53 0 
N 85 2 0 
N 97 91 0 
N 51 99 0 
N 79 92 0 
N 66 13 0 
N 66 55 0 
N 63 52 0 
N 33 49 0 
N 12 88 0 
N 25 33 0 
N 62 48 0 
N 93 66 0 
N 60 71 0 
N 7 97 0 
N 38 30 0 
N 24 25 0 
N 96 58 0 
N 16 4 0 
N 43 99 0 
N 97 73 0 
N 43 77 0 
N 14 43 0 
N 77 41 0 
N 51 70 0 
N 1 42 0 
N 45 89 0 
N 80 99 0 
N 59 41 0 
N 23 61 0 
N 71 58 0 
N 41 97 0 
N 50 64 0 
N 2 3 0 
N 69 2 0 
N 19 76 0 
N 60 46 0 
N 40 4 0 
N 60 39 0 
N 27 65 0 
N 88 23 0 
N 35 64 0 
N 53 99 0 
N 85 97 0 
N 41 31 0 
N 5 96 0 
N 90 78 0 
N 60 2 0 
N 36 53 0 
N 15 2 0 
N 52 12 0 
N 77 79 0 
N 64 71 0 
N 30 22 0 
N 73 32 0 
N 66 36 0 
N 41 26 0 
N 95 38 0 
N 89 86 0 
N 49 0 0 
N 9 96 0 
N 7 40 0 
N 73 80 0 
N 7 11 0 
N 55 22 0 
N 45 1 0 
N 87 59 0 
N 98 0 0 
N 0 32 0 
N 4 85 0 
N 86 38 0 
N 62 35 0 
N 59 47 0 
N 34 21 0 
N 24 78 0 
N 0 88 0 
N 84 16 0 
N 10 77 0 
N 60 62 0 
N 58 15 0 
N 49 42 0 
N 24 84 0 
N 78 28 0 
N 70 3 0 
N 60 57 0 
N 21 24 0 
N 32 67 0 
N 38 89 0 
N 76 55 0 
N 43 43 0 
N 87 38 0 
N 70 83 0 
N 4 51 0 
N 70 1 0 
N 84 49 0 
N 7 36 0 
N 51 97 0 
N 29 88 0 
N 44 54 0 
N 1 67 0 
N 53 6 0 
N 43 80 0 
N 19 73 0 
N 34 51 0 
N 34 77 0 
N 41 44 0 
N 65 8 0 
N 1 34 0 
N 2 44 0 
N 45 99 0 
N 8 44 0 
N 81 27 0 
N 32 50 0 
N 96 5 0 
N 74 27 0 
N 67 69 0 
N 7 64 0 
N 73 36 0 
N 9 94 0 
N 78 79 0 
N 13 37 0 
N 59 35 0 
N 40 33 0 
N 94 53 0 
N 1 22 0 
N 6 29 0 
N 61 90 0 
N 17 83 0 
N 23 19 0 
N 78 50 0 
N 74 88 0 
N 1 70 0 
N 37 59 0 
N 10 81 0 
N 98 53 0 
N 64 92 0 
N 39 35 0 
N 74 17 0 
N 2 66 0 
N 77 59 0 
N 29 15 0 
N 55 60 0 
N 28 1 0 
N 78 99 0 
N 10 11 0 
N 91 74 0 
N 18 60 0 
N 45 16 0 
N 53 30 0 
N 4 2 0 
N 66 63 0 
N 3 1 0 
N 91 79 0 
N 93 96 0 
N 58 81 0 
N 31 94 0 
N 27 43 0 
O 90 9 0 
O 71 72 0 
O 32 30 0 
O 88 61 0 
O 50 14 0 
O 75 18 0 
O 81 5 0 
O 28 93 0 
O 76 99 0 
O 71 96 0 
O 27 34 0 
O 78 76 0 
O 86 99 0 
513
Atoms. Timestep: 16
N 76 50 0 
N 69 1 0 
N 15 1 0 
N 57 12 0 
N 12 51 0 
N 26 48 0 
N 21 90 0 
N 2 50 0 
N 5 36 0 
N 72 5 0 
N 90 52 0 
N 43 12 0 
N 42 32 0 
N 82 73 0 
N 50 15 0 
N 10 99 0 
N 54 73 0 
N 10 31 0 
N 26 82 0 
N 16 72 0 
N 33 50 0 
N 99 83 0 
N 95 28 0 
N 71 69 0 
N 13 59 0 
N 31 65 0 
N 39 1 0 
N 53 44 0 
N 47 79 0 
N 24 61 0 
N 19 82 0 
N 30 69 0 
N 24 41 0 
N 44 74 0 
N 56 5 0 
N 52 47 0 
N 37 66 0 
N 14 67 0 
N 44 64 0 
N 67 53 0 
N 66 93 0 
N 87 48 0 
N 52 87 0 
N 41 16 0 
N 32 93 0 
N 20 23 0 
N 97 73 0 
N 60 98 0 
N 49 47 0 
N 84 69 0 
N 77 79 0 
N 98 3 0 
N 87 83 0 
N 91 73 0 
N 93 41 0 
N 2 1 0 
N 28 7 0 
N 10 44 0 
N 69 60 0 
N 7 52 0 
N 25 48 0 
N 19 62 0 
N 83 44 0 
N 38 30 0 
N 13 63 0 
N 54 15 0 
N 54 59 0 
N 30 30 0 
N 20 72 0 
N 63 54 0 
N 38 19 0 
N 33 87 0 
N 99 9 0 
N 84 14 0 
N 79 33 0 
N 41 1 0 
N 76 28 0 
N 63 37 0 
N 27 9 0 
N 22 21 0 
N 32 50 0 
N 77 77 0 
N 51 7 0 
N 8 41 0 
N 39 43 0 
N 26 59 0 
N 20 67 0 
N 6 57 0 
N 97 14 0 
N 49 12 0 
N 16 31 0 
N 99 11 0 
N 41 29 0 
N 22 68 0 
N 66 34 0 
N 67 49 0 
N 13 19 0 
N 67 89 0 
N 29 63 0 
N 49 59 0 
N 46 8 0 
N 35 19 0 
N 50 26 0 
N 71 73 0 
N 16 43 0 
N 74 79 0 
N 44 6 0 
N 97 59 0 
N 41 35 0 
N 32 21 0 
N 54 76 0 
N 34 53 0 
N 21 16 0 
N 7 9 0 
N 33 43 0 
N 58 30 0 
N 80 21 0 
N 21 49 0 
N 91 34 0 
N 8 32 0 
N 13 74 0 
N 86 4 0 
N 57 51 0 
N 6 17 0 
N 30 71 0 
N 24 34 0 
N 51 18 0 
N 9 29 0 
N 41 8 0 
N 98 42 0 
N 89 61 0 
N 63 81 0 
N 7 13 0 
N 11 29 0 
N 35 66 0 
N 17 35 0 
N 26 79 0 
N 5 42 0 
N 74 51 0 
N 42 1 0 
N 13 60 0 
N 37 32 0 
N 15 16 0 
N 34 94 0 
N 54 29 0 
N 80 28 0 
N 89 45 0 
N 52 88 0 
N 95 7 0 
N 5 8 0 
N 90 10 0 
N 0 46 0 
N 41 47 0 
N 40 53 0 
N 89 91 0 
N 40 50 0 
N 59 0 0 
N 86 25 0 
N 19 44 0 
N 86 87 0 
N 50 71 0 
N 57 14 0 
N 56 70 0 
N 5 74 0 
N 81 27 0 
N 96 92 0 
N 60 66 0 
N 59 89 0 
N 7 94 0 
N 50 33 0 
N 42 4 0 
N 58 87 0 
N 25 59 0 
N 98 22 0 
N 46 70 0 
N 98 96 0 
N 17 80 0 
N 56 17 0 
N 55 11 0 
N 74 17 0 
N 10 59 0 
N 10 21 0 
N 18 2 0 
N 22 15 0 
N 39 51 0 
N 81 48 0 
N 84 56 0 
N 97 20 0 
N 2 33 0 
N 91 57 0 
N 84 74 0 
N 20 20 0 
N 36 65 0 
N 2 80 0 
N 95 72 0 
N 1 55 0 
N 38 7 0 
N 60 60 0 
N 37 21 0 
N 58 64 0 
N 97 97 0 
N 69 57 0 
N 75 14 0 
N 71 38 0 
N 69 46 0 
N 53 62 0 
N 5 81 0 
N 31 30 0 
N 45 72 0 
N 35 15 0 
N 36 38 0 
N 11 82 0 
N 91 66 0 
N 81 47 0 
N 15 32 0 
N 76 59 0 
N 1 45 0 
N 78 18 0 
N 99 40 0 
N 53 47 0 
N 48 30 0 
N 90 5 0 
N 4 9 0 
N 3 20 0 
N 88 87 0 
N 15 10 0 
N 91 35 0 
N 70 96 0 
N 82 5 0 
N 50 65 0 
N 12 90 0 
N 92 17 0 
N 64 87 0 
N 87 84 0 
N 34 36 0 
N 90 11 0 
N 77 48 0 
N 21 21 0 
N 58 39 0 
N 80 57 0 
N 79 22 0 
N 98 41 0 
N 3 7 0 
N 25 76 0 
N 11 54 0 
N 64 13 0 
N 99 59 0 
N 97 4 0 
N 88 48 0 
N 59 41 0 
N 21 37 0 
N 3 69 0 
N 26 38 0 
N 15 99 0 
N 79 45 0 
N 32 62 0 
N 12 80 0 
N 73 9 0 
N 33 18 0 
N 16 76 0 
N 12 27 0 
N 24 80 0 
N 48 55 0 
N 58 1 0 
N 10 70 0 
N 74 61 0 
N 13 6 0 
N 61 92 0 
N 82 86 0 
N 26 69 0 
N 11 65 0 
N 88 37 0 
N 26 4 0 
N 52 39 0 
N 8 54 0 
N 28 62 0 
N 38 74 0 
N 13 54 0 
N 73 18 0 
N 8 65 0 
N 40 2 0 
N 73 34 0 
N 2 3 0 
N 37 26 0 
N 45 39 0 
N 54 50 0 
N 61 24 0 
N 7 45 0 
N 98 82 0 
N 94 78 0 
N 99 92 0 
N 49 92 0 
N 50 21 0 
N 67 24 0 
N 71 30 0 
N 62 89 0 
N 65 84 0 
N 67 48 0 
N 19 95 0 
N 65 38 0 
N 37 2 0 
N 27 86 0 
N 50 49 0 
N 94 75 0 
N 54 34 0 
N 8 18 0 
N 22 51 0 
N 63 24 0 
N 72 78 0 
N 50 85 0 
N 20 90 0 
N 97 8 0 
N 62 13 0 
N 42 54 0 
N 5 33 0 
N 74 16 0 
N 40 89 0 
N 19 61 0 
N 23 3 0 
N 66 82 0 
N 37 40 0 
N 49 52 0 
N 36 73 0 
N 5 57 0 
N 84 79 0 
N 27 91 0 
N 94 46 0 
N 90 73 0 
N 97 2 0 
N 57 56 0 
N 75 94 0 
N 56 16 0 
N 47 93 0 
N 37 9 0 
N 15 26 0 
N 4 95 0 
N 79 47 0 
N 47 58 0 
N 16 0 0 
N 73 49 0 
N 29 69 0 
N 68 26 0 
N 21 43 0 
N 38 53 0 
N 85 3 0 
N 97 92 0 
N 52 99 0 
N 79 93 0 
N 66 14 0 
N 66 56 0 
N 62 52 0 
N 34 49 0 
N 12 87 0 
N 26 33 0 
N 62 49 0 
N 92 66 0 
N 60 72 0 
N 8 97 0 
N 39 30 0 
N 23 25 0 
N 95 58 0 
N 15 4 0 
N 42 99 0 
N 98 73 0 
N 42 77 0 
N 13 43 0 
N 77 40 0 
N 50 70 0 
N 2 42 0 
N 46 89 0 
N 79 99 0 
N 59 42 0 
N 23 62 0 
N 70 58 0 
N 41 98 0 
N 50 63 0 
N 2 2 0 
N 69 3 0 
N 18 76 0 
N 60 47 0 
N 40 3 0 
N 59 39 0 
N 27 64 0 
N 88 24 0 
N 34 64 0 
N 54 99 0 
N 85 98 0 
N 42 31 0 
N 5 97 0 
N 91 78 0 
N 60 3 0 
N 37 53 0 
N 15 3 0 
N 51 12 0 
N 78 79 0 
N 64 70 0 
N 30 21 0 
N 73 31 0 
N 67 36 0 
N 41 27 0 
N 95 39 0 
N 89 85 0 
N 49 99 0 
N 9 97 0 
N 6 40 0 
N 72 80 0 
N 6 11 0 
N 56 22 0 
N 45 2 0 
N 88 59 0 
N 98 1 0 
N 99 32 0 
N 4 86 0 
N 86 37 0 
N 61 35 0 
N 58 47 0 
N 34 20 0 
N 25 78 0 
N 0 87 0 
N 83 16 0 
N 11 77 0 
N 60 63 0 
N 58 16 0 
N 50 42 0 
N 25 84 0 
N 77 28 0 
N 70 2 0 
N 60 56 0 
N 22 24 0 
N 32 68 0 
N 39 89 0 
N 76 56 0 
N 43 44 0 
N 87 39 0 
N 70 84 0 
N 3 51 0 
N 70 0 0 
N 83 49 0 
N 7 37 0 
N 51 98 0 
N 30 88 0 
N 44 53 0 
N 1 66 0 
N 54 6 0 
N 43 79 0 
N 19 74 0 
N 33 51 0 
N 33 77 0 
N 42 44 0 
N 65 9 0 
N 1 35 0 
N 2 45 0 
N 45 98 0 
N 7 44 0 
N 81 26 0 
N 32 49 0 
N 95 5 0 
N 74 26 0 
N 67 68 0 
N 6 64 0 
N 74 36 0 
N 9 93 0 
N 78 78 0 
N 13 38 0 
N 59 36 0 
N 41 33 0 
N 93 53 0 
N 1 21 0 
N 6 30 0 
N 60 90 0 
N 17 82 0 
N 24 19 0 
N 78 49 0 
N 75 88 0 
N 1 69 0 
N 38 59 0 
N 11 81 0 
N 98 52 0 
N 65 92 0 
N 38 35 0 
N 74 18 0 
N 3 66 0 
N 78 59 0 
N 28 15 0 
N 55 61 0 
N 28 2 0 
N 77 99 0 
N 11 11 0 
N 90 74 0 
N 17 60 0 
N 45 15 0 
N 52 30 0 
N 3 2 0 
N 66 62 0 
N 3 0 0 
N 91 80 0 
N 93 97 0 
N 59 81 0 
N 31 93 0 
N 28 43 0 
O 90 8 0 
O 70 72 0 
O 32 29 0 
O 87 61 0 
O 51 14 0 
O 75 17 0 
O 80 5 0 
O 29 93 0 
O 76 0 0 
O 72 96 0 
O 27 35 0 
O 79 76 0 
O 86 0 0 
512
Atoms. Timestep: 17
N 76 49 0 
N 70 1 0 
N 15 0 0 
N 57 13 0 
N 11 51 0 
N 27 48 0 
N 21 89 0 
N 3 50 0 
N 4 36 0 
N 73 5 0 
N 90 51 0 
N 44 12 0 
N 43 32 0 
N 81 73 0 
N 50 14 0 
N 10 98 0 
N 55 73 0 
N 10 32 0 
N 25 82 0 
N 15 72 0 
N 33 51 0 
N 99 84 0 
N 95 29 0 
N 70 69 0 
N 13 60 0 
N 30 65 0 
N 38 1 0 
N 52 44 0 
N 46 79 0 
N 24 60 0 
N 19 81 0 
N 30 70 0 
N 24 42 0 
N 44 75 0 
N 57 5 0 
N 52 48 0 
N 37 67 0 
N 14 66 0 
N 44 63 0 
N 68 53 0 
N 66 94 0 
N 88 48 0 
N 53 87 0 
N 41 15 0 
N 31 93 0 
N 20 22 0 
N 98 73 0 
N 59 98 0 
N 48 47 0 
N 83 69 0 
N 78 79 0 
N 98 2 0 
N 87 82 0 
N 92 73 0 
N 93 42 0 
N 3 1 0 
N 28 6 0 
N 11 44 0 
N 69 61 0 
N 7 53 0 
N 24 48 0 
N 18 62 0 
N 84 44 0 
N 38 29 0 
N 13 62 0 
N 54 14 0 
N 54 60 0 
N 30 29 0 
N 20 73 0 
N 63 53 0 
N 39 19 0 
N 33 86 0 
N 0 9 0 
N 83 14 0 
N 78 33 0 
N 42 1 0 
N 76 29 0 
N 63 36 0 
N 26 9 0 
N 22 22 0 
N 31 50 0 
N 77 76 0 
N 51 8 0 
N 8 40 0 
N 39 44 0 
N 25 59 0 
N 19 67 0 
N 6 56 0 
N 98 14 0 
N 50 12 0 
N 16 32 0 
N 98 11 0 
N 41 28 0 
N 22 67 0 
N 66 33 0 
N 66 49 0 
N 13 18 0 
N 66 89 0 
N 29 64 0 
N 48 59 0 
N 47 8 0 
N 34 19 0 
N 50 27 0 
N 71 72 0 
N 17 43 0 
N 74 78 0 
N 45 6 0 
N 97 58 0 
N 40 35 0 
N 31 21 0 
N 55 76 0 
N 33 53 0 
N 21 17 0 
N 8 9 0 
N 32 43 0 
N 58 29 0 
N 81 21 0 
N 22 49 0 
N 91 33 0 
N 8 31 0 
N 13 73 0 
N 86 3 0 
N 57 50 0 
N 7 17 0 
N 29 71 0 
N 24 35 0 
N 51 17 0 
N 8 29 0 
N 41 7 0 
N 99 42 0 
N 88 61 0 
N 62 81 0 
N 7 12 0 
N 11 30 0 
N 35 67 0 
N 16 35 0 
N 27 79 0 
N 6 42 0 
N 74 52 0 
N 43 1 0 
N 14 60 0 
N 37 31 0 
N 14 16 0 
N 34 93 0 
N 54 30 0 
N 81 28 0 
N 89 44 0 
N 51 88 0 
N 95 8 0 
N 5 9 0 
N 90 9 0 
N 0 47 0 
N 41 48 0 
N 40 52 0 
N 90 91 0 
N 41 50 0 
N 58 0 0 
N 87 25 0 
N 19 45 0 
N 86 86 0 
N 50 72 0 
N 58 14 0 
N 55 70 0 
N 6 74 0 
N 80 27 0 
N 96 93 0 
N 60 67 0 
N 59 90 0 
N 8 94 0 
N 51 33 0 
N 43 4 0 
N 57 87 0 
N 25 60 0 
N 99 22 0 
N 46 69 0 
N 99 96 0 
N 18 80 0 
N 56 18 0 
N 55 10 0 
N 75 17 0 
N 10 60 0 
N 9 21 0 
N 18 3 0 
N 22 14 0 
N 39 52 0 
N 81 47 0 
N 84 57 0 
N 96 20 0 
N 2 34 0 
N 90 57 0 
N 83 74 0 
N 20 21 0 
N 37 65 0 
N 3 80 0 
N 96 72 0 
N 2 55 0 
N 38 8 0 
N 60 59 0 
N 37 22 0 
N 58 63 0 
N 97 98 0 
N 68 57 0 
N 75 15 0 
N 72 38 0 
N 69 47 0 
N 53 63 0 
N 5 82 0 
N 31 29 0 
N 45 71 0 
N 35 16 0 
N 37 38 0 
N 12 82 0 
N 91 65 0 
N 81 46 0 
N 15 33 0 
N 76 58 0 
N 0 45 0 
N 78 17 0 
N 0 40 0 
N 53 46 0 
N 47 30 0 
N 90 6 0 
N 4 10 0 
N 2 20 0 
N 88 88 0 
N 14 10 0 
N 90 35 0 
N 71 96 0 
N 81 5 0 
N 50 66 0 
N 12 91 0 
N 93 17 0 
N 65 87 0 
N 88 84 0 
N 34 35 0 
N 90 11 0 
N 76 48 0 
N 21 20 0 
N 58 40 0 
N 80 56 0 
N 80 22 0 
N 98 40 0 
N 3 6 0 
N 26 76 0 
N 11 53 0 
N 63 13 0 
N 99 58 0 
N 98 4 0 
N 89 48 0 
N 59 42 0 
N 20 37 0 
N 2 69 0 
N 26 37 0 
N 16 99 0 
N 79 46 0 
N 32 63 0 
N 12 79 0 
N 73 10 0 
N 33 19 0 
N 17 76 0 
N 12 26 0 
N 24 79 0 
N 47 55 0 
N 57 1 0 
N 10 69 0 
N 73 61 0 
N 12 6 0 
N 61 93 0 
N 82 87 0 
N 25 69 0 
N 10 65 0 
N 88 36 0 
N 25 4 0 
N 52 40 0 
N 8 53 0 
N 28 63 0 
N 37 74 0 
N 12 54 0 
N 74 18 0 
N 8 64 0 
N 41 2 0 
N 73 35 0 
N 1 3 0 
N 37 25 0 
N 45 38 0 
N 54 49 0 
N 60 24 0 
N 8 45 0 
N 99 82 0 
N 94 79 0 
N 98 92 0 
N 49 93 0 
N 50 20 0 
N 68 24 0 
N 70 30 0 
N 62 88 0 
N 66 84 0 
N 66 48 0 
N 19 94 0 
N 65 39 0 
N 38 2 0 
N 27 85 0 
N 50 48 0 
N 93 75 0 
N 54 33 0 
N 8 17 0 
N 22 52 0 
N 62 24 0 
N 72 77 0 
N 50 86 0 
N 19 90 0 
N 98 8 0 
N 62 12 0 
N 41 54 0 
N 4 33 0 
N 75 16 0 
N 41 89 0 
N 19 60 0 
N 23 2 0 
N 67 82 0 
N 37 41 0 
N 50 52 0 
N 36 74 0 
N 5 56 0 
N 84 78 0 
N 27 92 0 
N 94 47 0 
N 90 74 0 
N 96 2 0 
N 57 55 0 
N 75 95 0 
N 57 16 0 
N 47 94 0 
N 37 8 0 
N 14 26 0 
N 5 95 0 
N 80 47 0 
N 46 58 0 
N 16 1 0 
N 72 49 0 
N 29 68 0 
N 68 25 0 
N 22 43 0 
N 37 53 0 
N 85 2 0 
N 97 93 0 
N 52 98 0 
N 79 92 0 
N 67 14 0 
N 67 56 0 
N 62 51 0 
N 34 50 0 
N 11 87 0 
N 27 33 0 
N 63 49 0 
N 92 67 0 
N 61 72 0 
N 8 96 0 
N 39 31 0 
N 23 26 0 
N 95 59 0 
N 15 5 0 
N 43 99 0 
N 98 72 0 
N 43 77 0 
N 13 44 0 
N 77 39 0 
N 49 70 0 
N 2 43 0 
N 46 90 0 
N 79 98 0 
N 58 42 0 
N 22 62 0 
N 70 59 0 
N 41 97 0 
N 51 63 0 
N 1 2 0 
N 68 3 0 
N 19 76 0 
N 61 47 0 
N 41 3 0 
N 59 40 0 
N 26 64 0 
N 89 24 0 
N 34 65 0 
N 53 99 0 
N 86 98 0 
N 41 31 0 
N 5 96 0 
N 91 77 0 
N 60 2 0 
N 36 53 0 
N 15 2 0 
N 51 13 0 
N 78 78 0 
N 64 69 0 
N 30 22 0 
N 72 31 0 
N 68 36 0 
N 41 26 0 
N 94 39 0 
N 88 85 0 
N 48 99 0 
N 9 96 0 
N 6 41 0 
N 72 79 0 
N 7 11 0 
N 55 22 0 
N 45 1 0 
N 88 60 0 
N 98 0 0 
N 0 32 0 
N 4 85 0 
N 86 36 0 
N 61 34 0 
N 59 47 0 
N 33 20 0 
N 26 78 0 
N 0 88 0 
N 82 16 0 
N 10 77 0 
N 61 63 0 
N 58 17 0 
N 51 42 0 
N 24 84 0 
N 77 29 0 
N 70 3 0 
N 60 55 0 
N 23 24 0 
N 33 68 0 
N 39 90 0 
N 76 57 0 
N 43 45 0 
N 87 40 0 
N 70 83 0 
N 2 51 0 
N 70 99 0 
N 83 50 0 
N 6 37 0 
N 50 98 0 
N 29 88 0 
N 43 53 0 
N 1 67 0 
N 54 5 0 
N 43 78 0 
N 20 74 0 
N 32 51 0 
N 33 78 0 
N 41 44 0 
N 64 9 0 
N 2 35 0 
N 2 44 0 
N 45 99 0 
N 7 43 0 
N 80 26 0 
N 33 49 0 
N 94 5 0 
N 73 26 0 
N 67 67 0 
N 6 65 0 
N 73 36 0 
N 10 93 0 
N 78 77 0 
N 13 39 0 
N 59 35 0 
N 42 33 0 
N 92 53 0 
N 1 22 0 
N 7 30 0 
N 60 91 0 
N 17 81 0 
N 24 18 0 
N 78 50 0 
N 75 87 0 
N 1 68 0 
N 38 60 0 
N 12 81 0 
N 98 53 0 
N 66 92 0 
N 38 36 0 
N 75 18 0 
N 2 66 0 
N 78 60 0 
N 28 16 0 
N 55 62 0 
N 27 2 0 
N 77 98 0 
N 12 11 0 
N 89 74 0 
N 16 60 0 
N 45 14 0 
N 53 30 0 
N 3 3 0 
N 67 62 0 
N 2 0 0 
N 92 80 0 
N 93 98 0 
N 60 81 0 
N 30 93 0 
N 28 44 0 
O 89 8 0 
O 70 71 0 
O 32 30 0 
O 86 61 0 
O 52 14 0 
O 79 5 0 
O 29 94 0 
O 76 99 0 
O 72 97 0 
O 28 35 0 
O 79 77 0 
O 86 99 0 
511
Atoms. Timestep: 18
N 76 50 0 
N 71 1 0 
N 14 0 0 
N 57 14 0 
N 11 50 0 
N 27 47 0 
N 20 89 0 
N 3 51 0 
N 4 37 0 
N 72 5 0 
N 91 51 0 
N 43 12 0 
N 44 32 0 
N 81 74 0 
N 51 14 0 
N 9 98 0 
N 55 74 0 
N 10 33 0 
N 26 82 0 
N 14 72 0 
N 33 52 0 
N 0 84 0 
N 94 29 0 
N 70 70 0 
N 12 60 0 
N 31 65 0 
N 37 1 0 
N 51 44 0 
N 46 80 0 
N 25 60 0 
N 20 81 0 
N 30 69 0 
N 24 43 0 
N 44 76 0 
N 56 5 0 
N 53 48 0 
N 37 68 0 
N 15 66 0 
N 45 63 0 
N 68 54 0 
N 66 95 0 
N 87 48 0 
N 53 86 0 
N 40 15 0 
N 30 93 0 
N 20 23 0 
N 98 74 0 
N 59 99 0 
N 49 47 0 
N 83 70 0 
N 78 80 0 
N 97 2 0 
N 88 82 0 
N 91 73 0 
N 93 41 0 
N 4 1 0 
N 27 6 0 
N 11 45 0 
N 69 60 0 
N 7 54 0 
N 24 47 0 
N 17 62 0 
N 84 45 0 
N 38 28 0 
N 13 63 0 
N 53 14 0 
N 54 59 0 
N 30 30 0 
N 20 74 0 
N 62 53 0 
N 40 19 0 
N 33 85 0 
N 99 9 0 
N 83 13 0 
N 79 33 0 
N 41 1 0 
N 76 30 0 
N 63 35 0 
N 26 10 0 
N 21 22 0 
N 30 50 0 
N 76 76 0 
N 51 7 0 
N 8 39 0 
N 39 45 0 
N 24 59 0 
N 18 67 0 
N 5 56 0 
N 99 14 0 
N 50 13 0 
N 16 31 0 
N 97 11 0 
N 40 28 0 
N 22 68 0 
N 66 32 0 
N 66 50 0 
N 12 18 0 
N 67 89 0 
N 30 64 0 
N 49 59 0 
N 47 9 0 
N 33 19 0 
N 49 27 0 
N 70 72 0 
N 18 43 0 
N 74 77 0 
N 45 5 0 
N 97 59 0 
N 40 36 0 
N 30 21 0 
N 56 76 0 
N 34 53 0 
N 20 17 0 
N 8 8 0 
N 32 44 0 
N 57 29 0 
N 81 22 0 
N 23 49 0 
N 90 33 0 
N 7 31 0 
N 13 74 0 
N 86 4 0 
N 58 50 0 
N 8 17 0 
N 30 71 0 
N 24 34 0 
N 51 16 0 
N 8 28 0 
N 40 7 0 
N 99 41 0 
N 87 61 0 
N 63 81 0 
N 8 12 0 
N 11 31 0 
N 35 66 0 
N 16 34 0 
N 28 79 0 
N 5 42 0 
N 75 52 0 
N 43 0 0 
N 15 60 0 
N 37 30 0 
N 15 16 0 
N 35 93 0 
N 54 29 0 
N 81 27 0 
N 89 43 0 
N 52 88 0 
N 95 9 0 
N 5 10 0 
N 89 9 0 
N 0 48 0 
N 41 47 0 
N 40 53 0 
N 91 91 0 
N 41 49 0 
N 58 1 0 
N 87 26 0 
N 20 45 0 
N 85 86 0 
N 50 73 0 
N 58 15 0 
N 56 70 0 
N 6 75 0 
N 80 28 0 
N 96 94 0 
N 59 67 0 
N 58 90 0 
N 9 94 0 
N 51 32 0 
N 44 4 0 
N 57 86 0 
N 25 61 0 
N 99 21 0 
N 47 69 0 
N 98 96 0 
N 17 80 0 
N 55 18 0 
N 55 11 0 
N 76 17 0 
N 11 60 0 
N 9 20 0 
N 19 3 0 
N 22 13 0 
N 38 52 0 
N 82 47 0 
N 84 58 0 
N 97 20 0 
N 1 34 0 
N 90 56 0 
N 83 75 0 
N 19 21 0 
N 37 64 0 
N 3 79 0 
N 96 73 0 
N 2 54 0 
N 38 7 0 
N 60 58 0 
N 37 23 0 
N 58 62 0 
N 98 98 0 
N 69 57 0 
N 76 15 0 
N 73 38 0 
N 69 46 0 
N 53 62 0 
N 5 83 0 
N 32 29 0 
N 45 70 0 
N 35 15 0 
N 37 39 0 
N 11 82 0 
N 92 65 0 
N 82 46 0 
N 14 33 0 
N 76 59 0 
N 0 46 0 
N 79 17 0 
N 1 40 0 
N 53 47 0 
N 46 30 0 
N 90 7 0 
N 4 9 0 
N 1 20 0 
N 88 87 0 
N 13 10 0 
N 91 35 0 
N 72 96 0 
N 80 5 0 
N 49 66 0 
N 12 90 0 
N 93 18 0 
N 65 86 0 
N 87 84 0 
N 35 35 0 
N 89 11 0 
N 76 47 0 
N 21 21 0 
N 58 39 0 
N 81 56 0 
N 80 21 0 
N 97 40 0 
N 4 6 0 
N 26 75 0 
N 10 53 0 
N 64 13 0 
N 0 58 0 
N 99 4 0 
N 89 49 0 
N 59 43 0 
N 19 37 0 
N 3 69 0 
N 26 36 0 
N 15 99 0 
N 79 47 0 
N 32 62 0 
N 13 79 0 
N 73 9 0 
N 33 20 0 
N 18 76 0 
N 12 25 0 
N 23 79 0 
N 47 56 0 
N 57 2 0 
N 10 68 0 
N 73 62 0 
N 13 6 0 
N 61 94 0 
N 82 88 0 
N 25 70 0 
N 10 64 0 
N 89 36 0 
N 25 5 0 
N 52 41 0 
N 8 52 0 
N 28 62 0 
N 37 75 0 
N 12 53 0 
N 74 17 0 
N 8 65 0 
N 41 3 0 
N 73 34 0 
N 0 3 0 
N 37 24 0 
N 45 37 0 
N 53 49 0 
N 60 25 0 
N 8 44 0 
N 98 82 0 
N 93 79 0 
N 98 91 0 
N 49 94 0 
N 50 21 0 
N 69 24 0 
N 69 30 0 
N 62 89 0 
N 66 83 0 
N 67 48 0 
N 18 94 0 
N 66 39 0 
N 38 3 0 
N 26 85 0 
N 49 48 0 
N 94 75 0 
N 53 33 0 
N 9 17 0 
N 22 51 0 
N 62 25 0 
N 72 76 0 
N 49 86 0 
N 20 90 0 
N 98 7 0 
N 62 13 0 
N 40 54 0 
N 5 33 0 
N 74 16 0 
N 41 90 0 
N 18 60 0 
N 24 2 0 
N 67 83 0 
N 37 42 0 
N 50 51 0 
N 36 73 0 
N 5 55 0 
N 84 79 0 
N 28 92 0 
N 93 47 0 
N 89 74 0 
N 96 3 0 
N 57 56 0 
N 75 96 0 
N 56 16 0 
N 47 93 0 
N 37 7 0 
N 13 26 0 
N 5 96 0 
N 80 48 0 
N 47 58 0 
N 16 0 0 
N 71 49 0 
N 29 67 0 
N 67 25 0 
N 22 44 0 
N 38 53 0 
N 86 2 0 
N 97 92 0 
N 52 99 0 
N 79 91 0 
N 67 15 0 
N 68 56 0 
N 62 50 0 
N 35 50 0 
N 10 87 0 
N 28 33 0 
N 62 49 0 
N 92 66 0 
N 61 73 0 
N 8 95 0 
N 39 32 0 
N 23 27 0 
N 94 59 0 
N 15 4 0 
N 43 98 0 
N 99 72 0 
N 42 77 0 
N 13 43 0 
N 77 38 0 
N 48 70 0 
N 2 44 0 
N 46 91 0 
N 78 98 0 
N 58 43 0 
N 22 61 0 
N 69 59 0 
N 42 97 0 
N 52 63 0 
N 0 2 0 
N 67 3 0 
N 19 77 0 
N 61 48 0 
N 41 4 0 
N 60 40 0 
N 26 65 0 
N 89 25 0 
N 33 65 0 
N 54 99 0 
N 86 97 0 
N 41 30 0 
N 4 96 0 
N 90 77 0 
N 60 1 0 
N 36 54 0 
N 15 3 0 
N 52 13 0 
N 78 77 0 
N 64 70 0 
N 29 22 0 
N 72 32 0 
N 67 36 0 
N 40 26 0 
N 95 39 0 
N 88 86 0 
N 47 99 0 
N 9 97 0 
N 7 41 0 
N 72 80 0 
N 8 11 0 
N 55 23 0 
N 45 2 0 
N 87 60 0 
N 98 1 0 
N 0 31 0 
N 4 86 0 
N 85 36 0 
N 62 34 0 
N 60 47 0 
N 32 20 0 
N 27 78 0 
N 99 88 0 
N 83 16 0 
N 9 77 0 
N 61 64 0 
N 58 18 0 
N 52 42 0 
N 24 83 0 
N 78 29 0 
N 70 4 0 
N 60 56 0 
N 24 24 0 
N 32 68 0 
N 40 90 0 
N 77 57 0 
N 42 45 0 
N 87 39 0 
N 71 83 0 
N 2 50 0 
N 70 98 0 
N 83 49 0 
N 7 37 0 
N 49 98 0 
N 29 89 0 
N 44 53 0 
N 0 67 0 
N 54 4 0 
N 43 79 0 
N 19 74 0 
N 32 52 0 
N 33 77 0 
N 41 45 0 
N 63 9 0 
N 2 36 0 
N 3 44 0 
N 44 99 0 
N 7 42 0 
N 81 26 0 
N 34 49 0 
N 94 4 0 
N 73 25 0 
N 68 67 0 
N 5 65 0 
N 73 37 0 
N 10 94 0 
N 79 77 0 
N 12 39 0 
N 59 34 0 
N 43 33 0 
N 91 53 0 
N 2 22 0 
N 8 30 0 
N 60 90 0 
N 17 82 0 
N 23 18 0 
N 79 50 0 
N 75 88 0 
N 0 68 0 
N 39 60 0 
N 13 81 0 
N 97 53 0 
N 67 92 0 
N 39 36 0 
N 76 18 0 
N 1 66 0 
N 78 61 0 
N 28 15 0 
N 54 62 0 
N 27 1 0 
N 76 98 0 
N 13 11 0 
N 88 74 0 
N 16 61 0 
N 44 14 0 
N 53 29 0 
N 4 3 0 
N 68 62 0 
N 1 0 0 
N 92 79 0 
N 93 99 0 
N 61 81 0 
N 29 93 0 
N 27 44 0 
O 88 8 0 
O 71 71 0 
O 31 30 0 
O 85 61 0 
O 52 15 0 
O 78 5 0 
O 28 94 0 
O 75 99 0 
O 73 97 0 
O 29 35 0 
O 87 99 0 
510
Atoms. Timestep: 19
N 75 50 0 
N 71 2 0 
N 13 0 0 
N 56 14 0 
N 11 49 0 
N 26 47 0 
N 20 88 0 
N 4 51 0 
N 5 37 0 
N 72 6 0 
N 91 50 0 
N 44 12 0 
N 45 32 0 
N 81 73 0 
N 51 14 0 
N 8 98 0 
N 55 73 0 
N 11 33 0 
N 27 82 0 
N 13 72 0 
N 33 51 0 
N 99 84 0 
N 95 29 0 
N 70 71 0 
N 11 60 0 
N 30 65 0 
N 37 0 0 
N 52 44 0 
N 46 79 0 
N 25 61 0 
N 20 82 0 
N 30 68 0 
N 24 42 0 
N 45 76 0 
N 56 4 0 
N 53 49 0 
N 37 67 0 
N 16 66 0 
N 45 64 0 
N 68 53 0 
N 66 96 0 
N 87 49 0 
N 53 87 0 
N 41 15 0 
N 29 93 0 
N 20 24 0 
N 99 74 0 
N 59 98 0 
N 49 48 0 
N 83 69 0 
N 77 80 0 
N 97 3 0 
N 88 83 0 
N 90 73 0 
N 92 41 0 
N 4 0 0 
N 28 6 0 
N 11 46 0 
N 68 60 0 
N 7 53 0 
N 25 47 0 
N 17 61 0 
N 84 44 0 
N 39 28 0 
N 12 63 0 
N 53 13 0 
N 55 59 0 
N 31 30 0 
N 19 74 0 
N 62 54 0 
N 40 20 0 
N 32 85 0 
N 0 9 0 
N 83 12 0 
N 80 33 0 
N 41 2 0 
N 75 30 0 
N 64 35 0 
N 27 10 0 
N 22 22 0 
N 31 50 0 
N 77 76 0 
N 52 7 0 
N 8 40 0 
N 40 45 0 
N 23 59 0 
N 18 66 0 
N 5 55 0 
N 99 15 0 
N 50 14 0 
N 16 32 0 
N 96 11 0 
N 41 28 0 
N 21 68 0 
N 66 33 0 
N 67 50 0 
N 12 19 0 
N 67 90 0 
N 29 64 0 
N 49 58 0 
N 46 9 0 
N 34 19 0 
N 49 28 0 
N 71 72 0 
N 18 44 0 
N 73 77 0 
N 44 5 0 
N 96 59 0 
N 40 35 0 
N 30 22 0 
N 55 76 0 
N 33 53 0 
N 21 17 0 
N 9 8 0 
N 32 43 0 
N 57 30 0 
N 81 21 0 
N 23 48 0 
N 91 33 0 
N 7 32 0 
N 13 75 0 
N 86 5 0 
N 57 50 0 
N 8 18 0 
N 29 71 0 
N 24 35 0 
N 51 15 0 
N 7 28 0 
N 40 6 0 
N 98 41 0 
N 86 61 0 
N 63 82 0 
N 8 11 0 
N 10 31 0 
N 35 67 0 
N 17 34 0 
N 27 79 0 
N 4 42 0 
N 76 52 0 
N 43 1 0 
N 15 59 0 
N 37 31 0 
N 14 16 0 
N 35 92 0 
N 54 30 0 
N 81 28 0 
N 89 42 0 
N 51 88 0 
N 95 8 0 
N 6 10 0 
N 89 8 0 
N 0 49 0 
N 41 48 0 
N 40 54 0 
N 91 92 0 
N 40 49 0 
N 57 1 0 
N 87 25 0 
N 21 45 0 
N 86 86 0 
N 50 74 0 
N 57 15 0 
N 56 71 0 
N 6 74 0 
N 80 29 0 
N 96 95 0 
N 60 67 0 
N 57 90 0 
N 9 93 0 
N 51 31 0 
N 45 4 0 
N 57 87 0 
N 24 61 0 
N 98 21 0 
N 47 70 0 
N 97 96 0 
N 17 81 0 
N 55 19 0 
N 55 10 0 
N 76 16 0 
N 11 61 0 
N 8 20 0 
N 18 3 0 
N 23 13 0 
N 38 51 0 
N 82 48 0 
N 84 59 0 
N 97 21 0 
N 1 33 0 
N 90 55 0 
N 82 75 0 
N 20 21 0 
N 36 64 0 
N 2 79 0 
N 95 73 0 
N 1 54 0 
N 38 8 0 
N 60 59 0 
N 38 23 0 
N 59 62 0 
N 98 99 0 
N 70 57 0 
N 77 15 0 
N 73 37 0 
N 68 46 0 
N 52 62 0 
N 5 84 0 
N 31 29 0 
N 45 71 0 
N 34 15 0 
N 37 40 0 
N 11 83 0 
N 92 66 0 
N 81 46 0 
N 13 33 0 
N 76 58 0 
N 99 46 0 
N 80 17 0 
N 1 39 0 
N 54 47 0 
N 47 30 0 
N 89 7 0 
N 4 10 0 
N 0 20 0 
N 88 88 0 
N 13 11 0 
N 92 35 0 
N 73 96 0 
N 79 5 0 
N 48 66 0 
N 12 91 0 
N 93 17 0 
N 64 86 0 
N 87 85 0 
N 34 35 0 
N 89 10 0 
N 76 46 0 
N 21 20 0 
N 58 40 0 
N 80 56 0 
N 80 22 0 
N 96 40 0 
N 3 6 0 
N 26 76 0 
N 10 54 0 
N 64 14 0 
N 1 58 0 
N 0 4 0 
N 90 49 0 
N 58 43 0 
N 19 38 0 
N 3 70 0 
N 27 36 0 
N 14 99 0 
N 79 48 0 
N 32 61 0 
N 13 78 0 
N 72 9 0 
N 32 20 0 
N 17 76 0 
N 12 24 0 
N 22 79 0 
N 46 56 0 
N 56 2 0 
N 11 68 0 
N 74 62 0 
N 14 6 0 
N 60 94 0 
N 82 87 0 
N 25 69 0 
N 11 64 0 
N 89 37 0 
N 25 6 0 
N 51 41 0 
N 7 52 0 
N 29 62 0 
N 36 75 0 
N 12 54 0 
N 73 17 0 
N 8 66 0 
N 41 4 0 
N 73 33 0 
N 0 2 0 
N 37 25 0 
N 46 37 0 
N 54 49 0 
N 60 24 0 
N 8 43 0 
N 99 82 0 
N 92 79 0 
N 99 91 0 
N 49 93 0 
N 50 20 0 
N 70 24 0 
N 69 29 0 
N 62 90 0 
N 67 83 0 
N 66 48 0 
N 19 94 0 
N 65 39 0 
N 37 3 0 
N 26 84 0 
N 48 48 0 
N 93 75 0 
N 53 32 0 
N 9 18 0 
N 22 52 0 
N 62 24 0 
N 72 77 0 
N 50 86 0 
N 19 90 0 
N 98 8 0 
N 62 14 0 
N 41 54 0 
N 6 33 0 
N 75 16 0 
N 42 90 0 
N 19 60 0 
N 23 2 0 
N 67 84 0 
N 37 43 0 
N 49 51 0 
N 36 74 0 
N 4 55 0 
N 83 79 0 
N 28 92 0 
N 93 48 0 
N 89 73 0 
N 95 3 0 
N 56 56 0 
N 75 97 0 
N 56 15 0 
N 48 93 0 
N 37 6 0 
N 12 26 0 
N 5 97 0 
N 81 48 0 
N 47 57 0 
N 17 0 0 
N 72 49 0 
N 29 68 0 
N 66 25 0 
N 23 44 0 
N 37 53 0 
N 86 3 0 
N 97 91 0 
N 52 0 0 
N 79 92 0 
N 67 14 0 
N 68 57 0 
N 61 50 0 
N 35 51 0 
N 9 87 0 
N 29 33 0 
N 63 49 0 
N 91 66 0 
N 62 73 0 
N 7 95 0 
N 39 31 0 
N 23 26 0 
N 93 59 0 
N 15 3 0 
N 43 99 0 
N 99 71 0 
N 42 78 0 
N 14 43 0 
N 77 39 0 
N 49 70 0 
N 2 43 0 
N 47 91 0 
N 78 99 0 
N 57 43 0 
N 21 61 0 
N 68 59 0 
N 42 96 0 
N 52 64 0 
N 0 1 0 
N 67 4 0 
N 18 77 0 
N 61 49 0 
N 42 4 0 
N 61 40 0 
N 25 65 0 
N 89 26 0 
N 33 64 0 
N 54 98 0 
N 87 97 0 
N 41 31 0 
N 4 97 0 
N 89 77 0 
N 60 0 0 
N 36 55 0 
N 16 3 0 
N 52 14 0 
N 77 77 0 
N 63 70 0 
N 29 23 0 
N 72 33 0 
N 67 37 0 
N 40 27 0 
N 95 38 0 
N 89 86 0 
N 47 0 0 
N 8 97 0 
N 7 40 0 
N 71 80 0 
N 8 10 0 
N 55 22 0 
N 44 2 0 
N 86 60 0 
N 98 2 0 
N 1 31 0 
N 4 87 0 
N 86 36 0 
N 62 33 0 
N 59 47 0 
N 32 21 0 
N 26 78 0 
N 99 87 0 
N 84 16 0 
N 9 76 0 
N 61 65 0 
N 59 18 0 
N 52 43 0 
N 24 84 0 
N 79 29 0 
N 69 4 0 
N 60 55 0 
N 23 24 0 
N 31 68 0 
N 39 90 0 
N 76 57 0 
N 41 45 0 
N 87 40 0 
N 70 83 0 
N 1 50 0 
N 71 98 0 
N 83 48 0 
N 7 36 0 
N 48 98 0 
N 30 89 0 
N 44 54 0 
N 0 66 0 
N 53 4 0 
N 43 80 0 
N 19 75 0 
N 31 52 0 
N 34 77 0 
N 41 44 0 
N 63 8 0 
N 3 36 0 
N 3 43 0 
N 44 98 0 
N 7 43 0 
N 81 25 0 
N 34 50 0 
N 94 3 0 
N 73 24 0 
N 68 68 0 
N 5 64 0 
N 73 36 0 
N 10 95 0 
N 79 78 0 
N 12 40 0 
N 58 34 0 
N 43 34 0 
N 91 54 0 
N 1 22 0 
N 7 30 0 
N 59 90 0 
N 18 82 0 
N 23 19 0 
N 79 49 0 
N 74 88 0 
N 1 68 0 
N 38 60 0 
N 12 81 0 
N 97 52 0 
N 66 92 0 
N 39 35 0 
N 76 19 0 
N 1 65 0 
N 77 61 0 
N 28 14 0 
N 54 63 0 
N 27 0 0 
N 76 99 0 
N 13 12 0 
N 87 74 0 
N 16 62 0 
N 44 13 0 
N 53 28 0 
N 4 2 0 
N 67 62 0 
N 1 99 0 
N 92 78 0 
N 92 99 0 
N 62 81 0 
N 28 93 0 
N 26 44 0 
O 88 7 0 
O 71 70 0 
O 85 60 0 
O 52 16 0 
O 78 4 0 
O 28 95 0 
O 75 0 0 
O 73 98 0 
O 30 35 0 
O 88 99 0 
508
Atoms. Timestep: 20
N 75 51 0 
N 72 2 0 
N 13 1 0 
N 55 14 0 
N 12 49 0 
N 25 47 0 
N 21 88 0 
N 4 50 0 
N 5 36 0 
N 72 5 0 
N 90 50 0 
N 44 11 0 
N 46 32 0 
N 81 74 0 
N 51 15 0 
N 7 98 0 
N 56 73 0 
N 11 34 0 
N 28 82 0 
N 13 71 0 
N 32 51 0 
N 99 83 0 
N 94 29 0 
N 70 70 0 
N 11 59 0 
N 31 65 0 
N 38 0 0 
N 52 43 0 
N 47 79 0 
N 25 60 0 
N 19 82 0 
N 30 69 0 
N 24 41 0 
N 44 76 0 
N 55 4 0 
N 53 48 0 
N 36 67 0 
N 16 67 0 
N 44 64 0 
N 68 54 0 
N 66 97 0 
N 88 49 0 
N 54 87 0 
N 40 15 0 
N 29 94 0 
N 19 24 0 
N 99 73 0 
N 59 99 0 
N 50 48 0 
N 84 69 0 
N 76 80 0 
N 97 4 0 
N 88 84 0 
N 89 73 0 
N 93 41 0 
N 5 0 0 
N 27 6 0 
N 12 46 0 
N 68 59 0 
N 7 52 0 
N 25 48 0 
N 16 61 0 
N 84 43 0 
N 39 29 0 
N 12 64 0 
N 53 14 0 
N 54 59 0 
N 31 31 0 
N 20 74 0 
N 62 55 0 
N 40 19 0 
N 31 85 0 
N 0 8 0 
N 83 11 0 
N 80 32 0 
N 42 2 0 
N 75 31 0 
N 64 36 0 
N 27 9 0 
N 22 21 0 
N 31 51 0 
N 78 76 0 
N 52 6 0 
N 9 40 0 
N 39 45 0 
N 24 59 0 
N 18 65 0 
N 5 54 0 
N 98 15 0 
N 50 15 0 
N 15 32 0 
N 97 11 0 
N 41 27 0 
N 22 68 0 
N 65 33 0 
N 66 50 0 
N 13 19 0 
N 66 90 0 
N 29 63 0 
N 48 58 0 
N 46 10 0 
N 34 20 0 
N 49 27 0 
N 71 71 0 
N 19 44 0 
N 74 77 0 
N 44 6 0 
N 95 59 0 
N 41 35 0 
N 31 22 0 
N 55 75 0 
N 34 53 0 
N 21 18 0 
N 10 8 0 
N 33 43 0 
N 58 30 0 
N 82 21 0 
N 24 48 0 
N 90 33 0 
N 7 31 0 
N 12 75 0 
N 87 5 0 
N 57 51 0 
N 9 18 0 
N 29 72 0 
N 24 34 0 
N 51 16 0 
N 7 27 0 
N 39 6 0 
N 97 41 0 
N 86 60 0 
N 62 82 0 
N 8 10 0 
N 10 30 0 
N 35 66 0 
N 17 33 0 
N 26 79 0 
N 4 41 0 
N 76 51 0 
N 44 1 0 
N 15 60 0 
N 36 31 0 
N 13 16 0 
N 34 92 0 
N 55 30 0 
N 81 27 0 
N 90 42 0 
N 50 88 0 
N 95 7 0 
N 5 10 0 
N 89 7 0 
N 0 50 0 
N 41 49 0 
N 39 54 0 
N 91 91 0 
N 39 49 0 
N 57 2 0 
N 87 26 0 
N 22 45 0 
N 85 86 0 
N 50 75 0 
N 57 14 0 
N 55 71 0 
N 6 75 0 
N 79 29 0 
N 97 95 0 
N 60 68 0 
N 57 89 0 
N 10 93 0 
N 51 30 0 
N 44 4 0 
N 57 88 0 
N 24 60 0 
N 98 20 0 
N 46 70 0 
N 96 96 0 
N 18 81 0 
N 55 20 0 
N 56 10 0 
N 75 16 0 
N 10 61 0 
N 7 20 0 
N 19 3 0 
N 23 12 0 
N 38 50 0 
N 83 48 0 
N 83 59 0 
N 96 21 0 
N 2 33 0 
N 90 54 0 
N 81 75 0 
N 20 20 0 
N 36 65 0 
N 1 79 0 
N 96 73 0 
N 1 55 0 
N 37 8 0 
N 59 59 0 
N 37 23 0 
N 58 62 0 
N 98 98 0 
N 70 56 0 
N 76 15 0 
N 74 37 0 
N 69 46 0 
N 53 62 0 
N 6 84 0 
N 31 28 0 
N 45 70 0 
N 34 16 0 
N 36 40 0 
N 11 84 0 
N 92 65 0 
N 80 46 0 
N 14 33 0 
N 76 59 0 
N 98 46 0 
N 80 18 0 
N 1 40 0 
N 54 46 0 
N 48 30 0 
N 88 7 0 
N 4 9 0 
N 99 20 0 
N 88 89 0 
N 14 11 0 
N 92 34 0 
N 73 97 0 
N 78 5 0 
N 47 66 0 
N 12 92 0 
N 92 17 0 
N 65 86 0 
N 86 85 0 
N 33 35 0 
N 88 10 0 
N 75 46 0 
N 21 19 0 
N 58 41 0 
N 80 55 0 
N 81 22 0 
N 95 40 0 
N 3 5 0 
N 26 75 0 
N 10 55 0 
N 64 13 0 
N 0 58 0 
N 1 4 0 
N 91 49 0 
N 57 43 0 
N 20 38 0 
N 4 70 0 
N 28 36 0 
N 14 0 0 
N 79 47 0 
N 33 61 0 
N 13 79 0 
N 72 8 0 
N 32 19 0 
N 16 76 0 
N 13 24 0 
N 21 79 0 
N 46 55 0 
N 56 1 0 
N 11 67 0 
N 73 62 0 
N 14 5 0 
N 60 95 0 
N 82 88 0 
N 25 70 0 
N 11 65 0 
N 89 36 0 
N 26 6 0 
N 52 41 0 
N 8 52 0 
N 29 61 0 
N 37 75 0 
N 11 54 0 
N 72 17 0 
N 8 65 0 
N 41 3 0 
N 73 34 0 
N 99 2 0 
N 37 26 0 
N 47 37 0 
N 54 48 0 
N 61 24 0 
N 9 43 0 
N 98 82 0 
N 93 79 0 
N 0 91 0 
N 50 93 0 
N 50 21 0 
N 70 25 0 
N 70 29 0 
N 61 90 0 
N 67 84 0 
N 65 48 0 
N 18 94 0 
N 64 39 0 
N 36 3 0 
N 25 84 0 
N 48 47 0 
N 92 75 0 
N 52 32 0 
N 9 19 0 
N 23 52 0 
N 62 23 0 
N 72 78 0 
N 50 87 0 
N 19 89 0 
N 97 8 0 
N 61 14 0 
N 41 55 0 
N 6 32 0 
N 75 17 0 
N 43 90 0 
N 18 60 0 
N 23 1 0 
N 68 84 0 
N 38 43 0 
N 50 51 0 
N 35 74 0 
N 4 56 0 
N 83 80 0 
N 28 93 0 
N 93 49 0 
N 89 74 0 
N 95 2 0 
N 55 56 0 
N 75 96 0 
N 55 15 0 
N 47 93 0 
N 36 6 0 
N 13 26 0 
N 5 96 0 
N 80 48 0 
N 47 56 0 
N 17 99 0 
N 72 48 0 
N 29 69 0 
N 66 26 0 
N 22 44 0 
N 38 53 0 
N 86 4 0 
N 98 91 0 
N 51 0 0 
N 79 91 0 
N 67 13 0 
N 68 56 0 
N 62 50 0 
N 35 50 0 
N 10 87 0 
N 29 34 0 
N 64 49 0 
N 90 66 0 
N 61 73 0 
N 6 95 0 
N 38 31 0 
N 22 26 0 
N 93 60 0 
N 16 3 0 
N 43 0 0 
N 0 71 0 
N 42 77 0 
N 14 42 0 
N 78 39 0 
N 49 69 0 
N 3 43 0 
N 47 92 0 
N 78 98 0 
N 57 44 0 
N 20 61 0 
N 68 58 0 
N 42 97 0 
N 52 63 0 
N 1 1 0 
N 67 5 0 
N 18 78 0 
N 62 49 0 
N 42 5 0 
N 61 41 0 
N 25 64 0 
N 89 27 0 
N 34 64 0 
N 54 99 0 
N 87 98 0 
N 42 31 0 
N 4 96 0 
N 89 76 0 
N 60 99 0 
N 37 55 0 
N 17 3 0 
N 52 15 0 
N 77 78 0 
N 63 71 0 
N 29 22 0 
N 72 34 0 
N 67 38 0 
N 40 28 0 
N 95 37 0 
N 88 86 0 
N 48 0 0 
N 7 97 0 
N 6 40 0 
N 71 79 0 
N 8 9 0 
N 55 23 0 
N 44 3 0 
N 85 60 0 
N 97 2 0 
N 1 30 0 
N 3 87 0 
N 86 35 0 
N 61 33 0 
N 59 46 0 
N 32 22 0 
N 25 78 0 
N 99 88 0 
N 84 15 0 
N 8 76 0 
N 60 65 0 
N 60 18 0 
N 52 42 0 
N 24 83 0 
N 79 30 0 
N 70 4 0 
N 60 54 0 
N 23 25 0 
N 32 68 0 
N 39 89 0 
N 76 56 0 
N 41 44 0 
N 88 40 0 
N 70 82 0 
N 1 49 0 
N 72 98 0 
N 83 47 0 
N 7 37 0 
N 49 98 0 
N 30 90 0 
N 45 54 0 
N 99 66 0 
N 53 3 0 
N 44 80 0 
N 18 75 0 
N 32 52 0 
N 34 76 0 
N 42 44 0 
N 62 8 0 
N 4 36 0 
N 4 43 0 
N 44 97 0 
N 7 42 0 
N 80 25 0 
N 33 50 0 
N 94 4 0 
N 72 24 0 
N 69 68 0 
N 5 63 0 
N 74 36 0 
N 10 96 0 
N 79 79 0 
N 12 39 0 
N 58 35 0 
N 43 33 0 
N 91 55 0 
N 2 22 0 
N 6 30 0 
N 59 89 0 
N 17 82 0 
N 23 20 0 
N 78 49 0 
N 75 88 0 
N 0 68 0 
N 37 60 0 
N 12 80 0 
N 98 52 0 
N 67 92 0 
N 39 36 0 
N 75 19 0 
N 2 65 0 
N 77 62 0 
N 28 15 0 
N 54 62 0 
N 27 1 0 
N 76 0 0 
N 13 13 0 
N 86 74 0 
N 17 62 0 
N 45 13 0 
N 53 29 0 
N 3 2 0 
N 66 62 0 
N 0 99 0 
N 91 78 0 
N 91 99 0 
N 63 81 0 
N 28 94 0 
N 27 44 0 
O 72 70 0 
O 52 17 0 
O 78 3 0 
O 28 96 0 
O 75 99 0 
O 73 99 0 
O 31 35 0 
O 88 0 0 
508
Atoms. Timestep: 21
N 75 52 0 
N 73 2 0 
N 12 1 0 
N 55 13 0 
N 12 50 0 
N 26 47 0 
N 21 87 0 
N 4 49 0 
N 4 36 0 
N 71 5 0 
N 89 50 0 
N 44 10 0 
N 46 33 0 
N 80 74 0 
N 52 15 0 
N 8 98 0 
N 56 74 0 
N 11 35 0 
N 28 81 0 
N 14 71 0 
N 32 52 0 
N 99 84 0 
N 95 29 0 
N 71 70 0 
N 11 58 0 
N 31 64 0 
N 39 0 0 
N 52 44 0 
N 48 79 0 
N 26 60 0 
N 19 81 0 
N 30 68 0 
N 25 41 0 
N 45 76 0 
N 54 4 0 
N 52 48 0 
N 35 67 0 
N 15 67 0 
N 43 64 0 
N 69 54 0 
N 66 98 0 
N 87 49 0 
N 55 87 0 
N 39 15 0 
N 29 95 0 
N 20 24 0 
N 0 73 0 
N 58 99 0 
N 49 48 0 
N 84 70 0 
N 76 81 0 
N 97 5 0 
N 88 85 0 
N 89 74 0 
N 94 41 0 
N 4 0 0 
N 26 6 0 
N 12 47 0 
N 69 59 0 
N 8 52 0 
N 26 48 0 
N 17 61 0 
N 84 44 0 
N 39 30 0 
N 12 65 0 
N 53 15 0 
N 54 58 0 
N 31 32 0 
N 20 75 0 
N 62 56 0 
N 41 19 0 
N 30 85 0 
N 1 8 0 
N 84 11 0 
N 80 31 0 
N 41 2 0 
N 75 30 0 
N 64 37 0 
N 28 9 0 
N 22 20 0 
N 31 50 0 
N 78 77 0 
N 53 6 0 
N 9 41 0 
N 39 46 0 
N 25 59 0 
N 17 65 0 
N 5 55 0 
N 98 14 0 
N 50 16 0 
N 14 32 0 
N 98 11 0 
N 40 27 0 
N 21 68 0 
N 64 33 0 
N 66 51 0 
N 13 20 0 
N 66 91 0 
N 29 62 0 
N 48 59 0 
N 46 9 0 
N 34 21 0 
N 48 27 0 
N 72 71 0 
N 19 45 0 
N 75 77 0 
N 44 7 0 
N 95 58 0 
N 41 36 0 
N 30 22 0 
N 54 75 0 
N 34 54 0 
N 20 18 0 
N 11 8 0 
N 32 43 0 
N 57 30 0 
N 83 21 0 
N 24 47 0 
N 90 34 0 
N 7 32 0 
N 12 74 0 
N 87 6 0 
N 56 51 0 
N 8 18 0 
N 28 72 0 
N 23 34 0 
N 51 17 0 
N 6 27 0 
N 39 5 0 
N 96 41 0 
N 87 60 0 
N 61 82 0 
N 8 11 0 
N 10 29 0 
N 36 66 0 
N 18 33 0 
N 27 79 0 
N 5 41 0 
N 77 51 0 
N 45 1 0 
N 14 60 0 
N 35 31 0 
N 14 16 0 
N 33 92 0 
N 55 29 0 
N 81 28 0 
N 89 42 0 
N 49 88 0 
N 95 6 0 
N 4 10 0 
N 88 7 0 
N 0 51 0 
N 41 50 0 
N 38 54 0 
N 92 91 0 
N 39 48 0 
N 56 2 0 
N 88 26 0 
N 22 44 0 
N 84 86 0 
N 50 76 0 
N 57 15 0 
N 56 71 0 
N 6 76 0 
N 78 29 0 
N 97 94 0 
N 60 67 0 
N 57 88 0 
N 10 92 0 
N 51 29 0 
N 45 4 0 
N 57 87 0 
N 23 60 0 
N 98 19 0 
N 45 70 0 
N 95 96 0 
N 18 82 0 
N 54 20 0 
N 56 11 0 
N 75 15 0 
N 11 61 0 
N 6 20 0 
N 19 2 0 
N 24 12 0 
N 38 49 0 
N 84 48 0 
N 82 59 0 
N 96 22 0 
N 1 33 0 
N 89 54 0 
N 80 75 0 
N 20 19 0 
N 37 65 0 
N 1 80 0 
N 96 74 0 
N 1 54 0 
N 37 7 0 
N 60 59 0 
N 36 23 0 
N 58 63 0 
N 98 99 0 
N 70 55 0 
N 76 16 0 
N 73 37 0 
N 68 46 0 
N 52 62 0 
N 7 84 0 
N 31 27 0 
N 45 71 0 
N 34 15 0 
N 35 40 0 
N 11 85 0 
N 92 64 0 
N 79 46 0 
N 13 33 0 
N 76 60 0 
N 97 46 0 
N 80 19 0 
N 2 40 0 
N 54 45 0 
N 47 30 0 
N 87 7 0 
N 3 9 0 
N 0 20 0 
N 87 89 0 
N 15 11 0 
N 92 33 0 
N 73 97 0 
N 78 4 0 
N 47 67 0 
N 13 92 0 
N 91 17 0 
N 65 85 0 
N 86 84 0 
N 32 35 0 
N 88 11 0 
N 75 45 0 
N 22 19 0 
N 59 41 0 
N 81 55 0 
N 82 22 0 
N 95 39 0 
N 3 6 0 
N 26 76 0 
N 10 54 0 
N 64 12 0 
N 0 57 0 
N 1 5 0 
N 90 49 0 
N 57 42 0 
N 21 38 0 
N 5 70 0 
N 29 36 0 
N 13 0 0 
N 78 47 0 
N 32 61 0 
N 14 79 0 
N 71 8 0 
N 32 20 0 
N 17 76 0 
N 13 23 0 
N 21 78 0 
N 47 55 0 
N 55 1 0 
N 12 67 0 
N 73 61 0 
N 13 5 0 
N 61 95 0 
N 82 89 0 
N 25 69 0 
N 10 65 0 
N 90 36 0 
N 26 7 0 
N 53 41 0 
N 9 52 0 
N 28 61 0 
N 36 75 0 
N 11 53 0 
N 72 16 0 
N 8 66 0 
N 42 3 0 
N 73 35 0 
N 99 3 0 
N 37 25 0 
N 46 37 0 
N 55 48 0 
N 62 24 0 
N 9 44 0 
N 98 81 0 
N 93 78 0 
N 99 91 0 
N 50 92 0 
N 49 21 0 
N 70 24 0 
N 70 30 0 
N 61 91 0 
N 68 84 0 
N 65 47 0 
N 17 94 0 
N 65 39 0 
N 36 4 0 
N 25 85 0 
N 48 48 0 
N 93 75 0 
N 51 32 0 
N 10 19 0 
N 23 51 0 
N 63 23 0 
N 72 77 0 
N 51 87 0 
N 18 89 0 
N 97 9 0 
N 61 13 0 
N 40 55 0 
N 5 32 0 
N 74 17 0 
N 43 91 0 
N 18 61 0 
N 24 1 0 
N 68 83 0 
N 37 43 0 
N 51 51 0 
N 36 74 0 
N 3 56 0 
N 83 79 0 
N 28 94 0 
N 93 50 0 
N 90 74 0 
N 95 1 0 
N 56 56 0 
N 75 97 0 
N 54 15 0 
N 47 94 0 
N 35 6 0 
N 13 25 0 
N 6 96 0 
N 81 48 0 
N 48 56 0 
N 17 98 0 
N 71 48 0 
N 29 68 0 
N 67 26 0 
N 23 44 0 
N 37 53 0 
N 86 5 0 
N 98 90 0 
N 51 99 0 
N 80 91 0 
N 66 13 0 
N 68 55 0 
N 61 50 0 
N 35 49 0 
N 11 87 0 
N 29 35 0 
N 63 49 0 
N 89 66 0 
N 60 73 0 
N 5 95 0 
N 39 31 0 
N 23 26 0 
N 94 60 0 
N 17 3 0 
N 44 0 0 
N 1 71 0 
N 42 78 0 
N 14 41 0 
N 78 40 0 
N 49 70 0 
N 3 44 0 
N 48 92 0 
N 78 99 0 
N 58 44 0 
N 21 61 0 
N 67 58 0 
N 41 97 0 
N 53 63 0 
N 1 2 0 
N 67 6 0 
N 18 79 0 
N 61 49 0 
N 42 6 0 
N 61 42 0 
N 24 64 0 
N 89 26 0 
N 34 63 0 
N 55 99 0 
N 88 98 0 
N 42 30 0 
N 4 95 0 
N 90 76 0 
N 61 99 0 
N 38 55 0 
N 18 3 0 
N 52 16 0 
N 77 77 0 
N 64 71 0 
N 29 21 0 
N 72 35 0 
N 67 37 0 
N 40 29 0 
N 94 37 0 
N 89 86 0 
N 47 0 0 
N 8 97 0 
N 6 41 0 
N 70 79 0 
N 8 8 0 
N 55 24 0 
N 44 2 0 
N 85 59 0 
N 97 3 0 
N 1 31 0 
N 3 88 0 
N 86 36 0 
N 60 33 0 
N 59 45 0 
N 33 22 0 
N 26 78 0 
N 0 88 0 
N 84 16 0 
N 8 77 0 
N 60 66 0 
N 60 17 0 
N 51 42 0 
N 24 84 0 
N 80 30 0 
N 70 3 0 
N 60 53 0 
N 22 25 0 
N 31 68 0 
N 38 89 0 
N 76 57 0 
N 42 44 0 
N 87 40 0 
N 69 82 0 
N 0 49 0 
N 73 98 0 
N 82 47 0 
N 8 37 0 
N 48 98 0 
N 31 90 0 
N 46 54 0 
N 98 66 0 
N 52 3 0 
N 44 81 0 
N 18 76 0 
N 31 52 0 
N 35 76 0 
N 43 44 0 
N 62 7 0 
N 3 36 0 
N 4 42 0 
N 44 96 0 
N 8 42 0 
N 81 25 0 
N 33 49 0 
N 95 4 0 
N 73 24 0 
N 69 69 0 
N 5 62 0 
N 75 36 0 
N 9 96 0 
N 79 78 0 
N 11 39 0 
N 59 35 0 
N 43 34 0 
N 91 54 0 
N 2 23 0 
N 6 29 0 
N 59 88 0 
N 17 83 0 
N 23 21 0 
N 79 49 0 
N 75 87 0 
N 1 68 0 
N 38 60 0 
N 12 79 0 
N 97 52 0 
N 67 91 0 
N 39 35 0 
N 76 19 0 
N 2 66 0 
N 77 61 0 
N 27 15 0 
N 55 62 0 
N 26 1 0 
N 75 0 0 
N 14 13 0 
N 86 73 0 
N 16 62 0 
N 46 13 0 
N 52 29 0 
N 2 2 0 
N 66 61 0 
N 0 0 0 
N 92 78 0 
N 91 98 0 
N 63 82 0 
N 28 95 0 
N 27 45 0 
O 73 70 0 
O 52 18 0 
O 78 2 0 
O 29 96 0 
O 74 99 0 
O 72 99 0 
O 30 35 0 
O 87 0 0 
506
Atoms. Timestep: 22
N 75 51 0 
N 73 3 0 
N 12 2 0 
N 55 14 0 
N 13 50 0 
N 27 47 0 
N 21 88 0 
N 5 49 0 
N 3 36 0 
N 71 6 0 
N 88 50 0 
N 44 9 0 
N 46 32 0 
N 79 74 0 
N 52 16 0 
N 9 98 0 
N 55 74 0 
N 10 35 0 
N 29 81 0 
N 14 72 0 
N 33 52 0 
N 99 83 0 
N 95 30 0 
N 72 70 0 
N 11 57 0 
N 31 63 0 
N 38 0 0 
N 52 43 0 
N 49 79 0 
N 26 59 0 
N 18 81 0 
N 30 69 0 
N 24 41 0 
N 45 75 0 
N 55 4 0 
N 52 49 0 
N 34 67 0 
N 16 67 0 
N 43 63 0 
N 70 54 0 
N 67 98 0 
N 86 49 0 
N 55 88 0 
N 38 15 0 
N 29 96 0 
N 20 25 0 
N 0 72 0 
N 57 99 0 
N 49 47 0 
N 84 71 0 
N 76 82 0 
N 96 5 0 
N 88 84 0 
N 88 74 0 
N 95 41 0 
N 5 0 0 
N 26 7 0 
N 12 46 0 
N 69 60 0 
N 9 52 0 
N 26 49 0 
N 18 61 0 
N 85 44 0 
N 39 29 0 
N 12 64 0 
N 53 16 0 
N 54 57 0 
N 32 32 0 
N 21 75 0 
N 61 56 0 
N 42 19 0 
N 29 85 0 
N 2 8 0 
N 85 11 0 
N 80 32 0 
N 40 2 0 
N 76 30 0 
N 65 37 0 
N 28 10 0 
N 22 19 0 
N 30 50 0 
N 79 77 0 
N 53 7 0 
N 10 41 0 
N 39 45 0 
N 25 60 0 
N 16 65 0 
N 6 55 0 
N 97 14 0 
N 51 16 0 
N 15 32 0 
N 99 11 0 
N 39 27 0 
N 21 67 0 
N 65 33 0 
N 66 50 0 
N 13 21 0 
N 65 91 0 
N 29 61 0 
N 47 59 0 
N 45 9 0 
N 35 21 0 
N 48 26 0 
N 73 71 0 
N 20 45 0 
N 75 76 0 
N 44 8 0 
N 96 58 0 
N 41 37 0 
N 31 22 0 
N 55 75 0 
N 34 55 0 
N 19 18 0 
N 11 9 0 
N 32 44 0 
N 57 31 0 
N 84 21 0 
N 25 47 0 
N 90 33 0 
N 7 31 0 
N 12 75 0 
N 87 5 0 
N 55 51 0 
N 8 19 0 
N 27 72 0 
N 22 34 0 
N 51 18 0 
N 5 27 0 
N 39 6 0 
N 96 42 0 
N 88 60 0 
N 60 82 0 
N 8 12 0 
N 10 28 0 
N 36 65 0 
N 18 32 0 
N 26 79 0 
N 5 42 0 
N 77 52 0 
N 46 1 0 
N 14 59 0 
N 35 30 0 
N 13 16 0 
N 32 92 0 
N 56 29 0 
N 80 28 0 
N 89 41 0 
N 50 88 0 
N 96 6 0 
N 4 11 0 
N 89 7 0 
N 0 52 0 
N 42 50 0 
N 38 55 0 
N 93 91 0 
N 39 47 0 
N 56 3 0 
N 87 26 0 
N 21 44 0 
N 83 86 0 
N 50 77 0 
N 56 15 0 
N 56 70 0 
N 7 76 0 
N 77 29 0 
N 98 94 0 
N 59 67 0 
N 57 89 0 
N 11 92 0 
N 51 30 0 
N 45 5 0 
N 56 87 0 
N 22 60 0 
N 98 18 0 
N 45 71 0 
N 94 96 0 
N 18 83 0 
N 53 20 0 
N 56 10 0 
N 75 14 0 
N 11 60 0 
N 7 20 0 
N 19 1 0 
N 25 12 0 
N 37 49 0 
N 83 48 0 
N 82 58 0 
N 96 21 0 
N 0 33 0 
N 89 53 0 
N 81 75 0 
N 20 20 0 
N 37 66 0 
N 0 80 0 
N 97 74 0 
N 0 54 0 
N 37 6 0 
N 61 59 0 
N 37 23 0 
N 58 62 0 
N 99 99 0 
N 70 56 0 
N 76 15 0 
N 74 37 0 
N 68 47 0 
N 52 61 0 
N 6 84 0 
N 32 27 0 
N 45 72 0 
N 35 15 0 
N 35 41 0 
N 11 86 0 
N 93 64 0 
N 79 45 0 
N 14 33 0 
N 76 59 0 
N 97 47 0 
N 81 19 0 
N 3 40 0 
N 54 46 0 
N 46 30 0 
N 87 8 0 
N 3 8 0 
N 0 19 0 
N 87 88 0 
N 16 11 0 
N 93 33 0 
N 73 98 0 
N 78 3 0 
N 47 66 0 
N 13 91 0 
N 92 17 0 
N 65 86 0 
N 85 84 0 
N 33 35 0 
N 88 12 0 
N 75 46 0 
N 21 19 0 
N 59 40 0 
N 82 55 0 
N 81 22 0 
N 95 40 0 
N 4 6 0 
N 26 75 0 
N 9 54 0 
N 65 12 0 
N 1 57 0 
N 0 5 0 
N 91 49 0 
N 57 41 0 
N 22 38 0 
N 5 69 0 
N 28 36 0 
N 14 0 0 
N 78 48 0 
N 33 61 0 
N 15 79 0 
N 72 8 0 
N 32 19 0 
N 16 76 0 
N 13 24 0 
N 21 77 0 
N 48 55 0 
N 54 1 0 
N 12 66 0 
N 73 60 0 
N 12 5 0 
N 60 95 0 
N 83 89 0 
N 25 70 0 
N 11 65 0 
N 90 37 0 
N 26 8 0 
N 53 40 0 
N 9 53 0 
N 27 61 0 
N 36 76 0 
N 11 54 0 
N 72 15 0 
N 7 66 0 
N 43 3 0 
N 73 34 0 
N 99 4 0 
N 37 26 0 
N 46 36 0 
N 55 47 0 
N 62 23 0 
N 9 45 0 
N 98 82 0 
N 93 77 0 
N 98 91 0 
N 50 93 0 
N 50 21 0 
N 70 25 0 
N 69 30 0 
N 61 90 0 
N 68 83 0 
N 64 47 0 
N 17 95 0 
N 65 38 0 
N 35 4 0 
N 25 84 0 
N 48 47 0 
N 94 75 0 
N 50 32 0 
N 11 19 0 
N 24 51 0 
N 63 24 0 
N 72 76 0 
N 51 88 0 
N 18 90 0 
N 97 10 0 
N 62 13 0 
N 41 55 0 
N 4 32 0 
N 74 18 0 
N 43 92 0 
N 18 60 0 
N 23 1 0 
N 68 82 0 
N 37 44 0 
N 50 51 0 
N 37 74 0 
N 4 56 0 
N 84 79 0 
N 28 95 0 
N 93 49 0 
N 90 73 0 
N 94 1 0 
N 55 56 0 
N 75 98 0 
N 54 16 0 
N 46 94 0 
N 36 6 0 
N 13 26 0 
N 6 97 0 
N 81 49 0 
N 49 56 0 
N 17 97 0 
N 71 47 0 
N 29 69 0 
N 67 27 0 
N 23 45 0 
N 37 52 0 
N 86 4 0 
N 98 89 0 
N 51 98 0 
N 80 90 0 
N 66 14 0 
N 68 56 0 
N 61 51 0 
N 36 49 0 
N 12 87 0 
N 30 35 0 
N 63 50 0 
N 89 65 0 
N 61 73 0 
N 4 95 0 
N 39 32 0 
N 22 26 0 
N 94 61 0 
N 16 3 0 
N 45 0 0 
N 2 71 0 
N 42 79 0 
N 14 40 0 
N 78 39 0 
N 48 70 0 
N 2 44 0 
N 48 91 0 
N 78 98 0 
N 58 43 0 
N 22 61 0 
N 67 57 0 
N 40 97 0 
N 53 62 0 
N 2 2 0 
N 67 5 0 
N 18 80 0 
N 61 48 0 
N 41 6 0 
N 62 42 0 
N 24 65 0 
N 89 25 0 
N 35 63 0 
N 54 99 0 
N 88 97 0 
N 43 30 0 
N 4 96 0 
N 89 76 0 
N 62 99 0 
N 37 55 0 
N 19 3 0 
N 52 17 0 
N 77 76 0 
N 63 71 0 
N 29 20 0 
N 72 34 0 
N 66 37 0 
N 40 28 0 
N 93 37 0 
N 89 85 0 
N 48 0 0 
N 7 97 0 
N 6 42 0 
N 71 79 0 
N 8 7 0 
N 54 24 0 
N 43 2 0 
N 84 59 0 
N 98 3 0 
N 1 32 0 
N 2 88 0 
N 87 36 0 
N 60 34 0 
N 60 45 0 
N 34 22 0 
N 26 77 0 
N 0 87 0 
N 84 17 0 
N 9 77 0 
N 59 66 0 
N 60 16 0 
N 51 43 0 
N 23 84 0 
N 80 29 0 
N 69 3 0 
N 60 54 0 
N 23 25 0 
N 31 67 0 
N 39 89 0 
N 75 57 0 
N 42 45 0 
N 86 40 0 
N 69 81 0 
N 1 49 0 
N 74 98 0 
N 82 48 0 
N 8 36 0 
N 48 97 0 
N 30 90 0 
N 46 53 0 
N 97 66 0 
N 52 4 0 
N 44 80 0 
N 18 77 0 
N 31 51 0 
N 35 75 0 
N 43 43 0 
N 61 7 0 
N 3 35 0 
N 3 42 0 
N 45 96 0 
N 7 42 0 
N 82 25 0 
N 34 49 0 
N 94 4 0 
N 74 24 0 
N 69 70 0 
N 5 63 0 
N 74 36 0 
N 10 96 0 
N 78 78 0 
N 12 39 0 
N 58 35 0 
N 43 35 0 
N 91 55 0 
N 1 23 0 
N 5 29 0 
N 59 89 0 
N 17 84 0 
N 23 20 0 
N 79 48 0 
N 75 86 0 
N 2 68 0 
N 39 60 0 
N 13 79 0 
N 98 52 0 
N 68 91 0 
N 40 35 0 
N 75 19 0 
N 2 65 0 
N 77 62 0 
N 27 14 0 
N 55 63 0 
N 27 1 0 
N 74 0 0 
N 15 13 0 
N 85 73 0 
N 15 62 0 
N 47 13 0 
N 52 30 0 
N 3 2 0 
N 65 61 0 
N 99 0 0 
N 92 77 0 
N 91 99 0 
N 63 81 0 
N 28 96 0 
N 26 45 0 
O 73 69 0 
O 53 18 0 
O 77 2 0 
O 75 99 0 
O 72 0 0 
O 87 99 0 
505
Atoms. Timestep: 23
N 75 50 0 
N 72 3 0 
N 11 2 0 
N 56 14 0 
N 14 50 0 
N 27 48 0 
N 22 88 0 
N 5 50 0 
N 4 36 0 
N 72 6 0 
N 88 51 0 
N 44 10 0 
N 45 32 0 
N 78 74 0 
N 53 16 0 
N 9 99 0 
N 54 74 0 
N 11 35 0 
N 29 80 0 
N 13 72 0 
N 33 53 0 
N 0 83 0 
N 95 31 0 
N 72 69 0 
N 12 57 0 
N 30 63 0 
N 39 0 0 
N 52 44 0 
N 49 78 0 
N 26 58 0 
N 18 80 0 
N 31 69 0 
N 24 40 0 
N 44 75 0 
N 55 3 0 
N 53 49 0 
N 35 67 0 
N 16 68 0 
N 43 62 0 
N 70 53 0 
N 66 98 0 
N 85 49 0 
N 56 88 0 
N 37 15 0 
N 29 97 0 
N 20 24 0 
N 0 73 0 
N 58 99 0 
N 50 47 0 
N 84 70 0 
N 77 82 0 
N 97 5 0 
N 89 84 0 
N 89 74 0 
N 96 41 0 
N 5 99 0 
N 25 7 0 
N 11 46 0 
N 69 59 0 
N 9 51 0 
N 26 50 0 
N 18 60 0 
N 86 44 0 
N 38 29 0 
N 12 65 0 
N 53 17 0 
N 53 57 0 
N 32 31 0 
N 20 75 0 
N 62 56 0 
N 43 19 0 
N 30 85 0 
N 2 7 0 
N 84 11 0 
N 81 32 0 
N 41 2 0 
N 76 29 0 
N 64 37 0 
N 27 10 0 
N 22 20 0 
N 30 49 0 
N 78 77 0 
N 54 7 0 
N 10 42 0 
N 40 45 0 
N 26 60 0 
N 16 64 0 
N 6 54 0 
N 97 13 0 
N 51 17 0 
N 15 33 0 
N 99 12 0 
N 40 27 0 
N 21 68 0 
N 65 34 0 
N 66 51 0 
N 12 21 0 
N 65 92 0 
N 30 61 0 
N 47 60 0 
N 46 9 0 
N 35 20 0 
N 48 25 0 
N 73 70 0 
N 20 46 0 
N 74 76 0 
N 45 8 0 
N 95 58 0 
N 41 38 0 
N 31 21 0 
N 54 75 0 
N 35 55 0 
N 18 18 0 
N 11 8 0 
N 32 45 0 
N 56 31 0 
N 83 21 0 
N 24 47 0 
N 89 33 0 
N 7 32 0 
N 13 75 0 
N 87 4 0 
N 55 50 0 
N 7 19 0 
N 27 71 0 
N 21 34 0 
N 51 18 0 
N 5 26 0 
N 40 6 0 
N 97 42 0 
N 88 61 0 
N 59 82 0 
N 7 12 0 
N 11 28 0 
N 36 66 0 
N 18 31 0 
N 25 79 0 
N 5 41 0 
N 76 52 0 
N 47 1 0 
N 14 60 0 
N 35 29 0 
N 12 16 0 
N 33 92 0 
N 56 28 0 
N 80 29 0 
N 90 41 0 
N 50 87 0 
N 96 7 0 
N 3 11 0 
N 90 7 0 
N 0 51 0 
N 42 51 0 
N 38 56 0 
N 93 90 0 
N 39 46 0 
N 57 3 0 
N 87 27 0 
N 21 43 0 
N 82 86 0 
N 51 77 0 
N 56 16 0 
N 56 69 0 
N 6 76 0 
N 77 30 0 
N 99 94 0 
N 60 67 0 
N 58 89 0 
N 12 92 0 
N 51 31 0 
N 45 4 0 
N 57 87 0 
N 23 60 0 
N 99 18 0 
N 45 72 0 
N 94 97 0 
N 17 83 0 
N 53 19 0 
N 56 9 0 
N 74 14 0 
N 11 59 0 
N 8 20 0 
N 18 1 0 
N 25 13 0 
N 38 49 0 
N 82 48 0 
N 82 59 0 
N 96 22 0 
N 0 34 0 
N 89 52 0 
N 81 74 0 
N 20 21 0 
N 37 65 0 
N 1 80 0 
N 97 75 0 
N 99 54 0 
N 37 7 0 
N 60 59 0 
N 37 22 0 
N 57 62 0 
N 0 99 0 
N 70 57 0 
N 76 14 0 
N 73 37 0 
N 67 47 0 
N 52 62 0 
N 6 85 0 
N 32 26 0 
N 46 72 0 
N 35 16 0 
N 36 41 0 
N 10 86 0 
N 94 64 0 
N 79 46 0 
N 14 34 0 
N 75 59 0 
N 97 48 0 
N 81 18 0 
N 4 40 0 
N 54 47 0 
N 46 29 0 
N 88 8 0 
N 4 8 0 
N 1 19 0 
N 87 87 0 
N 15 11 0 
N 93 34 0 
N 73 97 0 
N 78 2 0 
N 46 66 0 
N 13 92 0 
N 91 17 0 
N 65 87 0 
N 86 84 0 
N 34 35 0 
N 87 12 0 
N 76 46 0 
N 20 19 0 
N 59 39 0 
N 82 54 0 
N 81 21 0 
N 95 39 0 
N 4 5 0 
N 27 75 0 
N 10 54 0 
N 64 12 0 
N 2 57 0 
N 0 6 0 
N 90 49 0 
N 56 41 0 
N 22 37 0 
N 5 70 0 
N 28 35 0 
N 14 99 0 
N 77 48 0 
N 32 61 0 
N 15 78 0 
N 71 8 0 
N 32 18 0 
N 15 76 0 
N 13 23 0 
N 22 77 0 
N 47 55 0 
N 54 0 0 
N 12 67 0 
N 73 61 0 
N 12 4 0 
N 60 96 0 
N 84 89 0 
N 25 69 0 
N 10 65 0 
N 91 37 0 
N 26 9 0 
N 53 41 0 
N 8 53 0 
N 26 61 0 
N 37 76 0 
N 11 53 0 
N 72 16 0 
N 6 66 0 
N 43 2 0 
N 73 33 0 
N 99 3 0 
N 36 26 0 
N 45 36 0 
N 56 47 0 
N 63 23 0 
N 8 45 0 
N 98 83 0 
N 92 77 0 
N 97 91 0 
N 51 93 0 
N 49 21 0 
N 70 26 0 
N 69 29 0 
N 61 89 0 
N 68 82 0 
N 64 48 0 
N 17 94 0 
N 65 39 0 
N 36 4 0 
N 26 84 0 
N 47 47 0 
N 94 76 0 
N 49 32 0 
N 11 18 0 
N 24 50 0 
N 64 24 0 
N 72 77 0 
N 51 89 0 
N 18 91 0 
N 96 10 0 
N 61 13 0 
N 41 54 0 
N 5 32 0 
N 75 18 0 
N 43 93 0 
N 19 60 0 
N 24 1 0 
N 69 82 0 
N 38 44 0 
N 49 51 0 
N 38 74 0 
N 4 57 0 
N 83 79 0 
N 27 95 0 
N 92 49 0 
N 89 73 0 
N 94 2 0 
N 55 55 0 
N 75 99 0 
N 54 17 0 
N 45 94 0 
N 36 7 0 
N 14 26 0 
N 7 97 0 
N 80 49 0 
N 50 56 0 
N 17 96 0 
N 72 47 0 
N 29 70 0 
N 67 26 0 
N 22 45 0 
N 37 51 0 
N 85 4 0 
N 98 90 0 
N 51 97 0 
N 80 91 0 
N 67 14 0 
N 69 56 0 
N 60 51 0 
N 36 48 0 
N 12 86 0 
N 29 35 0 
N 62 50 0 
N 89 64 0 
N 61 72 0 
N 4 94 0 
N 40 32 0 
N 22 27 0 
N 94 62 0 
N 17 3 0 
N 46 0 0 
N 1 71 0 
N 41 79 0 
N 14 39 0 
N 78 40 0 
N 48 71 0 
N 3 44 0 
N 49 91 0 
N 77 98 0 
N 59 43 0 
N 22 62 0 
N 66 57 0 
N 41 97 0 
N 54 62 0 
N 2 3 0 
N 68 5 0 
N 17 80 0 
N 61 47 0 
N 42 6 0 
N 62 43 0 
N 25 65 0 
N 89 26 0 
N 35 64 0 
N 54 98 0 
N 88 98 0 
N 42 30 0 
N 3 96 0 
N 90 76 0 
N 61 99 0 
N 36 55 0 
N 20 3 0 
N 52 18 0 
N 77 75 0 
N 62 71 0 
N 29 19 0 
N 72 33 0 
N 66 36 0 
N 39 28 0 
N 94 37 0 
N 89 86 0 
N 48 99 0 
N 8 97 0 
N 6 41 0 
N 72 79 0 
N 7 7 0 
N 53 24 0 
N 44 2 0 
N 84 58 0 
N 97 3 0 
N 1 31 0 
N 2 87 0 
N 87 37 0 
N 60 35 0 
N 61 45 0 
N 33 22 0 
N 26 76 0 
N 0 88 0 
N 84 16 0 
N 10 77 0 
N 59 65 0 
N 59 16 0 
N 51 44 0 
N 22 84 0 
N 80 30 0 
N 68 3 0 
N 59 54 0 
N 22 25 0 
N 30 67 0 
N 39 88 0 
N 75 56 0 
N 43 45 0 
N 87 40 0 
N 68 81 0 
N 0 49 0 
N 74 99 0 
N 82 47 0 
N 8 37 0 
N 47 97 0 
N 31 90 0 
N 47 53 0 
N 97 65 0 
N 52 5 0 
N 44 79 0 
N 17 77 0 
N 31 50 0 
N 34 75 0 
N 42 43 0 
N 61 8 0 
N 4 35 0 
N 4 42 0 
N 45 95 0 
N 7 41 0 
N 82 24 0 
N 35 49 0 
N 95 4 0 
N 74 25 0 
N 69 69 0 
N 5 64 0 
N 73 36 0 
N 11 96 0 
N 79 78 0 
N 12 40 0 
N 57 35 0 
N 42 35 0 
N 90 55 0 
N 1 24 0 
N 4 29 0 
N 59 88 0 
N 16 84 0 
N 23 21 0 
N 79 49 0 
N 75 87 0 
N 3 68 0 
N 38 60 0 
N 13 78 0 
N 99 52 0 
N 67 91 0 
N 40 36 0 
N 75 20 0 
N 1 65 0 
N 76 62 0 
N 26 14 0 
N 55 62 0 
N 26 1 0 
N 75 0 0 
N 14 13 0 
N 86 73 0 
N 14 62 0 
N 46 13 0 
N 52 31 0 
N 3 1 0 
N 66 61 0 
N 98 0 0 
N 92 78 0 
N 90 99 0 
N 64 81 0 
N 28 97 0 
N 25 45 0 
O 74 69 0 
O 54 18 0 
O 76 2 0 
O 72 99 0 
O 87 0 0 
504
Atoms. Timestep: 24
N 75 49 0 
N 72 4 0 
N 10 2 0 
N 55 14 0 
N 15 50 0 
N 28 48 0 
N 23 88 0 
N 4 50 0 
N 4 37 0 
N 73 6 0 
N 89 51 0 
N 44 11 0 
N 45 33 0 
N 79 74 0 
N 54 16 0 
N 9 0 0 
N 55 74 0 
N 11 34 0 
N 28 80 0 
N 13 73 0 
N 33 52 0 
N 1 83 0 
N 96 31 0 
N 72 69 0 
N 12 58 0 
N 31 63 0 
N 39 1 0 
N 52 43 0 
N 49 79 0 
N 25 58 0 
N 19 80 0 
N 30 69 0 
N 25 40 0 
N 45 75 0 
N 55 2 0 
N 53 48 0 
N 34 67 0 
N 15 68 0 
N 42 62 0 
N 71 53 0 
N 66 99 0 
N 85 50 0 
N 57 88 0 
N 37 16 0 
N 29 98 0 
N 20 25 0 
N 1 73 0 
N 59 99 0 
N 50 48 0 
N 83 70 0 
N 77 81 0 
N 96 5 0 
N 90 84 0 
N 88 74 0 
N 96 42 0 
N 5 98 0 
N 25 6 0 
N 12 46 0 
N 68 59 0 
N 8 51 0 
N 27 50 0 
N 18 59 0 
N 86 43 0 
N 37 29 0 
N 13 65 0 
N 54 17 0 
N 52 57 0 
N 32 30 0 
N 19 75 0 
N 63 56 0 
N 43 20 0 
N 29 85 0 
N 1 7 0 
N 84 10 0 
N 80 32 0 
N 42 2 0 
N 76 28 0 
N 64 38 0 
N 27 11 0 
N 21 20 0 
N 30 48 0 
N 78 76 0 
N 54 6 0 
N 9 42 0 
N 41 45 0 
N 26 61 0 
N 16 63 0 
N 5 54 0 
N 96 13 0 
N 51 18 0 
N 15 32 0 
N 0 12 0 
N 40 26 0 
N 20 68 0 
N 65 35 0 
N 67 51 0 
N 13 21 0 
N 64 92 0 
N 29 61 0 
N 48 60 0 
N 46 10 0 
N 35 19 0 
N 48 24 0 
N 73 69 0 
N 20 45 0 
N 74 75 0 
N 44 8 0 
N 95 59 0 
N 40 38 0 
N 30 21 0 
N 55 75 0 
N 35 56 0 
N 17 18 0 
N 11 9 0 
N 31 45 0 
N 56 32 0 
N 83 22 0 
N 25 47 0 
N 90 33 0 
N 6 32 0 
N 12 75 0 
N 87 3 0 
N 54 50 0 
N 6 19 0 
N 27 72 0 
N 21 35 0 
N 52 18 0 
N 4 26 0 
N 40 7 0 
N 97 41 0 
N 88 60 0 
N 60 82 0 
N 8 12 0 
N 10 28 0 
N 36 67 0 
N 18 32 0 
N 26 79 0 
N 5 42 0 
N 75 52 0 
N 48 1 0 
N 14 61 0 
N 34 29 0 
N 11 16 0 
N 33 93 0 
N 56 29 0 
N 81 29 0 
N 89 41 0 
N 51 87 0 
N 97 7 0 
N 2 11 0 
N 90 6 0 
N 99 51 0 
N 43 51 0 
N 38 55 0 
N 93 91 0 
N 39 45 0 
N 57 2 0 
N 87 28 0 
N 22 43 0 
N 81 86 0 
N 51 78 0 
N 56 15 0 
N 57 69 0 
N 6 77 0 
N 78 30 0 
N 0 94 0 
N 61 67 0 
N 58 88 0 
N 12 93 0 
N 52 31 0 
N 45 5 0 
N 56 87 0 
N 24 60 0 
N 99 17 0 
N 45 73 0 
N 94 96 0 
N 17 84 0 
N 52 19 0 
N 55 9 0 
N 74 15 0 
N 11 58 0 
N 7 20 0 
N 18 0 0 
N 26 13 0 
N 38 48 0 
N 82 47 0 
N 82 60 0 
N 95 22 0 
N 99 34 0 
N 90 52 0 
N 81 73 0 
N 20 20 0 
N 38 65 0 
N 2 80 0 
N 97 76 0 
N 99 55 0 
N 37 6 0 
N 60 58 0 
N 37 23 0 
N 58 62 0 
N 0 98 0 
N 70 58 0 
N 77 14 0 
N 73 36 0 
N 66 47 0 
N 52 63 0 
N 6 84 0 
N 32 27 0 
N 46 71 0 
N 34 16 0 
N 36 42 0 
N 10 85 0 
N 94 63 0 
N 79 45 0 
N 14 33 0 
N 76 59 0 
N 97 49 0 
N 80 18 0 
N 5 40 0 
N 54 46 0 
N 46 28 0 
N 89 8 0 
N 4 9 0 
N 2 19 0 
N 88 87 0 
N 15 12 0 
N 93 35 0 
N 73 98 0 
N 77 2 0 
N 45 66 0 
N 14 92 0 
N 90 17 0 
N 65 86 0 
N 86 83 0 
N 35 35 0 
N 88 12 0 
N 75 46 0 
N 19 19 0 
N 59 40 0 
N 82 55 0 
N 81 20 0 
N 95 40 0 
N 5 5 0 
N 27 74 0 
N 10 53 0 
N 64 11 0 
N 1 57 0 
N 0 5 0 
N 91 49 0 
N 55 41 0 
N 22 36 0 
N 4 70 0 
N 27 35 0 
N 14 98 0 
N 76 48 0 
N 31 61 0 
N 14 78 0 
N 71 7 0 
N 31 18 0 
N 15 77 0 
N 12 23 0 
N 22 78 0 
N 48 55 0 
N 54 1 0 
N 12 66 0 
N 73 60 0 
N 12 5 0 
N 59 96 0 
N 83 89 0 
N 25 70 0 
N 11 65 0 
N 92 37 0 
N 26 8 0 
N 54 41 0 
N 9 53 0 
N 26 62 0 
N 37 77 0 
N 11 54 0 
N 73 16 0 
N 5 66 0 
N 44 2 0 
N 72 33 0 
N 98 3 0 
N 35 26 0 
N 45 35 0 
N 55 47 0 
N 64 23 0 
N 7 45 0 
N 99 83 0 
N 91 77 0 
N 98 91 0 
N 52 93 0 
N 49 20 0 
N 71 26 0 
N 68 29 0 
N 61 90 0 
N 68 81 0 
N 63 48 0 
N 17 93 0 
N 64 39 0 
N 36 5 0 
N 26 85 0 
N 46 47 0 
N 95 76 0 
N 50 32 0 
N 11 19 0 
N 23 50 0 
N 64 25 0 
N 72 76 0 
N 52 89 0 
N 18 90 0 
N 97 10 0 
N 61 12 0 
N 41 55 0 
N 5 33 0 
N 75 17 0 
N 43 92 0 
N 19 61 0 
N 24 2 0 
N 69 83 0 
N 39 44 0 
N 48 51 0 
N 38 75 0 
N 4 58 0 
N 83 78 0 
N 27 96 0 
N 92 48 0 
N 89 72 0 
N 94 3 0 
N 55 56 0 
N 74 99 0 
N 54 18 0 
N 44 94 0 
N 35 7 0 
N 14 25 0 
N 7 98 0 
N 81 49 0 
N 51 56 0 
N 17 97 0 
N 72 48 0 
N 29 69 0 
N 67 27 0 
N 21 45 0 
N 37 50 0 
N 86 4 0 
N 97 90 0 
N 50 97 0 
N 80 90 0 
N 68 14 0 
N 70 56 0 
N 59 51 0 
N 35 48 0 
N 12 87 0 
N 29 36 0 
N 62 49 0 
N 88 64 0 
N 60 72 0 
N 4 95 0 
N 39 32 0 
N 21 27 0 
N 94 61 0 
N 17 2 0 
N 46 99 0 
N 0 71 0 
N 41 78 0 
N 13 39 0 
N 78 39 0 
N 49 71 0 
N 4 44 0 
N 49 92 0 
N 76 98 0 
N 60 43 0 
N 21 62 0 
N 66 56 0 
N 42 97 0 
N 54 61 0 
N 1 3 0 
N 69 5 0 
N 17 81 0 
N 61 48 0 
N 42 7 0 
N 62 42 0 
N 24 65 0 
N 88 26 0 
N 35 63 0 
N 55 98 0 
N 87 98 0 
N 43 30 0 
N 4 96 0 
N 89 76 0 
N 62 99 0 
N 37 55 0 
N 20 4 0 
N 52 17 0 
N 77 74 0 
N 63 71 0 
N 30 19 0 
N 71 33 0 
N 65 36 0 
N 38 28 0 
N 93 37 0 
N 89 85 0 
N 49 99 0 
N 8 98 0 
N 7 41 0 
N 72 78 0 
N 8 7 0 
N 53 25 0 
N 45 2 0 
N 84 57 0 
N 97 4 0 
N 1 32 0 
N 2 86 0 
N 87 38 0 
N 59 35 0 
N 60 45 0 
N 34 22 0 
N 26 75 0 
N 0 89 0 
N 84 15 0 
N 10 78 0 
N 60 65 0 
N 60 16 0 
N 51 43 0 
N 22 83 0 
N 80 31 0 
N 68 2 0 
N 59 55 0 
N 22 26 0 
N 29 67 0 
N 39 89 0 
N 75 57 0 
N 43 44 0 
N 86 40 0 
N 69 81 0 
N 1 49 0 
N 73 99 0 
N 83 47 0 
N 9 37 0 
N 47 98 0 
N 30 90 0 
N 47 52 0 
N 97 64 0 
N 51 5 0 
N 45 79 0 
N 17 78 0 
N 31 51 0 
N 35 75 0 
N 43 43 0 
N 60 8 0 
N 4 34 0 
N 4 43 0 
N 44 95 0 
N 7 42 0 
N 82 23 0 
N 35 50 0 
N 95 3 0 
N 75 25 0 
N 70 69 0 
N 5 63 0 
N 72 36 0 
N 10 96 0 
N 79 77 0 
N 11 40 0 
N 58 35 0 
N 42 34 0 
N 90 56 0 
N 1 23 0 
N 4 30 0 
N 59 89 0 
N 16 83 0 
N 23 20 0 
N 79 48 0 
N 76 87 0 
N 2 68 0 
N 38 59 0 
N 13 77 0 
N 99 53 0 
N 68 91 0 
N 40 37 0 
N 74 20 0 
N 0 65 0 
N 76 63 0 
N 25 14 0 
N 55 61 0 
N 25 1 0 
N 75 1 0 
N 13 13 0 
N 87 73 0 
N 14 63 0 
N 45 13 0 
N 53 31 0 
N 3 0 0 
N 65 61 0 
N 97 0 0 
N 91 78 0 
N 90 98 0 
N 65 81 0 
N 28 98 0 
N 25 46 0 
O 74 68 0 
O 76 3 0 
O 72 98 0 
O 86 0 0 
503
Atoms. Timestep: 25
N 75 50 0 
N 72 3 0 
N 10 1 0 
N 54 14 0 
N 16 50 0 
N 28 47 0 
N 22 88 0 
N 3 50 0 
N 4 38 0 
N 73 5 0 
N 90 51 0 
N 43 11 0 
N 45 32 0 
N 79 75 0 
N 53 16 0 
N 10 0 0 
N 55 73 0 
N 11 35 0 
N 27 80 0 
N 12 73 0 
N 33 51 0 
N 1 84 0 
N 95 31 0 
N 73 69 0 
N 12 57 0 
N 31 62 0 
N 39 0 0 
N 52 44 0 
N 48 79 0 
N 25 57 0 
N 19 81 0 
N 31 69 0 
N 25 39 0 
N 45 74 0 
N 55 1 0 
N 52 48 0 
N 34 68 0 
N 14 68 0 
N 42 61 0 
N 70 53 0 
N 65 99 0 
N 85 51 0 
N 58 88 0 
N 36 16 0 
N 30 98 0 
N 20 24 0 
N 1 72 0 
N 58 99 0 
N 49 48 0 
N 83 69 0 
N 76 81 0 
N 97 5 0 
N 90 83 0 
N 88 75 0 
N 96 43 0 
N 5 97 0 
N 26 6 0 
N 12 45 0 
N 67 59 0 
N 8 50 0 
N 27 49 0 
N 18 60 0 
N 87 43 0 
N 36 29 0 
N 14 65 0 
N 54 18 0 
N 53 57 0 
N 31 30 0 
N 19 74 0 
N 62 56 0 
N 44 20 0 
N 29 86 0 
N 1 8 0 
N 84 11 0 
N 80 33 0 
N 41 2 0 
N 75 28 0 
N 63 38 0 
N 27 10 0 
N 21 19 0 
N 30 49 0 
N 78 77 0 
N 53 6 0 
N 9 41 0 
N 41 44 0 
N 27 61 0 
N 17 63 0 
N 5 55 0 
N 96 12 0 
N 50 18 0 
N 15 33 0 
N 99 12 0 
N 41 26 0 
N 20 69 0 
N 65 36 0 
N 67 50 0 
N 13 22 0 
N 65 92 0 
N 29 60 0 
N 48 59 0 
N 45 10 0 
N 35 18 0 
N 47 24 0 
N 74 69 0 
N 21 45 0 
N 74 74 0 
N 44 9 0 
N 95 58 0 
N 40 39 0 
N 29 21 0 
N 55 76 0 
N 36 56 0 
N 17 17 0 
N 10 9 0 
N 31 46 0 
N 56 33 0 
N 82 22 0 
N 26 47 0 
N 90 32 0 
N 6 31 0 
N 12 74 0 
N 87 2 0 
N 54 51 0 
N 7 19 0 
N 27 71 0 
N 21 36 0 
N 53 18 0 
N 3 26 0 
N 40 6 0 
N 96 41 0 
N 88 59 0 
N 59 82 0 
N 8 11 0 
N 10 29 0 
N 37 67 0 
N 18 31 0 
N 26 78 0 
N 5 41 0 
N 76 52 0 
N 48 2 0 
N 14 62 0 
N 34 30 0 
N 11 17 0 
N 34 93 0 
N 56 28 0 
N 81 28 0 
N 89 42 0 
N 51 86 0 
N 97 6 0 
N 3 11 0 
N 89 6 0 
N 99 50 0 
N 42 51 0 
N 38 54 0 
N 93 90 0 
N 39 46 0 
N 57 1 0 
N 88 28 0 
N 22 42 0 
N 80 86 0 
N 52 78 0 
N 56 16 0 
N 57 68 0 
N 6 78 0 
N 77 30 0 
N 1 94 0 
N 60 67 0 
N 58 87 0 
N 13 93 0 
N 53 31 0 
N 45 4 0 
N 57 87 0 
N 24 61 0 
N 99 18 0 
N 44 73 0 
N 94 97 0 
N 16 84 0 
N 53 19 0 
N 54 9 0 
N 75 15 0 
N 11 59 0 
N 6 20 0 
N 18 1 0 
N 27 13 0 
N 37 48 0 
N 82 46 0 
N 82 61 0 
N 95 21 0 
N 0 34 0 
N 89 52 0 
N 80 73 0 
N 20 21 0 
N 38 66 0 
N 2 79 0 
N 97 75 0 
N 98 55 0 
N 37 7 0 
N 60 57 0 
N 36 23 0 
N 58 61 0 
N 1 98 0 
N 70 59 0 
N 78 14 0 
N 74 36 0 
N 66 48 0 
N 53 63 0 
N 6 85 0 
N 32 26 0 
N 46 70 0 
N 35 16 0 
N 37 42 0 
N 9 85 0 
N 95 63 0 
N 79 44 0 
N 14 34 0 
N 76 58 0 
N 97 50 0 
N 80 19 0 
N 6 40 0 
N 54 47 0 
N 47 28 0 
N 90 8 0 
N 3 9 0 
N 2 18 0 
N 89 87 0 
N 15 11 0 
N 94 35 0 
N 72 98 0 
N 76 2 0 
N 45 67 0 
N 14 93 0 
N 90 18 0 
N 65 85 0 
N 87 83 0 
N 34 35 0 
N 88 13 0 
N 74 46 0 
N 20 19 0 
N 58 40 0 
N 81 55 0 
N 80 20 0 
N 96 40 0 
N 5 6 0 
N 28 74 0 
N 9 53 0 
N 64 10 0 
N 1 58 0 
N 0 4 0 
N 92 49 0 
N 56 41 0 
N 23 36 0 
N 4 71 0 
N 28 35 0 
N 13 98 0 
N 75 48 0 
N 30 61 0 
N 14 79 0 
N 70 7 0 
N 32 18 0 
N 14 77 0 
N 12 22 0 
N 22 77 0 
N 49 55 0 
N 54 2 0 
N 12 67 0 
N 73 59 0 
N 11 5 0 
N 59 95 0 
N 82 89 0 
N 25 69 0 
N 12 65 0 
N 93 37 0 
N 26 7 0 
N 54 40 0 
N 9 54 0 
N 25 62 0 
N 37 78 0 
N 10 54 0 
N 73 17 0 
N 6 66 0 
N 45 2 0 
N 72 34 0 
N 97 3 0 
N 35 25 0 
N 45 36 0 
N 55 48 0 
N 65 23 0 
N 7 46 0 
N 98 83 0 
N 91 76 0 
N 98 92 0 
N 52 92 0 
N 48 20 0 
N 71 27 0 
N 67 29 0 
N 61 89 0 
N 69 81 0 
N 64 48 0 
N 17 92 0 
N 63 39 0 
N 37 5 0 
N 26 84 0 
N 47 47 0 
N 95 75 0 
N 51 32 0 
N 11 18 0 
N 22 50 0 
N 63 25 0 
N 72 77 0 
N 52 88 0 
N 18 91 0 
N 97 9 0 
N 61 13 0 
N 40 55 0 
N 6 33 0 
N 75 18 0 
N 43 91 0 
N 19 62 0 
N 24 3 0 
N 70 83 0 
N 39 43 0 
N 48 50 0 
N 38 76 0 
N 5 58 0 
N 83 79 0 
N 27 95 0 
N 91 48 0 
N 89 71 0 
N 94 2 0 
N 54 56 0 
N 74 98 0 
N 55 18 0 
N 44 95 0 
N 36 7 0 
N 14 24 0 
N 8 98 0 
N 82 49 0 
N 52 56 0 
N 17 96 0 
N 71 48 0 
N 29 70 0 
N 66 27 0 
N 21 44 0 
N 38 50 0 
N 86 3 0 
N 97 91 0 
N 50 98 0 
N 80 89 0 
N 67 14 0 
N 71 56 0 
N 58 51 0 
N 34 48 0 
N 11 87 0 
N 29 35 0 
N 63 49 0 
N 88 65 0 
N 59 72 0 
N 5 95 0 
N 39 33 0 
N 20 27 0 
N 93 61 0 
N 17 1 0 
N 46 98 0 
N 0 72 0 
N 41 77 0 
N 14 39 0 
N 79 39 0 
N 49 72 0 
N 4 45 0 
N 49 91 0 
N 75 98 0 
N 60 44 0 
N 20 62 0 
N 67 56 0 
N 42 96 0 
N 54 60 0 
N 1 4 0 
N 70 5 0 
N 18 81 0 
N 60 48 0 
N 42 6 0 
N 63 42 0 
N 24 64 0 
N 88 25 0 
N 36 63 0 
N 55 99 0 
N 86 98 0 
N 43 31 0 
N 4 97 0 
N 89 77 0 
N 62 98 0 
N 36 55 0 
N 20 5 0 
N 51 17 0 
N 76 74 0 
N 63 70 0 
N 30 20 0 
N 70 33 0 
N 65 37 0 
N 38 27 0 
N 93 38 0 
N 89 86 0 
N 49 0 0 
N 8 99 0 
N 8 41 0 
N 71 78 0 
N 7 7 0 
N 54 25 0 
N 45 3 0 
N 84 56 0 
N 96 4 0 
N 1 31 0 
N 1 86 0 
N 87 39 0 
N 59 36 0 
N 61 45 0 
N 35 22 0 
N 27 75 0 
N 0 90 0 
N 84 16 0 
N 11 78 0 
N 61 65 0 
N 60 15 0 
N 51 42 0 
N 22 84 0 
N 81 31 0 
N 67 2 0 
N 59 56 0 
N 22 27 0 
N 29 66 0 
N 40 89 0 
N 74 57 0 
N 43 43 0 
N 87 40 0 
N 70 81 0 
N 1 48 0 
N 72 99 0 
N 83 46 0 
N 8 37 0 
N 47 99 0 
N 30 91 0 
N 47 53 0 
N 98 64 0 
N 52 5 0 
N 44 79 0 
N 17 77 0 
N 30 51 0 
N 34 75 0 
N 44 43 0 
N 60 9 0 
N 4 35 0 
N 4 42 0 
N 44 96 0 
N 6 42 0 
N 81 23 0 
N 36 50 0 
N 95 4 0 
N 75 24 0 
N 70 68 0 
N 6 63 0 
N 71 36 0 
N 11 96 0 
N 80 77 0 
N 10 40 0 
N 57 35 0 
N 41 34 0 
N 90 57 0 
N 1 24 0 
N 4 29 0 
N 59 88 0 
N 17 83 0 
N 23 21 0 
N 80 48 0 
N 76 86 0 
N 1 68 0 
N 37 59 0 
N 12 77 0 
N 99 54 0 
N 67 91 0 
N 39 37 0 
N 74 21 0 
N 0 64 0 
N 76 64 0 
N 25 13 0 
N 55 60 0 
N 25 2 0 
N 75 2 0 
N 12 13 0 
N 88 73 0 
N 14 64 0 
N 45 14 0 
N 53 30 0 
N 3 1 0 
N 65 62 0 
N 98 0 0 
N 91 79 0 
N 90 97 0 
N 66 81 0 
N 28 99 0 
N 25 45 0 
O 74 67 0 
O 76 4 0 
O 87 0 0 
503
Atoms. Timestep: 26
N 76 50 0 
N 72 4 0 
N 9 1 0 
N 55 14 0 
N 15 50 0 
N 27 47 0 
N 21 88 0 
N 2 50 0 
N 4 39 0 
N 74 5 0 
N 90 50 0 
N 43 12 0 
N 44 32 0 
N 79 74 0 
N 54 16 0 
N 10 99 0 
N 56 73 0 
N 12 35 0 
N 27 79 0 
N 13 73 0 
N 34 51 0 
N 0 84 0 
N 96 31 0 
N 74 69 0 
N 12 56 0 
N 31 61 0 
N 39 1 0 
N 53 44 0 
N 47 79 0 
N 26 57 0 
N 19 82 0 
N 31 70 0 
N 25 38 0 
N 45 73 0 
N 55 2 0 
N 51 48 0 
N 34 67 0 
N 15 68 0 
N 42 62 0 
N 70 54 0 
N 65 0 0 
N 85 52 0 
N 58 87 0 
N 37 16 0 
N 31 98 0 
N 19 24 0 
N 2 72 0 
N 58 0 0 
N 49 47 0 
N 83 68 0 
N 76 82 0 
N 98 5 0 
N 90 84 0 
N 89 75 0 
N 95 43 0 
N 6 97 0 
N 27 6 0 
N 11 45 0 
N 67 58 0 
N 8 49 0 
N 26 49 0 
N 18 59 0 
N 88 43 0 
N 37 29 0 
N 13 65 0 
N 54 19 0 
N 53 58 0 
N 31 29 0 
N 19 73 0 
N 62 55 0 
N 43 20 0 
N 29 85 0 
N 1 9 0 
N 85 11 0 
N 80 34 0 
N 42 2 0 
N 75 29 0 
N 63 37 0 
N 27 9 0 
N 21 18 0 
N 30 48 0 
N 78 76 0 
N 52 6 0 
N 9 40 0 
N 41 43 0 
N 26 61 0 
N 18 63 0 
N 5 54 0 
N 95 12 0 
N 49 18 0 
N 15 32 0 
N 99 13 0 
N 42 26 0 
N 21 69 0 
N 65 35 0 
N 66 50 0 
N 14 22 0 
N 66 92 0 
N 28 60 0 
N 48 58 0 
N 46 10 0 
N 35 17 0 
N 47 23 0 
N 74 68 0 
N 20 45 0 
N 73 74 0 
N 44 8 0 
N 96 58 0 
N 40 38 0 
N 29 22 0 
N 55 77 0 
N 36 57 0 
N 17 16 0 
N 10 8 0 
N 32 46 0 
N 55 33 0 
N 82 21 0 
N 25 47 0 
N 89 32 0 
N 5 31 0 
N 13 74 0 
N 87 1 0 
N 54 50 0 
N 8 19 0 
N 26 71 0 
N 20 36 0 
N 53 19 0 
N 4 26 0 
N 39 6 0 
N 97 41 0 
N 87 59 0 
N 59 83 0 
N 8 12 0 
N 9 29 0 
N 37 68 0 
N 18 30 0 
N 25 78 0 
N 6 41 0 
N 76 51 0 
N 49 2 0 
N 14 61 0 
N 33 30 0 
N 11 18 0 
N 34 92 0 
N 56 27 0 
N 80 28 0 
N 90 42 0 
N 51 87 0 
N 97 7 0 
N 4 11 0 
N 89 5 0 
N 99 49 0 
N 42 52 0 
N 38 53 0 
N 93 91 0 
N 38 46 0 
N 57 2 0 
N 87 28 0 
N 22 41 0 
N 79 86 0 
N 52 79 0 
N 56 17 0 
N 56 68 0 
N 6 79 0 
N 77 31 0 
N 0 94 0 
N 60 66 0 
N 57 87 0 
N 12 93 0 
N 52 31 0 
N 46 4 0 
N 57 88 0 
N 24 62 0 
N 99 17 0 
N 44 72 0 
N 94 96 0 
N 17 84 0 
N 52 19 0 
N 53 9 0 
N 75 16 0 
N 11 60 0 
N 7 20 0 
N 19 1 0 
N 26 13 0 
N 38 48 0 
N 83 46 0 
N 83 61 0 
N 95 20 0 
N 1 34 0 
N 89 53 0 
N 80 74 0 
N 20 20 0 
N 38 65 0 
N 1 79 0 
N 96 75 0 
N 98 54 0 
N 38 7 0 
N 61 57 0 
N 36 24 0 
N 58 62 0 
N 1 99 0 
N 70 60 0 
N 79 14 0 
N 75 36 0 
N 66 49 0 
N 54 63 0 
N 6 84 0 
N 32 27 0 
N 46 69 0 
N 35 15 0 
N 36 42 0 
N 9 86 0 
N 95 64 0 
N 78 44 0 
N 13 34 0 
N 76 59 0 
N 96 50 0 
N 80 20 0 
N 5 40 0 
N 54 46 0 
N 46 28 0 
N 90 7 0 
N 2 9 0 
N 2 17 0 
N 88 87 0 
N 15 12 0 
N 94 34 0 
N 71 98 0 
N 76 3 0 
N 44 67 0 
N 14 94 0 
N 90 17 0 
N 65 86 0 
N 88 83 0 
N 34 34 0 
N 89 13 0 
N 74 45 0 
N 20 18 0 
N 58 41 0 
N 81 54 0 
N 81 20 0 
N 95 40 0 
N 5 5 0 
N 27 74 0 
N 8 53 0 
N 64 11 0 
N 0 58 0 
N 99 4 0 
N 92 50 0 
N 56 40 0 
N 23 37 0 
N 4 72 0 
N 27 35 0 
N 14 98 0 
N 75 47 0 
N 30 62 0 
N 13 79 0 
N 70 8 0 
N 32 17 0 
N 14 78 0 
N 11 22 0 
N 21 77 0 
N 49 54 0 
N 54 1 0 
N 13 67 0 
N 74 59 0 
N 10 5 0 
N 59 94 0 
N 82 88 0 
N 26 69 0 
N 12 64 0 
N 92 37 0 
N 27 7 0 
N 55 40 0 
N 8 54 0 
N 26 62 0 
N 37 77 0 
N 11 54 0 
N 72 17 0 
N 6 65 0 
N 44 2 0 
N 72 33 0 
N 97 2 0 
N 35 26 0 
N 46 36 0 
N 54 48 0 
N 65 24 0 
N 8 46 0 
N 98 82 0 
N 91 75 0 
N 99 92 0 
N 52 91 0 
N 48 19 0 
N 71 26 0 
N 67 30 0 
N 60 89 0 
N 69 82 0 
N 65 48 0 
N 16 92 0 
N 62 39 0 
N 38 5 0 
N 26 83 0 
N 48 47 0 
N 95 74 0 
N 51 33 0 
N 10 18 0 
N 22 51 0 
N 63 24 0 
N 72 76 0 
N 53 88 0 
N 18 90 0 
N 96 9 0 
N 60 13 0 
N 40 56 0 
N 6 32 0 
N 74 18 0 
N 43 90 0 
N 19 61 0 
N 23 3 0 
N 71 83 0 
N 38 43 0 
N 49 50 0 
N 37 76 0 
N 5 59 0 
N 82 79 0 
N 28 95 0 
N 90 48 0 
N 89 70 0 
N 94 1 0 
N 53 56 0 
N 74 99 0 
N 55 17 0 
N 44 94 0 
N 36 6 0 
N 13 24 0 
N 8 99 0 
N 81 49 0 
N 52 55 0 
N 16 96 0 
N 71 49 0 
N 30 70 0 
N 65 27 0 
N 22 44 0 
N 39 50 0 
N 87 3 0 
N 97 90 0 
N 49 98 0 
N 80 88 0 
N 67 13 0 
N 71 55 0 
N 58 50 0 
N 33 48 0 
N 10 87 0 
N 29 34 0 
N 62 49 0 
N 88 66 0 
N 59 73 0 
N 4 95 0 
N 39 34 0 
N 20 26 0 
N 92 61 0 
N 17 2 0 
N 46 97 0 
N 0 71 0 
N 42 77 0 
N 14 40 0 
N 79 38 0 
N 48 72 0 
N 4 46 0 
N 49 92 0 
N 76 98 0 
N 60 45 0 
N 20 61 0 
N 68 56 0 
N 41 96 0 
N 53 60 0 
N 2 4 0 
N 70 4 0 
N 18 82 0 
N 60 49 0 
N 43 6 0 
N 63 41 0 
N 24 65 0 
N 88 26 0 
N 37 63 0 
N 55 98 0 
N 86 97 0 
N 44 31 0 
N 4 98 0 
N 89 76 0 
N 61 98 0 
N 37 55 0 
N 19 5 0 
N 51 16 0 
N 77 74 0 
N 63 69 0 
N 31 20 0 
N 70 32 0 
N 64 37 0 
N 37 27 0 
N 93 39 0 
N 88 86 0 
N 49 99 0 
N 7 99 0 
N 8 40 0 
N 71 77 0 
N 7 6 0 
N 54 26 0 
N 46 3 0 
N 84 57 0 
N 96 5 0 
N 0 31 0 
N 1 85 0 
N 87 38 0 
N 59 35 0 
N 62 45 0 
N 34 22 0 
N 26 75 0 
N 99 90 0 
N 84 15 0 
N 10 78 0 
N 62 65 0 
N 60 14 0 
N 50 42 0 
N 22 83 0 
N 81 32 0 
N 68 2 0 
N 58 56 0 
N 23 27 0 
N 30 66 0 
N 41 89 0 
N 73 57 0 
N 43 42 0 
N 87 41 0 
N 71 81 0 
N 0 48 0 
N 72 0 0 
N 83 45 0 
N 9 37 0 
N 46 99 0 
N 29 91 0 
N 48 53 0 
N 98 65 0 
N 53 5 0 
N 45 79 0 
N 16 77 0 
N 30 52 0 
N 34 76 0 
N 44 44 0 
N 61 9 0 
N 3 35 0 
N 4 41 0 
N 45 96 0 
N 5 42 0 
N 82 23 0 
N 35 50 0 
N 95 5 0 
N 75 25 0 
N 70 67 0 
N 6 64 0 
N 70 36 0 
N 11 95 0 
N 79 77 0 
N 10 41 0 
N 57 36 0 
N 40 34 0 
N 90 56 0 
N 2 24 0 
N 3 29 0 
N 60 88 0 
N 16 83 0 
N 22 21 0 
N 81 48 0 
N 76 85 0 
N 0 68 0 
N 37 60 0 
N 12 78 0 
N 99 53 0 
N 67 90 0 
N 38 37 0 
N 74 22 0 
N 1 64 0 
N 76 65 0 
N 24 13 0 
N 55 59 0 
N 24 2 0 
N 75 3 0 
N 11 13 0 
N 89 73 0 
N 15 64 0 
N 45 15 0 
N 53 29 0 
N 4 1 0 
N 65 63 0 
N 98 1 0 
N 92 79 0 
N 91 97 0 
N 67 81 0 
N 27 99 0 
N 26 45 0 
O 75 67 0 
O 75 4 0 
O 87 99 0 
502
Atoms. Timestep: 27
N 76 49 0 
N 72 3 0 
N 9 2 0 
N 54 14 0 
N 15 51 0 
N 27 48 0 
N 22 88 0 
N 2 49 0 
N 5 39 0 
N 75 5 0 
N 91 50 0 
N 43 13 0 
N 45 32 0 
N 79 75 0 
N 53 16 0 
N 9 99 0 
N 57 73 0 
N 12 34 0 
N 26 79 0 
N 13 74 0 
N 34 50 0 
N 99 84 0 
N 96 30 0 
N 74 68 0 
N 11 56 0 
N 32 61 0 
N 38 1 0 
N 53 45 0 
N 48 79 0 
N 25 57 0 
N 18 82 0 
N 31 69 0 
N 25 37 0 
N 44 73 0 
N 55 3 0 
N 52 48 0 
N 34 66 0 
N 16 68 0 
N 41 62 0 
N 70 55 0 
N 65 1 0 
N 85 51 0 
N 58 86 0 
N 37 17 0 
N 30 98 0 
N 20 24 0 
N 1 72 0 
N 58 1 0 
N 48 47 0 
N 84 68 0 
N 75 82 0 
N 98 4 0 
N 91 84 0 
N 89 74 0 
N 95 44 0 
N 6 96 0 
N 26 6 0 
N 11 46 0 
N 66 58 0 
N 8 50 0 
N 26 50 0 
N 19 59 0 
N 87 43 0 
N 37 30 0 
N 13 66 0 
N 54 18 0 
N 53 57 0 
N 31 30 0 
N 19 74 0 
N 63 55 0 
N 43 19 0 
N 29 86 0 
N 2 9 0 
N 86 11 0 
N 79 34 0 
N 41 2 0 
N 74 29 0 
N 62 37 0 
N 27 8 0 
N 21 19 0 
N 30 49 0 
N 78 75 0 
N 51 6 0 
N 10 40 0 
N 40 43 0 
N 26 62 0 
N 19 63 0 
N 5 55 0 
N 95 11 0 
N 49 17 0 
N 15 33 0 
N 99 14 0 
N 42 27 0 
N 21 70 0 
N 65 34 0 
N 67 50 0 
N 14 23 0 
N 67 92 0 
N 29 60 0 
N 47 58 0 
N 46 9 0 
N 34 17 0 
N 46 23 0 
N 75 68 0 
N 20 46 0 
N 73 75 0 
N 44 7 0 
N 96 59 0 
N 39 38 0 
N 29 23 0 
N 55 78 0 
N 36 58 0 
N 17 17 0 
N 9 8 0 
N 33 46 0 
N 56 33 0 
N 82 20 0 
N 26 47 0 
N 89 33 0 
N 6 31 0 
N 14 74 0 
N 87 2 0 
N 54 49 0 
N 8 18 0 
N 25 71 0 
N 21 36 0 
N 52 19 0 
N 4 27 0 
N 39 7 0 
N 96 41 0 
N 87 60 0 
N 58 83 0 
N 8 11 0 
N 8 29 0 
N 36 68 0 
N 18 31 0 
N 24 78 0 
N 6 42 0 
N 77 51 0 
N 48 2 0 
N 13 61 0 
N 33 29 0 
N 12 18 0 
N 34 93 0 
N 56 28 0 
N 80 27 0 
N 91 42 0 
N 50 87 0 
N 96 7 0 
N 3 11 0 
N 88 5 0 
N 99 50 0 
N 42 53 0 
N 37 53 0 
N 93 92 0 
N 39 46 0 
N 56 2 0 
N 86 28 0 
N 22 40 0 
N 79 85 0 
N 51 79 0 
N 56 18 0 
N 56 69 0 
N 5 79 0 
N 77 32 0 
N 99 94 0 
N 60 67 0 
N 57 86 0 
N 12 92 0 
N 52 32 0 
N 46 3 0 
N 58 88 0 
N 23 62 0 
N 99 18 0 
N 44 71 0 
N 93 96 0 
N 17 85 0 
N 52 20 0 
N 53 8 0 
N 75 17 0 
N 10 60 0 
N 8 20 0 
N 20 1 0 
N 26 14 0 
N 38 49 0 
N 84 46 0 
N 83 62 0 
N 94 20 0 
N 0 34 0 
N 89 54 0 
N 80 73 0 
N 20 21 0 
N 39 65 0 
N 1 80 0 
N 96 74 0 
N 98 55 0 
N 38 6 0 
N 61 56 0 
N 36 25 0 
N 58 61 0 
N 1 0 0 
N 70 59 0 
N 80 14 0 
N 74 36 0 
N 67 49 0 
N 54 64 0 
N 6 85 0 
N 32 28 0 
N 45 69 0 
N 35 16 0 
N 37 42 0 
N 9 87 0 
N 95 65 0 
N 78 43 0 
N 13 35 0 
N 76 60 0 
N 96 49 0 
N 80 19 0 
N 6 40 0 
N 53 46 0 
N 46 27 0 
N 90 6 0 
N 2 10 0 
N 1 17 0 
N 87 87 0 
N 15 11 0 
N 94 35 0 
N 70 98 0 
N 77 3 0 
N 43 67 0 
N 14 95 0 
N 91 17 0 
N 66 86 0 
N 88 82 0 
N 33 34 0 
N 89 14 0 
N 73 45 0 
N 20 19 0 
N 57 41 0 
N 81 55 0 
N 81 21 0 
N 95 41 0 
N 5 6 0 
N 28 74 0 
N 8 54 0 
N 64 12 0 
N 0 59 0 
N 0 4 0 
N 93 50 0 
N 55 40 0 
N 22 37 0 
N 5 72 0 
N 28 35 0 
N 13 98 0 
N 75 46 0 
N 30 61 0 
N 13 78 0 
N 69 8 0 
N 31 17 0 
N 15 78 0 
N 12 22 0 
N 21 76 0 
N 49 55 0 
N 54 0 0 
N 14 67 0 
N 75 59 0 
N 9 5 0 
N 60 94 0 
N 83 88 0 
N 26 68 0 
N 12 63 0 
N 91 37 0 
N 28 7 0 
N 55 39 0 
N 8 55 0 
N 25 62 0 
N 38 77 0 
N 11 53 0 
N 73 17 0 
N 6 66 0 
N 43 2 0 
N 71 33 0 
N 96 2 0 
N 35 25 0 
N 46 37 0 
N 53 48 0 
N 65 25 0 
N 9 46 0 
N 99 82 0 
N 90 75 0 
N 98 92 0 
N 52 92 0 
N 49 19 0 
N 71 27 0 
N 66 30 0 
N 60 90 0 
N 69 81 0 
N 65 49 0 
N 17 92 0 
N 61 39 0 
N 38 4 0 
N 27 83 0 
N 48 48 0 
N 95 75 0 
N 51 34 0 
N 10 17 0 
N 21 51 0 
N 64 24 0 
N 73 76 0 
N 53 87 0 
N 17 90 0 
N 97 9 0 
N 61 13 0 
N 40 57 0 
N 7 32 0 
N 74 17 0 
N 43 91 0 
N 20 61 0 
N 23 4 0 
N 70 83 0 
N 38 44 0 
N 50 50 0 
N 36 76 0 
N 5 58 0 
N 82 78 0 
N 28 94 0 
N 89 48 0 
N 88 70 0 
N 95 1 0 
N 52 56 0 
N 75 99 0 
N 55 18 0 
N 44 93 0 
N 35 6 0 
N 13 23 0 
N 8 98 0 
N 81 50 0 
N 51 55 0 
N 16 95 0 
N 71 50 0 
N 30 71 0 
N 64 27 0 
N 22 43 0 
N 38 50 0 
N 87 4 0 
N 98 90 0 
N 48 98 0 
N 80 89 0 
N 68 13 0 
N 71 56 0 
N 58 51 0 
N 34 48 0 
N 10 86 0 
N 29 33 0 
N 63 49 0 
N 88 67 0 
N 59 74 0 
N 4 96 0 
N 39 35 0 
N 20 25 0 
N 92 60 0 
N 17 3 0 
N 46 98 0 
N 0 72 0 
N 41 77 0 
N 13 40 0 
N 80 38 0 
N 49 72 0 
N 5 46 0 
N 48 92 0 
N 76 97 0 
N 61 45 0 
N 20 62 0 
N 68 57 0 
N 41 97 0 
N 53 59 0 
N 1 4 0 
N 70 3 0 
N 18 81 0 
N 59 49 0 
N 43 5 0 
N 63 40 0 
N 23 65 0 
N 88 27 0 
N 37 62 0 
N 55 97 0 
N 87 97 0 
N 45 31 0 
N 3 98 0 
N 90 76 0 
N 60 98 0 
N 37 56 0 
N 18 5 0 
N 51 15 0 
N 78 74 0 
N 63 68 0 
N 32 20 0 
N 69 32 0 
N 64 36 0 
N 38 27 0 
N 93 38 0 
N 87 86 0 
N 49 0 0 
N 6 99 0 
N 7 40 0 
N 71 76 0 
N 7 7 0 
N 55 26 0 
N 47 3 0 
N 85 57 0 
N 97 5 0 
N 0 30 0 
N 1 84 0 
N 88 38 0 
N 58 35 0 
N 62 46 0 
N 34 21 0 
N 27 75 0 
N 0 90 0 
N 85 15 0 
N 10 77 0 
N 62 64 0 
N 60 15 0 
N 51 42 0 
N 22 82 0 
N 82 32 0 
N 68 1 0 
N 57 56 0 
N 23 28 0 
N 30 65 0 
N 41 88 0 
N 73 56 0 
N 43 43 0 
N 88 41 0 
N 72 81 0 
N 1 48 0 
N 71 0 0 
N 84 45 0 
N 8 37 0 
N 47 99 0 
N 29 92 0 
N 48 52 0 
N 99 65 0 
N 52 5 0 
N 45 80 0 
N 16 78 0 
N 30 51 0 
N 35 76 0 
N 45 44 0 
N 61 10 0 
N 3 34 0 
N 4 40 0 
N 46 96 0 
N 4 42 0 
N 82 22 0 
N 35 49 0 
N 95 4 0 
N 76 25 0 
N 71 67 0 
N 6 63 0 
N 71 36 0 
N 11 96 0 
N 80 77 0 
N 11 41 0 
N 57 35 0 
N 40 33 0 
N 90 55 0 
N 1 24 0 
N 3 30 0 
N 61 88 0 
N 16 82 0 
N 22 22 0 
N 80 48 0 
N 76 86 0 
N 99 68 0 
N 36 60 0 
N 12 79 0 
N 0 53 0 
N 67 91 0 
N 38 36 0 
N 74 21 0 
N 2 64 0 
N 76 66 0 
N 23 13 0 
N 56 59 0 
N 24 1 0 
N 75 4 0 
N 11 12 0 
N 90 73 0 
N 16 64 0 
N 44 15 0 
N 52 29 0 
N 3 1 0 
N 66 63 0 
N 97 1 0 
N 93 79 0 
N 90 97 0 
N 67 80 0 
N 27 98 0 
N 26 44 0 
O 75 66 0 
O 86 99 0 
501
Atoms. Timestep: 28
N 76 50 0 
N 73 3 0 
N 9 1 0 
N 55 14 0 
N 15 50 0 
N 27 49 0 
N 22 89 0 
N 2 48 0 
N 5 40 0 
N 76 5 0 
N 92 50 0 
N 43 12 0 
N 46 32 0 
N 80 75 0 
N 53 15 0 
N 9 0 0 
N 58 73 0 
N 13 34 0 
N 27 79 0 
N 12 74 0 
N 35 50 0 
N 99 85 0 
N 97 30 0 
N 74 69 0 
N 12 56 0 
N 32 62 0 
N 37 1 0 
N 54 45 0 
N 49 79 0 
N 25 58 0 
N 19 82 0 
N 32 69 0 
N 26 37 0 
N 43 73 0 
N 56 3 0 
N 52 49 0 
N 34 67 0 
N 16 67 0 
N 41 61 0 
N 69 55 0 
N 64 1 0 
N 84 51 0 
N 59 86 0 
N 37 16 0 
N 31 98 0 
N 20 25 0 
N 0 72 0 
N 58 2 0 
N 48 46 0 
N 84 69 0 
N 75 83 0 
N 99 4 0 
N 92 84 0 
N 90 74 0 
N 94 44 0 
N 6 97 0 
N 25 6 0 
N 11 47 0 
N 65 58 0 
N 7 50 0 
N 25 50 0 
N 19 58 0 
N 87 42 0 
N 37 29 0 
N 14 66 0 
N 55 18 0 
N 53 58 0 
N 31 29 0 
N 18 74 0 
N 63 54 0 
N 42 19 0 
N 29 85 0 
N 2 10 0 
N 87 11 0 
N 79 35 0 
N 41 3 0 
N 74 28 0 
N 62 38 0 
N 27 9 0 
N 20 19 0 
N 30 48 0 
N 78 74 0 
N 51 7 0 
N 10 41 0 
N 40 42 0 
N 27 62 0 
N 19 64 0 
N 5 56 0 
N 95 12 0 
N 48 17 0 
N 14 33 0 
N 99 15 0 
N 42 26 0 
N 21 69 0 
N 66 34 0 
N 66 50 0 
N 14 22 0 
N 66 92 0 
N 28 60 0 
N 47 57 0 
N 45 9 0 
N 33 17 0 
N 45 23 0 
N 75 69 0 
N 19 46 0 
N 74 75 0 
N 44 6 0 
N 97 59 0 
N 39 39 0 
N 30 23 0 
N 55 79 0 
N 36 59 0 
N 18 17 0 
N 9 9 0 
N 34 46 0 
N 56 34 0 
N 81 20 0 
N 27 47 0 
N 89 34 0 
N 7 31 0 
N 14 75 0 
N 86 2 0 
N 54 50 0 
N 9 18 0 
N 24 71 0 
N 20 36 0 
N 53 19 0 
N 3 27 0 
N 39 8 0 
N 96 42 0 
N 86 60 0 
N 58 84 0 
N 8 10 0 
N 7 29 0 
N 36 67 0 
N 18 32 0 
N 24 79 0 
N 7 42 0 
N 77 50 0 
N 49 2 0 
N 14 61 0 
N 33 30 0 
N 13 18 0 
N 34 92 0 
N 57 28 0 
N 80 28 0 
N 91 41 0 
N 50 88 0 
N 95 7 0 
N 2 11 0 
N 89 5 0 
N 98 50 0 
N 42 52 0 
N 37 54 0 
N 93 93 0 
N 39 45 0 
N 55 2 0 
N 85 28 0 
N 21 40 0 
N 78 85 0 
N 52 79 0 
N 56 17 0 
N 56 68 0 
N 6 79 0 
N 78 32 0 
N 99 95 0 
N 60 66 0 
N 56 86 0 
N 13 92 0 
N 51 32 0 
N 46 4 0 
N 59 88 0 
N 23 61 0 
N 0 18 0 
N 44 72 0 
N 93 95 0 
N 16 85 0 
N 51 20 0 
N 52 8 0 
N 75 16 0 
N 9 60 0 
N 8 19 0 
N 20 0 0 
N 27 14 0 
N 37 49 0 
N 85 46 0 
N 83 63 0 
N 94 21 0 
N 99 34 0 
N 89 55 0 
N 80 72 0 
N 20 22 0 
N 38 65 0 
N 0 80 0 
N 96 73 0 
N 98 56 0 
N 38 7 0 
N 61 57 0 
N 36 26 0 
N 59 61 0 
N 1 1 0 
N 71 59 0 
N 80 15 0 
N 74 35 0 
N 66 49 0 
N 53 64 0 
N 6 86 0 
N 32 29 0 
N 45 68 0 
N 35 17 0 
N 36 42 0 
N 9 86 0 
N 96 65 0 
N 78 42 0 
N 14 35 0 
N 76 59 0 
N 96 50 0 
N 80 18 0 
N 6 41 0 
N 54 46 0 
N 47 27 0 
N 90 7 0 
N 1 10 0 
N 1 16 0 
N 87 88 0 
N 16 11 0 
N 95 35 0 
N 69 98 0 
N 76 3 0 
N 43 68 0 
N 14 94 0 
N 90 17 0 
N 66 87 0 
N 88 81 0 
N 34 34 0 
N 88 14 0 
N 72 45 0 
N 19 19 0 
N 58 41 0 
N 80 55 0 
N 81 22 0 
N 95 40 0 
N 5 7 0 
N 29 74 0 
N 8 55 0 
N 64 11 0 
N 1 59 0 
N 0 5 0 
N 94 50 0 
N 55 39 0 
N 23 37 0 
N 5 71 0 
N 28 36 0 
N 13 97 0 
N 74 46 0 
N 30 60 0 
N 13 77 0 
N 68 8 0 
N 31 16 0 
N 16 78 0 
N 12 23 0 
N 21 77 0 
N 49 56 0 
N 53 0 0 
N 13 67 0 
N 74 59 0 
N 10 5 0 
N 61 94 0 
N 82 88 0 
N 26 67 0 
N 11 63 0 
N 91 38 0 
N 28 6 0 
N 56 39 0 
N 9 55 0 
N 24 62 0 
N 38 76 0 
N 10 53 0 
N 73 16 0 
N 7 66 0 
N 42 2 0 
N 71 34 0 
N 96 3 0 
N 34 25 0 
N 46 38 0 
N 53 47 0 
N 66 25 0 
N 8 46 0 
N 99 83 0 
N 90 76 0 
N 99 92 0 
N 52 93 0 
N 48 19 0 
N 72 27 0 
N 66 29 0 
N 61 90 0 
N 69 82 0 
N 64 49 0 
N 18 92 0 
N 61 38 0 
N 39 4 0 
N 27 82 0 
N 48 49 0 
N 95 74 0 
N 50 34 0 
N 10 18 0 
N 21 52 0 
N 64 23 0 
N 72 76 0 
N 52 87 0 
N 17 89 0 
N 96 9 0 
N 61 12 0 
N 40 56 0 
N 8 32 0 
N 74 18 0 
N 44 91 0 
N 19 61 0 
N 23 3 0 
N 70 84 0 
N 38 43 0 
N 49 50 0 
N 37 76 0 
N 5 57 0 
N 81 78 0 
N 28 95 0 
N 88 48 0 
N 87 70 0 
N 96 1 0 
N 52 57 0 
N 75 98 0 
N 55 17 0 
N 44 92 0 
N 35 5 0 
N 13 22 0 
N 9 98 0 
N 81 49 0 
N 52 55 0 
N 16 96 0 
N 71 51 0 
N 30 70 0 
N 63 27 0 
N 21 43 0 
N 39 50 0 
N 87 5 0 
N 97 90 0 
N 49 98 0 
N 80 88 0 
N 68 12 0 
N 70 56 0 
N 57 51 0 
N 34 47 0 
N 10 87 0 
N 30 33 0 
N 63 50 0 
N 88 66 0 
N 58 74 0 
N 4 95 0 
N 38 35 0 
N 19 25 0 
N 92 59 0 
N 18 3 0 
N 46 97 0 
N 99 72 0 
N 40 77 0 
N 12 40 0 
N 81 38 0 
N 49 71 0 
N 5 47 0 
N 47 92 0 
N 77 97 0 
N 62 45 0 
N 21 62 0 
N 68 56 0 
N 42 97 0 
N 52 59 0 
N 1 3 0 
N 70 2 0 
N 17 81 0 
N 58 49 0 
N 44 5 0 
N 63 39 0 
N 24 65 0 
N 88 26 0 
N 38 62 0 
N 55 98 0 
N 87 98 0 
N 44 31 0 
N 3 97 0 
N 90 77 0 
N 59 98 0 
N 38 56 0 
N 18 6 0 
N 52 15 0 
N 78 73 0 
N 63 69 0 
N 32 19 0 
N 69 31 0 
N 63 36 0 
N 37 27 0 
N 93 39 0 
N 87 85 0 
N 50 0 0 
N 5 99 0 
N 8 40 0 
N 70 76 0 
N 8 7 0 
N 56 26 0 
N 47 2 0 
N 85 56 0 
N 97 4 0 
N 1 30 0 
N 0 84 0 
N 87 38 0 
N 59 35 0 
N 61 46 0 
N 35 21 0 
N 28 75 0 
N 1 90 0 
N 85 16 0 
N 11 77 0 
N 61 64 0 
N 59 15 0 
N 51 41 0 
N 23 82 0 
N 81 32 0 
N 67 1 0 
N 56 56 0 
N 23 29 0 
N 30 66 0 
N 40 88 0 
N 74 56 0 
N 43 42 0 
N 88 42 0 
N 73 81 0 
N 0 48 0 
N 70 0 0 
N 85 45 0 
N 7 37 0 
N 47 0 0 
N 29 91 0 
N 48 51 0 
N 99 64 0 
N 52 6 0 
N 45 81 0 
N 16 77 0 
N 30 52 0 
N 35 77 0 
N 46 44 0 
N 61 9 0 
N 3 33 0 
N 3 40 0 
N 47 96 0 
N 5 42 0 
N 82 23 0 
N 34 49 0 
N 94 4 0 
N 77 25 0 
N 70 67 0 
N 5 63 0 
N 72 36 0 
N 11 97 0 
N 80 76 0 
N 11 42 0 
N 57 36 0 
N 40 32 0 
N 90 54 0 
N 1 25 0 
N 4 30 0 
N 61 89 0 
N 17 82 0 
N 22 21 0 
N 79 48 0 
N 76 85 0 
N 99 67 0 
N 37 60 0 
N 11 79 0 
N 1 53 0 
N 66 91 0 
N 38 37 0 
N 74 20 0 
N 2 65 0 
N 75 66 0 
N 23 14 0 
N 55 59 0 
N 25 1 0 
N 74 4 0 
N 10 12 0 
N 90 72 0 
N 16 63 0 
N 44 16 0 
N 52 30 0 
N 4 1 0 
N 67 63 0 
N 98 1 0 
N 94 79 0 
N 90 98 0 
N 67 81 0 
N 27 97 0 
N 26 45 0 
O 86 0 0 
501
Atoms. Timestep: 29
N 77 50 0 
N 74 3 0 
N 8 1 0 
N 55 15 0 
N 15 49 0 
N 27 50 0 
N 21 89 0 
N 2 49 0 
N 5 41 0 
N 76 4 0 
N 92 49 0 
N 43 13 0 
N 47 32 0 
N 81 75 0 
N 53 14 0 
N 9 99 0 
N 58 72 0 
N 12 34 0 
N 27 80 0 
N 12 75 0 
N 34 50 0 
N 99 86 0 
N 96 30 0 
N 75 69 0 
N 12 57 0 
N 33 62 0 
N 37 0 0 
N 54 44 0 
N 48 79 0 
N 24 58 0 
N 19 83 0 
N 33 69 0 
N 26 36 0 
N 42 73 0 
N 55 3 0 
N 51 49 0 
N 35 67 0 
N 17 67 0 
N 41 62 0 
N 68 55 0 
N 64 2 0 
N 85 51 0 
N 58 86 0 
N 37 17 0 
N 30 98 0 
N 21 25 0 
N 1 72 0 
N 58 3 0 
N 48 45 0 
N 84 70 0 
N 75 84 0 
N 98 4 0 
N 92 85 0 
N 91 74 0 
N 95 44 0 
N 5 97 0 
N 24 6 0 
N 10 47 0 
N 65 59 0 
N 7 49 0 
N 26 50 0 
N 19 57 0 
N 88 42 0 
N 38 29 0 
N 15 66 0 
N 55 19 0 
N 53 59 0 
N 30 29 0 
N 18 73 0 
N 62 54 0 
N 42 20 0 
N 29 84 0 
N 3 10 0 
N 86 11 0 
N 80 35 0 
N 41 2 0 
N 74 29 0 
N 61 38 0 
N 26 9 0 
N 20 20 0 
N 29 48 0 
N 77 74 0 
N 51 8 0 
N 9 41 0 
N 39 42 0 
N 27 61 0 
N 19 63 0 
N 4 56 0 
N 95 13 0 
N 49 17 0 
N 13 33 0 
N 99 14 0 
N 42 25 0 
N 21 70 0 
N 66 35 0 
N 66 49 0 
N 14 21 0 
N 67 92 0 
N 28 59 0 
N 47 58 0 
N 44 9 0 
N 33 16 0 
N 45 22 0 
N 75 70 0 
N 20 46 0 
N 73 75 0 
N 45 6 0 
N 97 60 0 
N 39 40 0 
N 30 24 0 
N 56 79 0 
N 35 59 0 
N 17 17 0 
N 8 9 0 
N 35 46 0 
N 57 34 0 
N 81 19 0 
N 27 48 0 
N 90 34 0 
N 7 32 0 
N 14 74 0 
N 86 1 0 
N 53 50 0 
N 10 18 0 
N 23 71 0 
N 19 36 0 
N 53 18 0 
N 3 28 0 
N 40 8 0 
N 96 41 0 
N 86 61 0 
N 58 83 0 
N 7 10 0 
N 7 30 0 
N 36 66 0 
N 17 32 0 
N 24 80 0 
N 7 41 0 
N 78 50 0 
N 49 1 0 
N 14 62 0 
N 33 29 0 
N 13 17 0 
N 33 92 0 
N 56 28 0 
N 80 27 0 
N 91 40 0 
N 51 88 0 
N 94 7 0 
N 3 11 0 
N 89 4 0 
N 98 51 0 
N 43 52 0 
N 38 54 0 
N 94 93 0 
N 39 46 0 
N 56 2 0 
N 85 27 0 
N 22 40 0 
N 78 84 0 
N 52 78 0 
N 56 16 0 
N 56 67 0 
N 7 79 0 
N 79 32 0 
N 99 94 0 
N 60 67 0 
N 57 86 0 
N 12 92 0 
N 51 31 0 
N 47 4 0 
N 60 88 0 
N 23 62 0 
N 0 17 0 
N 45 72 0 
N 94 95 0 
N 17 85 0 
N 52 20 0 
N 52 7 0 
N 74 16 0 
N 8 60 0 
N 8 18 0 
N 20 99 0 
N 27 15 0 
N 36 49 0 
N 85 47 0 
N 84 63 0 
N 93 21 0 
N 99 33 0 
N 90 55 0 
N 81 72 0 
N 21 22 0 
N 39 65 0 
N 1 80 0 
N 96 74 0 
N 98 57 0 
N 39 7 0 
N 60 57 0 
N 37 26 0 
N 59 60 0 
N 0 1 0 
N 72 59 0 
N 80 16 0 
N 74 34 0 
N 65 49 0 
N 53 65 0 
N 5 86 0 
N 32 28 0 
N 44 68 0 
N 35 18 0 
N 35 42 0 
N 9 85 0 
N 97 65 0 
N 78 41 0 
N 14 34 0 
N 76 58 0 
N 97 50 0 
N 79 18 0 
N 6 40 0 
N 53 46 0 
N 48 27 0 
N 89 7 0 
N 1 11 0 
N 1 15 0 
N 87 89 0 
N 16 12 0 
N 95 36 0 
N 70 98 0 
N 75 3 0 
N 43 69 0 
N 14 93 0 
N 89 17 0 
N 66 88 0 
N 87 81 0 
N 35 34 0 
N 89 14 0 
N 73 45 0 
N 19 18 0 
N 59 41 0 
N 80 54 0 
N 80 22 0 
N 95 41 0 
N 6 7 0 
N 30 74 0 
N 8 54 0 
N 64 10 0 
N 0 59 0 
N 99 5 0 
N 94 49 0 
N 55 38 0 
N 23 38 0 
N 5 72 0 
N 27 36 0 
N 14 97 0 
N 74 47 0 
N 29 60 0 
N 14 77 0 
N 68 9 0 
N 30 16 0 
N 15 78 0 
N 12 24 0 
N 22 77 0 
N 49 57 0 
N 53 1 0 
N 14 67 0 
N 74 58 0 
N 10 4 0 
N 62 94 0 
N 82 89 0 
N 26 66 0 
N 12 63 0 
N 90 38 0 
N 29 6 0 
N 56 38 0 
N 9 54 0 
N 24 63 0 
N 38 75 0 
N 10 52 0 
N 73 15 0 
N 7 67 0 
N 43 2 0 
N 72 34 0 
N 95 3 0 
N 33 25 0 
N 47 38 0 
N 53 48 0 
N 66 26 0 
N 7 46 0 
N 98 83 0 
N 91 76 0 
N 0 92 0 
N 52 92 0 
N 49 19 0 
N 71 27 0 
N 66 28 0 
N 62 90 0 
N 70 82 0 
N 64 48 0 
N 18 93 0 
N 61 39 0 
N 39 3 0 
N 28 82 0 
N 48 48 0 
N 95 73 0 
N 50 35 0 
N 10 19 0 
N 21 51 0 
N 64 22 0 
N 72 77 0 
N 51 87 0 
N 18 89 0 
N 96 10 0 
N 62 12 0 
N 40 57 0 
N 8 33 0 
N 74 19 0 
N 45 91 0 
N 19 60 0 
N 23 2 0 
N 70 85 0 
N 38 42 0 
N 49 49 0 
N 37 77 0 
N 4 57 0 
N 80 78 0 
N 28 96 0 
N 88 49 0 
N 87 69 0 
N 96 2 0 
N 52 58 0 
N 75 99 0 
N 55 16 0 
N 44 93 0 
N 36 5 0 
N 13 23 0 
N 10 98 0 
N 82 49 0 
N 52 56 0 
N 16 95 0 
N 70 51 0 
N 29 70 0 
N 63 28 0 
N 22 43 0 
N 39 51 0 
N 87 4 0 
N 97 91 0 
N 49 99 0 
N 80 89 0 
N 69 12 0 
N 70 57 0 
N 57 50 0 
N 34 48 0 
N 9 87 0 
N 30 34 0 
N 63 51 0 
N 89 66 0 
N 57 74 0 
N 4 96 0 
N 39 35 0 
N 18 25 0 
N 92 58 0 
N 17 3 0 
N 46 96 0 
N 98 72 0 
N 40 78 0 
N 13 40 0 
N 82 38 0 
N 48 71 0 
N 5 48 0 
N 46 92 0 
N 78 97 0 
N 62 44 0 
N 21 61 0 
N 69 56 0 
N 41 97 0 
N 52 60 0 
N 1 2 0 
N 71 2 0 
N 17 82 0 
N 58 50 0 
N 45 5 0 
N 63 38 0 
N 23 65 0 
N 89 26 0 
N 39 62 0 
N 54 98 0 
N 87 97 0 
N 44 30 0 
N 4 97 0 
N 89 77 0 
N 60 98 0 
N 38 57 0 
N 18 7 0 
N 52 14 0 
N 79 73 0 
N 62 69 0 
N 32 18 0 
N 69 30 0 
N 63 37 0 
N 36 27 0 
N 92 39 0 
N 86 85 0 
N 50 99 0 
N 5 0 0 
N 7 40 0 
N 69 76 0 
N 8 6 0 
N 57 26 0 
N 46 2 0 
N 85 55 0 
N 96 4 0 
N 0 30 0 
N 1 84 0 
N 86 38 0 
N 59 36 0 
N 61 45 0 
N 35 20 0 
N 27 75 0 
N 1 89 0 
N 84 16 0 
N 11 76 0 
N 61 63 0 
N 59 16 0 
N 50 41 0 
N 23 83 0 
N 81 31 0 
N 67 0 0 
N 56 55 0 
N 24 29 0 
N 30 67 0 
N 39 88 0 
N 75 56 0 
N 43 43 0 
N 89 42 0 
N 73 80 0 
N 0 49 0 
N 69 0 0 
N 84 45 0 
N 6 37 0 
N 47 99 0 
N 28 91 0 
N 48 50 0 
N 98 64 0 
N 53 6 0 
N 44 81 0 
N 15 77 0 
N 30 51 0 
N 36 77 0 
N 46 43 0 
N 61 8 0 
N 3 34 0 
N 4 40 0 
N 48 96 0 
N 5 43 0 
N 82 22 0 
N 33 49 0 
N 93 4 0 
N 76 25 0 
N 70 66 0 
N 5 64 0 
N 72 35 0 
N 12 97 0 
N 81 76 0 
N 12 42 0 
N 58 36 0 
N 39 32 0 
N 90 53 0 
N 0 25 0 
N 5 30 0 
N 60 89 0 
N 17 83 0 
N 21 21 0 
N 79 49 0 
N 76 84 0 
N 98 67 0 
N 38 60 0 
N 12 79 0 
N 2 53 0 
N 66 90 0 
N 37 37 0 
N 73 20 0 
N 3 65 0 
N 75 67 0 
N 23 15 0 
N 55 60 0 
N 24 1 0 
N 73 4 0 
N 11 12 0 
N 89 72 0 
N 16 64 0 
N 43 16 0 
N 52 31 0 
N 5 1 0 
N 67 64 0 
N 97 1 0 
N 95 79 0 
N 90 97 0 
N 67 82 0 
N 27 96 0 
N 27 45 0 
O 85 0 0 
501
Atoms. Timestep: 30
N 78 50 0 
N 74 2 0 
N 8 0 0 
N 55 16 0 
N 14 49 0 
N 28 50 0 
N 21 88 0 
N 2 48 0 
N 5 40 0 
N 77 4 0 
N 92 48 0 
N 42 13 0 
N 46 32 0 
N 81 76 0 
N 53 15 0 
N 9 0 0 
N 58 71 0 
N 12 35 0 
N 26 80 0 
N 12 76 0 
N 34 51 0 
N 99 87 0 
N 97 30 0 
N 76 69 0 
N 12 56 0 
N 33 61 0 
N 36 0 0 
N 55 44 0 
N 48 78 0 
N 24 57 0 
N 20 83 0 
N 32 69 0 
N 27 36 0 
N 41 73 0 
N 55 4 0 
N 51 48 0 
N 35 68 0 
N 17 68 0 
N 41 61 0 
N 67 55 0 
N 65 2 0 
N 84 51 0 
N 58 85 0 
N 38 17 0 
N 31 98 0 
N 22 25 0 
N 1 73 0 
N 58 2 0 
N 48 46 0 
N 84 69 0 
N 76 84 0 
N 98 3 0 
N 91 85 0 
N 90 74 0 
N 95 45 0 
N 4 97 0 
N 25 6 0 
N 9 47 0 
N 64 59 0 
N 7 48 0 
N 26 51 0 
N 18 57 0 
N 88 43 0 
N 38 28 0 
N 14 66 0 
N 56 19 0 
N 52 59 0 
N 29 29 0 
N 18 72 0 
N 62 55 0 
N 41 20 0 
N 29 85 0 
N 3 11 0 
N 86 10 0 
N 80 34 0 
N 41 1 0 
N 74 30 0 
N 60 38 0 
N 25 9 0 
N 20 21 0 
N 29 49 0 
N 77 73 0 
N 51 7 0 
N 9 42 0 
N 40 42 0 
N 27 60 0 
N 19 62 0 
N 4 57 0 
N 96 13 0 
N 48 17 0 
N 14 33 0 
N 98 14 0 
N 41 25 0 
N 20 70 0 
N 66 34 0 
N 66 50 0 
N 15 21 0 
N 67 93 0 
N 28 58 0 
N 46 58 0 
N 45 9 0 
N 33 17 0 
N 46 22 0 
N 74 70 0 
N 20 47 0 
N 72 75 0 
N 45 7 0 
N 97 59 0 
N 39 41 0 
N 30 23 0 
N 55 79 0 
N 35 60 0 
N 16 17 0 
N 8 10 0 
N 34 46 0 
N 57 33 0 
N 81 20 0 
N 27 47 0 
N 89 34 0 
N 7 31 0 
N 14 73 0 
N 86 0 0 
N 52 50 0 
N 10 17 0 
N 24 71 0 
N 20 36 0 
N 52 18 0 
N 3 29 0 
N 41 8 0 
N 96 42 0 
N 85 61 0 
N 59 83 0 
N 7 11 0 
N 6 30 0 
N 36 67 0 
N 16 32 0 
N 24 79 0 
N 6 41 0 
N 78 51 0 
N 49 2 0 
N 14 61 0 
N 33 28 0 
N 13 18 0 
N 33 93 0 
N 57 28 0 
N 80 26 0 
N 91 39 0 
N 50 88 0 
N 94 6 0 
N 4 11 0 
N 90 4 0 
N 98 50 0 
N 44 52 0 
N 38 55 0 
N 94 92 0 
N 40 46 0 
N 55 2 0 
N 85 26 0 
N 23 40 0 
N 78 83 0 
N 51 78 0 
N 57 16 0 
N 57 67 0 
N 7 78 0 
N 79 33 0 
N 99 93 0 
N 59 67 0 
N 57 85 0 
N 12 93 0 
N 52 31 0 
N 48 4 0 
N 61 88 0 
N 24 62 0 
N 0 16 0 
N 44 72 0 
N 94 94 0 
N 17 86 0 
N 51 20 0 
N 53 7 0 
N 73 16 0 
N 8 61 0 
N 9 18 0 
N 21 99 0 
N 27 16 0 
N 37 49 0 
N 84 47 0 
N 83 63 0 
N 93 22 0 
N 98 33 0 
N 91 55 0 
N 80 72 0 
N 20 22 0 
N 39 64 0 
N 1 79 0 
N 95 74 0 
N 98 56 0 
N 38 7 0 
N 60 56 0 
N 37 25 0 
N 59 59 0 
N 1 1 0 
N 73 59 0 
N 80 15 0 
N 74 33 0 
N 64 49 0 
N 52 65 0 
N 5 87 0 
N 32 29 0 
N 44 67 0 
N 35 17 0 
N 36 42 0 
N 9 86 0 
N 97 64 0 
N 78 40 0 
N 13 34 0 
N 77 58 0 
N 96 50 0 
N 79 17 0 
N 7 40 0 
N 52 46 0 
N 49 27 0 
N 89 6 0 
N 1 12 0 
N 2 15 0 
N 87 88 0 
N 16 13 0 
N 96 36 0 
N 70 97 0 
N 75 4 0 
N 43 70 0 
N 14 94 0 
N 88 17 0 
N 66 87 0 
N 87 80 0 
N 36 34 0 
N 90 14 0 
N 73 44 0 
N 19 17 0 
N 59 40 0 
N 80 53 0 
N 79 22 0 
N 95 42 0 
N 7 7 0 
N 30 75 0 
N 8 53 0 
N 64 11 0 
N 1 59 0 
N 0 5 0 
N 95 49 0 
N 56 38 0 
N 22 38 0 
N 5 73 0 
N 28 36 0 
N 15 97 0 
N 74 48 0 
N 28 60 0 
N 13 77 0 
N 69 9 0 
N 31 16 0 
N 14 78 0 
N 12 23 0 
N 23 77 0 
N 48 57 0 
N 54 1 0 
N 15 67 0 
N 75 58 0 
N 10 3 0 
N 61 94 0 
N 82 88 0 
N 26 65 0 
N 11 63 0 
N 90 39 0 
N 29 7 0 
N 56 39 0 
N 10 54 0 
N 25 63 0 
N 38 74 0 
N 9 52 0 
N 74 15 0 
N 6 67 0 
N 44 2 0 
N 71 34 0 
N 95 2 0 
N 33 26 0 
N 47 37 0 
N 54 48 0 
N 67 26 0 
N 6 46 0 
N 99 83 0 
N 90 76 0 
N 99 92 0 
N 52 91 0 
N 49 20 0 
N 71 28 0 
N 66 29 0 
N 63 90 0 
N 69 82 0 
N 64 47 0 
N 18 92 0 
N 62 39 0 
N 38 3 0 
N 27 82 0 
N 48 49 0 
N 96 73 0 
N 51 35 0 
N 11 19 0 
N 21 50 0 
N 63 22 0 
N 71 77 0 
N 51 86 0 
N 19 89 0 
N 95 10 0 
N 62 11 0 
N 41 57 0 
N 8 34 0 
N 74 20 0 
N 45 92 0 
N 19 61 0 
N 24 2 0 
N 71 85 0 
N 37 42 0 
N 50 49 0 
N 36 77 0 
N 5 57 0 
N 79 78 0 
N 29 96 0 
N 88 48 0 
N 88 69 0 
N 96 3 0 
N 51 58 0 
N 75 0 0 
N 55 17 0 
N 44 94 0 
N 36 4 0 
N 13 24 0 
N 9 98 0 
N 81 49 0 
N 52 57 0 
N 16 96 0 
N 70 52 0 
N 28 70 0 
N 64 28 0 
N 21 43 0 
N 39 52 0 
N 87 5 0 
N 97 92 0 
N 48 99 0 
N 79 89 0 
N 70 12 0 
N 71 57 0 
N 57 49 0 
N 34 49 0 
N 8 87 0 
N 29 34 0 
N 62 51 0 
N 88 66 0 
N 56 74 0 
N 5 96 0 
N 39 34 0 
N 19 25 0 
N 93 58 0 
N 17 4 0 
N 47 96 0 
N 98 73 0 
N 40 79 0 
N 12 40 0 
N 83 38 0 
N 49 71 0 
N 6 48 0 
N 47 92 0 
N 77 97 0 
N 62 43 0 
N 22 61 0 
N 69 57 0 
N 41 96 0 
N 51 60 0 
N 1 3 0 
N 72 2 0 
N 17 83 0 
N 58 51 0 
N 44 5 0 
N 63 39 0 
N 23 66 0 
N 90 26 0 
N 39 61 0 
N 54 99 0 
N 87 96 0 
N 44 31 0 
N 4 98 0 
N 90 77 0 
N 61 98 0 
N 39 57 0 
N 19 7 0 
N 52 13 0 
N 78 73 0 
N 62 68 0 
N 31 18 0 
N 69 31 0 
N 63 36 0 
N 36 26 0 
N 92 38 0 
N 85 85 0 
N 51 99 0 
N 6 0 0 
N 7 39 0 
N 69 75 0 
N 8 5 0 
N 56 26 0 
N 45 2 0 
N 86 55 0 
N 95 4 0 
N 99 30 0 
N 1 85 0 
N 87 38 0 
N 58 36 0 
N 62 45 0 
N 36 20 0 
N 27 74 0 
N 0 89 0 
N 84 15 0 
N 11 77 0 
N 61 62 0 
N 59 15 0 
N 49 41 0 
N 22 83 0 
N 80 31 0 
N 66 0 0 
N 56 56 0 
N 24 28 0 
N 31 67 0 
N 39 87 0 
N 76 56 0 
N 44 43 0 
N 89 41 0 
N 73 79 0 
N 1 49 0 
N 70 0 0 
N 83 45 0 
N 5 37 0 
N 46 99 0 
N 29 91 0 
N 49 50 0 
N 98 63 0 
N 53 5 0 
N 45 81 0 
N 16 77 0 
N 30 50 0 
N 36 76 0 
N 46 42 0 
N 62 8 0 
N 2 34 0 
N 3 40 0 
N 49 96 0 
N 5 44 0 
N 82 23 0 
N 33 50 0 
N 93 5 0 
N 77 25 0 
N 70 65 0 
N 5 65 0 
N 72 36 0 
N 12 96 0 
N 82 76 0 
N 12 43 0 
N 57 36 0 
N 39 33 0 
N 91 53 0 
N 99 25 0 
N 5 31 0 
N 60 90 0 
N 18 83 0 
N 21 20 0 
N 78 49 0 
N 77 84 0 
N 97 67 0 
N 38 61 0 
N 12 80 0 
N 2 54 0 
N 66 89 0 
N 37 36 0 
N 72 20 0 
N 2 65 0 
N 75 68 0 
N 23 14 0 
N 54 60 0 
N 25 1 0 
N 72 4 0 
N 10 12 0 
N 89 73 0 
N 16 63 0 
N 43 15 0 
N 52 30 0 
N 6 1 0 
N 67 65 0 
N 96 1 0 
N 95 80 0 
N 90 96 0 
N 66 82 0 
N 26 96 0 
N 27 46 0 
O 85 1 0 
501
Atoms. Timestep: 31
N 78 51 0 
N 74 1 0 
N 9 0 0 
N 55 17 0 
N 13 49 0 
N 28 51 0 
N 22 88 0 
N 1 48 0 
N 5 39 0 
N 77 3 0 
N 92 47 0 
N 43 13 0 
N 45 32 0 
N 81 75 0 
N 53 14 0 
N 10 0 0 
N 57 71 0 
N 13 35 0 
N 26 81 0 
N 12 75 0 
N 35 51 0 
N 99 88 0 
N 96 30 0 
N 77 69 0 
N 12 57 0 
N 33 60 0 
N 36 99 0 
N 55 45 0 
N 48 79 0 
N 23 57 0 
N 20 82 0 
N 31 69 0 
N 28 36 0 
N 41 74 0 
N 55 3 0 
N 51 47 0 
N 35 67 0 
N 16 68 0 
N 40 61 0 
N 67 54 0 
N 65 1 0 
N 84 52 0 
N 59 85 0 
N 39 17 0 
N 31 99 0 
N 22 24 0 
N 1 72 0 
N 58 3 0 
N 48 45 0 
N 84 68 0 
N 76 83 0 
N 99 3 0 
N 91 86 0 
N 91 74 0 
N 95 44 0 
N 4 98 0 
N 25 5 0 
N 8 47 0 
N 63 59 0 
N 6 48 0 
N 27 51 0 
N 19 57 0 
N 87 43 0 
N 38 29 0 
N 13 66 0 
N 57 19 0 
N 52 58 0 
N 30 29 0 
N 18 71 0 
N 62 54 0 
N 42 20 0 
N 29 86 0 
N 3 10 0 
N 86 11 0 
N 81 34 0 
N 40 1 0 
N 73 30 0 
N 61 38 0 
N 25 8 0 
N 19 21 0 
N 28 49 0 
N 77 72 0 
N 51 6 0 
N 10 42 0 
N 41 42 0 
N 27 59 0 
N 20 62 0 
N 3 57 0 
N 97 13 0 
N 48 18 0 
N 14 32 0 
N 99 14 0 
N 41 26 0 
N 20 69 0 
N 67 34 0 
N 65 50 0 
N 15 20 0 
N 67 94 0 
N 29 58 0 
N 46 57 0 
N 45 8 0 
N 32 17 0 
N 46 23 0 
N 74 69 0 
N 20 46 0 
N 73 75 0 
N 45 6 0 
N 97 58 0 
N 39 42 0 
N 30 22 0 
N 55 78 0 
N 34 60 0 
N 15 17 0 
N 8 11 0 
N 35 46 0 
N 57 34 0 
N 82 20 0 
N 28 47 0 
N 88 34 0 
N 6 31 0 
N 13 73 0 
N 85 0 0 
N 53 50 0 
N 10 18 0 
N 25 71 0 
N 21 36 0 
N 52 19 0 
N 3 28 0 
N 41 7 0 
N 96 41 0 
N 85 60 0 
N 59 84 0 
N 7 12 0 
N 7 30 0 
N 36 66 0 
N 16 31 0 
N 25 79 0 
N 6 40 0 
N 78 52 0 
N 49 1 0 
N 14 62 0 
N 34 28 0 
N 13 17 0 
N 33 94 0 
N 57 29 0 
N 80 25 0 
N 91 38 0 
N 50 87 0 
N 95 6 0 
N 4 10 0 
N 89 4 0 
N 98 49 0 
N 44 53 0 
N 37 55 0 
N 94 93 0 
N 39 46 0 
N 55 1 0 
N 85 27 0 
N 23 39 0 
N 78 82 0 
N 51 79 0 
N 57 17 0 
N 56 67 0 
N 7 79 0 
N 79 34 0 
N 99 92 0 
N 59 68 0 
N 57 86 0 
N 13 93 0 
N 53 31 0 
N 49 4 0 
N 60 88 0 
N 24 63 0 
N 99 16 0 
N 43 72 0 
N 95 94 0 
N 17 87 0 
N 52 20 0 
N 52 7 0 
N 73 15 0 
N 8 62 0 
N 8 18 0 
N 20 99 0 
N 28 16 0 
N 38 49 0 
N 83 47 0 
N 82 63 0 
N 93 21 0 
N 98 32 0 
N 90 55 0 
N 80 73 0 
N 19 22 0 
N 39 65 0 
N 1 80 0 
N 94 74 0 
N 98 57 0 
N 38 6 0 
N 59 56 0 
N 37 24 0 
N 59 58 0 
N 0 1 0 
N 73 58 0 
N 81 15 0 
N 74 32 0 
N 64 50 0 
N 52 64 0 
N 5 88 0 
N 32 28 0 
N 44 66 0 
N 35 16 0 
N 36 43 0 
N 9 85 0 
N 97 63 0 
N 77 40 0 
N 13 33 0 
N 77 57 0 
N 95 50 0 
N 79 18 0 
N 7 41 0 
N 52 45 0 
N 49 26 0 
N 88 6 0 
N 0 12 0 
N 2 16 0 
N 88 88 0 
N 16 14 0 
N 96 35 0 
N 71 97 0 
N 76 4 0 
N 43 71 0 
N 14 95 0 
N 89 17 0 
N 65 87 0 
N 88 80 0 
N 36 33 0 
N 90 13 0 
N 73 43 0 
N 20 17 0 
N 60 40 0 
N 80 54 0 
N 78 22 0 
N 95 41 0 
N 8 7 0 
N 31 75 0 
N 9 53 0 
N 65 11 0 
N 1 58 0 
N 99 5 0 
N 95 48 0 
N 57 38 0 
N 21 38 0 
N 5 74 0 
N 28 35 0 
N 15 96 0 
N 73 48 0 
N 28 61 0 
N 12 77 0 
N 68 9 0 
N 32 16 0 
N 14 79 0 
N 12 22 0 
N 23 76 0 
N 48 58 0 
N 54 2 0 
N 14 67 0 
N 74 58 0 
N 10 2 0 
N 60 94 0 
N 83 88 0 
N 27 65 0 
N 11 62 0 
N 90 38 0 
N 28 7 0 
N 55 39 0 
N 10 55 0 
N 25 62 0 
N 39 74 0 
N 10 52 0 
N 75 15 0 
N 6 68 0 
N 44 1 0 
N 70 34 0 
N 94 2 0 
N 32 26 0 
N 47 36 0 
N 54 47 0 
N 66 26 0 
N 6 47 0 
N 99 82 0 
N 89 76 0 
N 99 91 0 
N 53 91 0 
N 50 20 0 
N 70 28 0 
N 65 29 0 
N 64 90 0 
N 69 81 0 
N 63 47 0 
N 17 92 0 
N 63 39 0 
N 37 3 0 
N 26 82 0 
N 48 50 0 
N 96 74 0 
N 51 36 0 
N 11 18 0 
N 20 50 0 
N 63 23 0 
N 72 77 0 
N 50 86 0 
N 20 89 0 
N 95 9 0 
N 61 11 0 
N 40 57 0 
N 8 33 0 
N 73 20 0 
N 46 92 0 
N 19 60 0 
N 24 3 0 
N 71 86 0 
N 37 43 0 
N 49 49 0 
N 35 77 0 
N 5 58 0 
N 80 78 0 
N 29 97 0 
N 89 48 0 
N 88 70 0 
N 95 3 0 
N 50 58 0 
N 75 1 0 
N 54 17 0 
N 45 94 0 
N 35 4 0 
N 14 24 0 
N 9 97 0 
N 80 49 0 
N 53 57 0 
N 16 97 0 
N 70 51 0 
N 28 71 0 
N 64 27 0 
N 21 42 0 
N 40 52 0 
N 88 5 0 
N 96 92 0 
N 47 99 0 
N 78 89 0 
N 71 12 0 
N 72 57 0 
N 57 50 0 
N 35 49 0 
N 9 87 0 
N 30 34 0 
N 62 50 0 
N 88 65 0 
N 56 75 0 
N 4 96 0 
N 40 34 0 
N 19 26 0 
N 92 58 0 
N 17 5 0 
N 47 97 0 
N 97 73 0 
N 41 79 0 
N 13 40 0 
N 83 39 0 
N 48 71 0 
N 6 49 0 
N 47 91 0 
N 78 97 0 
N 62 42 0 
N 23 61 0 
N 70 57 0 
N 41 95 0 
N 51 59 0 
N 0 3 0 
N 72 1 0 
N 18 83 0 
N 58 52 0 
N 45 5 0 
N 64 39 0 
N 23 65 0 
N 90 27 0 
N 39 60 0 
N 55 99 0 
N 88 96 0 
N 43 31 0 
N 5 98 0 
N 91 77 0 
N 60 98 0 
N 39 56 0 
N 19 6 0 
N 52 14 0 
N 78 74 0 
N 63 68 0 
N 32 18 0 
N 68 31 0 
N 63 37 0 
N 35 26 0 
N 92 39 0 
N 84 85 0 
N 51 98 0 
N 6 99 0 
N 6 39 0 
N 70 75 0 
N 8 4 0 
N 56 25 0 
N 46 2 0 
N 86 54 0 
N 96 4 0 
N 99 29 0 
N 0 85 0 
N 87 39 0 
N 58 37 0 
N 63 45 0 
N 36 19 0 
N 28 74 0 
N 0 88 0 
N 83 15 0 
N 11 78 0 
N 61 63 0 
N 59 14 0 
N 49 40 0 
N 21 83 0 
N 79 31 0 
N 67 0 0 
N 56 57 0 
N 24 27 0 
N 32 67 0 
N 38 87 0 
N 77 56 0 
N 45 43 0 
N 88 41 0 
N 73 80 0 
N 2 49 0 
N 70 99 0 
N 83 44 0 
N 6 37 0 
N 46 0 0 
N 29 92 0 
N 50 50 0 
N 99 63 0 
N 53 6 0 
N 46 81 0 
N 17 77 0 
N 31 50 0 
N 35 76 0 
N 45 42 0 
N 62 9 0 
N 3 34 0 
N 4 40 0 
N 48 96 0 
N 5 45 0 
N 82 22 0 
N 32 50 0 
N 93 6 0 
N 77 26 0 
N 71 65 0 
N 6 65 0 
N 71 36 0 
N 13 96 0 
N 82 77 0 
N 12 44 0 
N 57 35 0 
N 40 33 0 
N 91 54 0 
N 0 25 0 
N 5 32 0 
N 60 91 0 
N 18 82 0 
N 21 19 0 
N 79 49 0 
N 77 85 0 
N 96 67 0 
N 38 62 0 
N 12 79 0 
N 1 54 0 
N 66 88 0 
N 36 36 0 
N 72 21 0 
N 1 65 0 
N 75 69 0 
N 23 15 0 
N 54 61 0 
N 24 1 0 
N 73 4 0 
N 11 12 0 
N 89 74 0 
N 16 64 0 
N 43 16 0 
N 53 30 0 
N 5 1 0 
N 67 66 0 
N 96 2 0 
N 96 80 0 
N 90 97 0 
N 67 82 0 
N 26 95 0 
N 26 46 0 
O 86 1 0 
501
Atoms. Timestep: 32
N 77 51 0 
N 74 2 0 
N 10 0 0 
N 55 16 0 
N 13 48 0 
N 29 51 0 
N 21 88 0 
N 1 47 0 
N 5 40 0 
N 78 3 0 
N 92 48 0 
N 42 13 0 
N 45 33 0 
N 81 76 0 
N 53 15 0 
N 11 0 0 
N 57 72 0 
N 14 35 0 
N 27 81 0 
N 12 74 0 
N 36 51 0 
N 98 88 0 
N 97 30 0 
N 77 70 0 
N 11 57 0 
N 34 60 0 
N 35 99 0 
N 56 45 0 
N 47 79 0 
N 24 57 0 
N 20 81 0 
N 31 70 0 
N 27 36 0 
N 40 74 0 
N 56 3 0 
N 50 47 0 
N 35 68 0 
N 16 69 0 
N 40 62 0 
N 67 55 0 
N 65 2 0 
N 83 52 0 
N 60 85 0 
N 40 17 0 
N 31 0 0 
N 22 25 0 
N 0 72 0 
N 57 3 0 
N 48 46 0 
N 83 68 0 
N 76 82 0 
N 0 3 0 
N 91 85 0 
N 91 75 0 
N 96 44 0 
N 4 99 0 
N 26 5 0 
N 8 48 0 
N 63 60 0 
N 5 48 0 
N 27 50 0 
N 20 57 0 
N 86 43 0 
N 38 28 0 
N 13 65 0 
N 58 19 0 
N 52 57 0 
N 29 29 0 
N 17 71 0 
N 63 54 0 
N 42 19 0 
N 28 86 0 
N 2 10 0 
N 86 12 0 
N 80 34 0 
N 41 1 0 
N 72 30 0 
N 61 37 0 
N 25 7 0 
N 19 20 0 
N 28 48 0 
N 76 72 0 
N 51 5 0 
N 9 42 0 
N 41 41 0 
N 28 59 0 
N 20 61 0 
N 2 57 0 
N 97 12 0 
N 49 18 0 
N 15 32 0 
N 98 14 0 
N 42 26 0 
N 19 69 0 
N 68 34 0 
N 64 50 0 
N 15 21 0 
N 67 95 0 
N 29 59 0 
N 46 58 0 
N 46 8 0 
N 32 18 0 
N 45 23 0 
N 73 69 0 
N 20 45 0 
N 73 76 0 
N 45 7 0 
N 98 58 0 
N 39 41 0 
N 29 22 0 
N 54 78 0 
N 34 59 0 
N 15 16 0 
N 9 11 0 
N 36 46 0 
N 57 35 0 
N 82 19 0 
N 28 46 0 
N 87 34 0 
N 7 31 0 
N 12 73 0 
N 85 1 0 
N 54 50 0 
N 10 17 0 
N 26 71 0 
N 21 35 0 
N 51 19 0 
N 3 27 0 
N 41 6 0 
N 96 42 0 
N 84 60 0 
N 60 84 0 
N 8 12 0 
N 6 30 0 
N 36 67 0 
N 15 31 0 
N 25 78 0 
N 6 39 0 
N 78 53 0 
N 49 0 0 
N 14 61 0 
N 34 27 0 
N 14 17 0 
N 33 95 0 
N 58 29 0 
N 80 26 0 
N 91 39 0 
N 49 87 0 
N 96 6 0 
N 4 9 0 
N 89 3 0 
N 98 48 0 
N 43 53 0 
N 37 56 0 
N 95 93 0 
N 39 47 0 
N 55 2 0 
N 85 28 0 
N 24 39 0 
N 78 81 0 
N 50 79 0 
N 58 17 0 
N 56 66 0 
N 7 80 0 
N 79 35 0 
N 98 92 0 
N 58 68 0 
N 57 87 0 
N 13 94 0 
N 53 32 0 
N 49 5 0 
N 60 87 0 
N 23 63 0 
N 99 17 0 
N 43 71 0 
N 94 94 0 
N 18 87 0 
N 52 21 0 
N 53 7 0 
N 73 14 0 
N 8 63 0 
N 8 19 0 
N 20 98 0 
N 28 15 0 
N 37 49 0 
N 83 48 0 
N 82 64 0 
N 93 20 0 
N 99 32 0 
N 89 55 0 
N 80 72 0 
N 18 22 0 
N 40 65 0 
N 1 81 0 
N 93 74 0 
N 99 57 0 
N 38 7 0 
N 60 56 0 
N 36 24 0 
N 58 58 0 
N 99 1 0 
N 74 58 0 
N 80 15 0 
N 73 32 0 
N 63 50 0 
N 52 65 0 
N 6 88 0 
N 32 27 0 
N 44 65 0 
N 35 17 0 
N 36 44 0 
N 8 85 0 
N 98 63 0 
N 76 40 0 
N 12 33 0 
N 77 58 0 
N 94 50 0 
N 79 17 0 
N 8 41 0 
N 52 46 0 
N 49 25 0 
N 87 6 0 
N 0 11 0 
N 2 15 0 
N 89 88 0 
N 17 14 0 
N 96 36 0 
N 71 98 0 
N 77 4 0 
N 44 71 0 
N 14 94 0 
N 89 18 0 
N 65 86 0 
N 87 80 0 
N 36 34 0 
N 91 13 0 
N 74 43 0 
N 19 17 0 
N 61 40 0 
N 79 54 0 
N 78 21 0 
N 95 42 0 
N 9 7 0 
N 31 74 0 
N 9 52 0 
N 66 11 0 
N 1 59 0 
N 0 5 0 
N 94 48 0 
N 56 38 0 
N 20 38 0 
N 5 75 0 
N 29 35 0 
N 15 95 0 
N 73 47 0 
N 29 61 0 
N 13 77 0 
N 67 9 0 
N 33 16 0 
N 13 79 0 
N 12 21 0 
N 23 77 0 
N 49 58 0 
N 54 1 0 
N 14 66 0 
N 74 57 0 
N 11 2 0 
N 60 93 0 
N 83 89 0 
N 26 65 0 
N 10 62 0 
N 90 39 0 
N 28 8 0 
N 55 40 0 
N 11 55 0 
N 25 63 0 
N 39 75 0 
N 10 53 0 
N 76 15 0 
N 6 69 0 
N 44 0 0 
N 71 34 0 
N 94 1 0 
N 31 26 0 
N 46 36 0 
N 54 48 0 
N 66 25 0 
N 5 47 0 
N 99 81 0 
N 90 76 0 
N 98 91 0 
N 53 90 0 
N 50 19 0 
N 69 28 0 
N 66 29 0 
N 65 90 0 
N 69 80 0 
N 64 47 0 
N 18 92 0 
N 63 40 0 
N 37 4 0 
N 27 82 0 
N 48 51 0 
N 95 74 0 
N 50 36 0 
N 11 19 0 
N 19 50 0 
N 62 23 0 
N 73 77 0 
N 50 85 0 
N 20 88 0 
N 96 9 0 
N 61 10 0 
N 39 57 0 
N 8 34 0 
N 73 21 0 
N 45 92 0 
N 20 60 0 
N 23 3 0 
N 70 86 0 
N 37 44 0 
N 48 49 0 
N 35 78 0 
N 6 58 0 
N 81 78 0 
N 29 96 0 
N 88 48 0 
N 87 70 0 
N 95 4 0 
N 50 59 0 
N 75 0 0 
N 54 16 0 
N 46 94 0 
N 36 4 0 
N 15 24 0 
N 10 97 0 
N 81 49 0 
N 53 56 0 
N 16 96 0 
N 70 50 0 
N 29 71 0 
N 64 26 0 
N 22 42 0 
N 41 52 0 
N 88 4 0 
N 97 92 0 
N 47 0 0 
N 79 89 0 
N 71 11 0 
N 73 57 0 
N 57 51 0 
N 35 48 0 
N 10 87 0 
N 29 34 0 
N 62 49 0 
N 88 66 0 
N 56 76 0 
N 4 97 0 
N 40 35 0 
N 19 27 0 
N 91 58 0 
N 17 6 0 
N 48 97 0 
N 97 74 0 
N 40 79 0 
N 14 40 0 
N 82 39 0 
N 48 72 0 
N 6 50 0 
N 48 91 0 
N 78 96 0 
N 62 41 0 
N 23 62 0 
N 69 57 0 
N 41 96 0 
N 51 60 0 
N 0 4 0 
N 72 0 0 
N 19 83 0 
N 57 52 0 
N 46 5 0 
N 65 39 0 
N 23 64 0 
N 90 28 0 
N 39 59 0 
N 55 0 0 
N 89 96 0 
N 44 31 0 
N 5 97 0 
N 91 78 0 
N 60 97 0 
N 40 56 0 
N 19 7 0 
N 51 14 0 
N 77 74 0 
N 62 68 0 
N 31 18 0 
N 68 32 0 
N 62 37 0 
N 34 26 0 
N 93 39 0 
N 85 85 0 
N 50 98 0 
N 5 99 0 
N 7 39 0 
N 70 76 0 
N 8 3 0 
N 56 26 0 
N 47 2 0 
N 86 53 0 
N 97 4 0 
N 99 30 0 
N 1 85 0 
N 86 39 0 
N 58 38 0 
N 63 44 0 
N 35 19 0 
N 28 73 0 
N 0 87 0 
N 83 14 0 
N 11 79 0 
N 61 64 0 
N 58 14 0 
N 49 41 0 
N 21 84 0 
N 79 32 0 
N 67 1 0 
N 55 57 0 
N 24 26 0 
N 32 66 0 
N 39 87 0 
N 76 56 0 
N 46 43 0 
N 88 42 0 
N 72 80 0 
N 1 49 0 
N 71 99 0 
N 84 44 0 
N 5 37 0 
N 46 99 0 
N 30 92 0 
N 49 50 0 
N 99 62 0 
N 52 6 0 
N 45 81 0 
N 16 77 0 
N 31 51 0 
N 35 75 0 
N 45 41 0 
N 61 9 0 
N 3 33 0 
N 4 39 0 
N 49 96 0 
N 5 44 0 
N 81 22 0 
N 32 51 0 
N 92 6 0 
N 77 27 0 
N 71 66 0 
N 6 66 0 
N 71 37 0 
N 12 96 0 
N 83 77 0 
N 12 45 0 
N 57 36 0 
N 39 33 0 
N 91 55 0 
N 0 26 0 
N 4 32 0 
N 61 91 0 
N 18 81 0 
N 21 20 0 
N 79 50 0 
N 77 84 0 
N 96 68 0 
N 39 62 0 
N 12 78 0 
N 1 53 0 
N 65 88 0 
N 35 36 0 
N 71 21 0 
N 0 65 0 
N 76 69 0 
N 23 16 0 
N 54 60 0 
N 23 1 0 
N 73 3 0 
N 11 13 0 
N 89 75 0 
N 16 65 0 
N 43 15 0 
N 53 29 0 
N 6 1 0 
N 66 66 0 
N 96 3 0 
N 96 81 0 
N 89 97 0 
N 67 81 0 
N 26 96 0 
N 26 45 0 
O 86 2 0 
501
Atoms. Timestep: 33
N 76 51 0 
N 74 1 0 
N 9 0 0 
N 56 16 0 
N 13 47 0 
N 28 51 0 
N 21 89 0 
N 2 47 0 
N 4 40 0 
N 79 3 0 
N 92 47 0 
N 42 14 0 
N 44 33 0 
N 81 75 0 
N 54 15 0 
N 11 99 0 
N 58 72 0 
N 14 36 0 
N 28 81 0 
N 11 74 0 
N 36 52 0 
N 98 87 0 
N 96 30 0 
N 78 70 0 
N 11 58 0 
N 34 59 0 
N 35 98 0 
N 56 44 0 
N 48 79 0 
N 24 56 0 
N 20 80 0 
N 31 71 0 
N 26 36 0 
N 40 75 0 
N 56 4 0 
N 50 48 0 
N 35 69 0 
N 16 68 0 
N 39 62 0 
N 66 55 0 
N 65 1 0 
N 82 52 0 
N 61 85 0 
N 41 17 0 
N 30 0 0 
N 21 25 0 
N 1 72 0 
N 58 3 0 
N 49 46 0 
N 83 67 0 
N 76 81 0 
N 99 3 0 
N 91 84 0 
N 91 74 0 
N 96 45 0 
N 4 98 0 
N 26 6 0 
N 9 48 0 
N 64 60 0 
N 5 47 0 
N 26 50 0 
N 20 56 0 
N 86 42 0 
N 38 27 0 
N 14 65 0 
N 59 19 0 
N 51 57 0 
N 28 29 0 
N 17 72 0 
N 63 53 0 
N 43 19 0 
N 28 85 0 
N 2 11 0 
N 87 12 0 
N 79 34 0 
N 40 1 0 
N 72 31 0 
N 61 36 0 
N 26 7 0 
N 19 19 0 
N 28 49 0 
N 75 72 0 
N 50 5 0 
N 9 43 0 
N 42 41 0 
N 27 59 0 
N 20 62 0 
N 1 57 0 
N 96 12 0 
N 49 19 0 
N 15 31 0 
N 99 14 0 
N 42 25 0 
N 19 70 0 
N 67 34 0 
N 64 49 0 
N 15 20 0 
N 67 94 0 
N 29 58 0 
N 46 59 0 
N 46 7 0 
N 31 18 0 
N 44 23 0 
N 72 69 0 
N 21 45 0 
N 73 75 0 
N 45 6 0 
N 98 57 0 
N 38 41 0 
N 30 22 0 
N 54 77 0 
N 33 59 0 
N 15 17 0 
N 9 12 0 
N 37 46 0 
N 57 36 0 
N 81 19 0 
N 27 46 0 
N 87 35 0 
N 7 32 0 
N 11 73 0 
N 85 2 0 
N 54 51 0 
N 11 17 0 
N 26 72 0 
N 22 35 0 
N 52 19 0 
N 3 28 0 
N 41 7 0 
N 97 42 0 
N 83 60 0 
N 59 84 0 
N 7 12 0 
N 5 30 0 
N 35 67 0 
N 15 30 0 
N 26 78 0 
N 6 38 0 
N 79 53 0 
N 50 0 0 
N 13 61 0 
N 35 27 0 
N 14 16 0 
N 33 96 0 
N 58 30 0 
N 80 25 0 
N 90 39 0 
N 48 87 0 
N 96 7 0 
N 5 9 0 
N 89 2 0 
N 99 48 0 
N 43 52 0 
N 36 56 0 
N 96 93 0 
N 38 47 0 
N 56 2 0 
N 84 28 0 
N 24 38 0 
N 78 80 0 
N 50 78 0 
N 58 16 0 
N 55 66 0 
N 7 79 0 
N 80 35 0 
N 98 91 0 
N 59 68 0 
N 56 87 0 
N 13 93 0 
N 53 31 0 
N 49 6 0 
N 61 87 0 
N 24 63 0 
N 0 17 0 
N 43 70 0 
N 93 94 0 
N 17 87 0 
N 51 21 0 
N 53 8 0 
N 72 14 0 
N 9 63 0 
N 8 20 0 
N 21 98 0 
N 29 15 0 
N 36 49 0 
N 82 48 0 
N 82 65 0 
N 94 20 0 
N 98 32 0 
N 89 54 0 
N 80 73 0 
N 18 23 0 
N 41 65 0 
N 0 81 0 
N 93 75 0 
N 99 58 0 
N 38 6 0 
N 61 56 0 
N 35 24 0 
N 58 57 0 
N 0 1 0 
N 74 59 0 
N 79 15 0 
N 72 32 0 
N 63 51 0 
N 53 65 0 
N 6 89 0 
N 33 27 0 
N 45 65 0 
N 36 17 0 
N 37 44 0 
N 8 86 0 
N 99 63 0 
N 77 40 0 
N 13 33 0 
N 78 58 0 
N 94 51 0 
N 79 18 0 
N 7 41 0 
N 53 46 0 
N 49 26 0 
N 86 6 0 
N 0 12 0 
N 2 14 0 
N 89 87 0 
N 17 15 0 
N 95 36 0 
N 72 98 0 
N 78 4 0 
N 45 71 0 
N 15 94 0 
N 90 18 0 
N 65 87 0 
N 87 79 0 
N 35 34 0 
N 92 13 0 
N 74 42 0 
N 19 16 0 
N 61 39 0 
N 79 55 0 
N 79 21 0 
N 95 41 0 
N 8 7 0 
N 30 74 0 
N 9 53 0 
N 67 11 0 
N 2 59 0 
N 0 4 0 
N 94 47 0 
N 55 38 0 
N 20 37 0 
N 5 76 0 
N 28 35 0 
N 16 95 0 
N 73 46 0 
N 28 61 0 
N 13 76 0 
N 67 8 0 
N 33 17 0 
N 12 79 0 
N 13 21 0 
N 23 76 0 
N 48 58 0 
N 55 1 0 
N 13 66 0 
N 73 57 0 
N 11 3 0 
N 60 94 0 
N 84 89 0 
N 27 65 0 
N 9 62 0 
N 90 40 0 
N 28 9 0 
N 54 40 0 
N 11 54 0 
N 25 64 0 
N 39 76 0 
N 10 54 0 
N 76 14 0 
N 7 69 0 
N 44 1 0 
N 70 34 0 
N 95 1 0 
N 32 26 0 
N 46 35 0 
N 53 48 0 
N 66 26 0 
N 4 47 0 
N 99 82 0 
N 89 76 0 
N 99 91 0 
N 53 89 0 
N 50 20 0 
N 69 27 0 
N 67 29 0 
N 66 90 0 
N 68 80 0 
N 65 47 0 
N 18 93 0 
N 63 41 0 
N 38 4 0 
N 27 83 0 
N 47 51 0 
N 95 73 0 
N 51 36 0 
N 11 20 0 
N 20 50 0 
N 63 23 0 
N 73 78 0 
N 49 85 0 
N 20 89 0 
N 97 9 0 
N 61 9 0 
N 40 57 0 
N 9 34 0 
N 73 22 0 
N 46 92 0 
N 20 59 0 
N 22 3 0 
N 69 86 0 
N 38 44 0 
N 49 49 0 
N 34 78 0 
N 6 57 0 
N 81 79 0 
N 30 96 0 
N 87 48 0 
N 86 70 0 
N 95 5 0 
N 49 59 0 
N 75 1 0 
N 53 16 0 
N 46 93 0 
N 35 4 0 
N 14 24 0 
N 10 98 0 
N 81 48 0 
N 53 55 0 
N 15 96 0 
N 70 51 0 
N 28 71 0 
N 64 27 0 
N 22 41 0 
N 42 52 0 
N 88 3 0 
N 96 92 0 
N 48 0 0 
N 80 89 0 
N 70 11 0 
N 73 56 0 
N 58 51 0 
N 36 48 0 
N 9 87 0 
N 30 34 0 
N 62 48 0 
N 88 65 0 
N 55 76 0 
N 5 97 0 
N 40 36 0 
N 19 26 0 
N 92 58 0 
N 16 6 0 
N 48 96 0 
N 96 74 0 
N 40 78 0 
N 13 40 0 
N 82 38 0 
N 48 73 0 
N 6 49 0 
N 47 91 0 
N 79 96 0 
N 62 40 0 
N 24 62 0 
N 69 58 0 
N 40 96 0 
N 50 60 0 
N 1 4 0 
N 72 1 0 
N 20 83 0 
N 57 53 0 
N 45 5 0 
N 64 39 0 
N 24 64 0 
N 90 27 0 
N 38 59 0 
N 54 0 0 
N 89 95 0 
N 45 31 0 
N 5 96 0 
N 91 79 0 
N 60 96 0 
N 40 55 0 
N 20 7 0 
N 50 14 0 
N 77 75 0 
N 62 69 0 
N 31 17 0 
N 69 32 0 
N 62 36 0 
N 35 26 0 
N 93 38 0 
N 85 86 0 
N 50 97 0 
N 5 98 0 
N 7 38 0 
N 71 76 0 
N 8 2 0 
N 56 25 0 
N 46 2 0 
N 86 54 0 
N 97 3 0 
N 0 30 0 
N 1 84 0 
N 86 38 0 
N 58 39 0 
N 63 45 0 
N 35 20 0 
N 28 74 0 
N 0 88 0 
N 82 14 0 
N 11 80 0 
N 61 65 0 
N 59 14 0 
N 48 41 0 
N 20 84 0 
N 80 32 0 
N 67 0 0 
N 55 56 0 
N 24 27 0 
N 32 67 0 
N 39 86 0 
N 77 56 0 
N 46 44 0 
N 87 42 0 
N 73 80 0 
N 0 49 0 
N 70 99 0 
N 85 44 0 
N 5 36 0 
N 46 0 0 
N 30 91 0 
N 48 50 0 
N 98 62 0 
N 52 5 0 
N 45 80 0 
N 17 77 0 
N 32 51 0 
N 35 74 0 
N 45 40 0 
N 61 8 0 
N 3 34 0 
N 5 39 0 
N 49 97 0 
N 5 45 0 
N 82 22 0 
N 32 50 0 
N 93 6 0 
N 78 27 0 
N 71 65 0 
N 6 67 0 
N 70 37 0 
N 11 96 0 
N 83 76 0 
N 11 45 0 
N 58 36 0 
N 38 33 0 
N 92 55 0 
N 0 25 0 
N 4 33 0 
N 61 92 0 
N 19 81 0 
N 20 20 0 
N 80 50 0 
N 77 85 0 
N 96 67 0 
N 39 63 0 
N 12 77 0 
N 1 54 0 
N 65 89 0 
N 35 37 0 
N 70 21 0 
N 0 64 0 
N 75 69 0 
N 23 15 0 
N 54 59 0 
N 23 0 0 
N 73 2 0 
N 10 13 0 
N 90 75 0 
N 17 65 0 
N 44 15 0 
N 53 28 0 
N 7 1 0 
N 65 66 0 
N 96 4 0 
N 96 80 0 
N 88 97 0 
N 67 82 0 
N 27 96 0 
N 27 45 0 
O 86 3 0 
501
Atoms. Timestep: 34
N 76 50 0 
N 75 1 0 
N 8 0 0 
N 57 16 0 
N 12 47 0 
N 28 52 0 
N 22 89 0 
N 1 47 0 
N 5 40 0 
N 79 4 0 
N 92 46 0 
N 41 14 0 
N 43 33 0 
N 81 74 0 
N 54 16 0 
N 11 0 0 
N 57 72 0 
N 13 36 0 
N 29 81 0 
N 11 75 0 
N 36 51 0 
N 98 86 0 
N 95 30 0 
N 79 70 0 
N 11 57 0 
N 35 59 0 
N 36 98 0 
N 56 45 0 
N 47 79 0 
N 24 57 0 
N 20 79 0 
N 32 71 0 
N 25 36 0 
N 41 75 0 
N 57 4 0 
N 50 49 0 
N 34 69 0 
N 15 68 0 
N 39 63 0 
N 65 55 0 
N 64 1 0 
N 81 52 0 
N 61 86 0 
N 41 16 0 
N 31 0 0 
N 21 26 0 
N 1 73 0 
N 58 4 0 
N 49 45 0 
N 83 66 0 
N 75 81 0 
N 98 3 0 
N 91 85 0 
N 90 74 0 
N 97 45 0 
N 3 98 0 
N 26 5 0 
N 9 49 0 
N 64 59 0 
N 5 46 0 
N 27 50 0 
N 21 56 0 
N 85 42 0 
N 38 26 0 
N 14 64 0 
N 60 19 0 
N 50 57 0 
N 29 29 0 
N 18 72 0 
N 62 53 0 
N 43 18 0 
N 29 85 0 
N 2 10 0 
N 87 11 0 
N 79 33 0 
N 39 1 0 
N 71 31 0 
N 61 35 0 
N 26 8 0 
N 19 20 0 
N 28 50 0 
N 76 72 0 
N 49 5 0 
N 9 42 0 
N 43 41 0 
N 27 60 0 
N 20 63 0 
N 0 57 0 
N 97 12 0 
N 49 18 0 
N 16 31 0 
N 99 13 0 
N 42 26 0 
N 19 69 0 
N 68 34 0 
N 64 48 0 
N 14 20 0 
N 67 95 0 
N 30 58 0 
N 47 59 0 
N 45 7 0 
N 31 17 0 
N 44 24 0 
N 72 70 0 
N 21 44 0 
N 72 75 0 
N 45 5 0 
N 98 58 0 
N 37 41 0 
N 30 23 0 
N 53 77 0 
N 33 60 0 
N 15 18 0 
N 8 12 0 
N 38 46 0 
N 57 37 0 
N 81 18 0 
N 28 46 0 
N 87 34 0 
N 7 33 0 
N 12 73 0 
N 85 3 0 
N 53 51 0 
N 11 16 0 
N 27 72 0 
N 22 36 0 
N 53 19 0 
N 4 28 0 
N 40 7 0 
N 97 43 0 
N 83 59 0 
N 59 85 0 
N 6 12 0 
N 4 30 0 
N 36 67 0 
N 16 30 0 
N 27 78 0 
N 6 37 0 
N 79 54 0 
N 50 1 0 
N 12 61 0 
N 35 26 0 
N 14 17 0 
N 33 95 0 
N 58 29 0 
N 81 25 0 
N 90 40 0 
N 48 86 0 
N 96 6 0 
N 5 10 0 
N 89 3 0 
N 99 49 0 
N 42 52 0 
N 37 56 0 
N 96 92 0 
N 38 48 0 
N 56 1 0 
N 84 27 0 
N 24 37 0 
N 78 79 0 
N 50 79 0 
N 58 15 0 
N 56 66 0 
N 7 78 0 
N 80 36 0 
N 99 91 0 
N 60 68 0 
N 55 87 0 
N 14 93 0 
N 54 31 0 
N 50 6 0 
N 60 87 0 
N 24 62 0 
N 0 18 0 
N 44 70 0 
N 94 94 0 
N 17 86 0 
N 50 21 0 
N 52 8 0 
N 73 14 0 
N 10 63 0 
N 9 20 0 
N 21 97 0 
N 29 14 0 
N 36 48 0 
N 82 49 0 
N 81 65 0 
N 94 21 0 
N 98 33 0 
N 88 54 0 
N 81 73 0 
N 17 23 0 
N 41 66 0 
N 0 82 0 
N 92 75 0 
N 0 58 0 
N 37 6 0 
N 62 56 0 
N 34 24 0 
N 57 57 0 
N 99 1 0 
N 74 60 0 
N 78 15 0 
N 72 33 0 
N 63 52 0 
N 52 65 0 
N 7 89 0 
N 33 28 0 
N 44 65 0 
N 35 17 0 
N 38 44 0 
N 9 86 0 
N 98 63 0 
N 76 40 0 
N 12 33 0 
N 77 58 0 
N 95 51 0 
N 79 17 0 
N 6 41 0 
N 54 46 0 
N 48 26 0 
N 86 5 0 
N 0 11 0 
N 1 14 0 
N 88 87 0 
N 16 15 0 
N 95 35 0 
N 73 98 0 
N 77 4 0 
N 45 72 0 
N 15 93 0 
N 90 19 0 
N 66 87 0 
N 87 78 0 
N 34 34 0 
N 91 13 0 
N 74 43 0 
N 20 16 0 
N 61 38 0 
N 80 55 0 
N 79 20 0 
N 95 42 0 
N 7 7 0 
N 31 74 0 
N 10 53 0 
N 67 12 0 
N 2 58 0 
N 1 4 0 
N 93 47 0 
N 55 37 0 
N 20 36 0 
N 5 75 0 
N 28 36 0 
N 16 94 0 
N 72 46 0 
N 28 62 0 
N 14 76 0 
N 67 9 0 
N 33 16 0 
N 11 79 0 
N 13 22 0 
N 22 76 0 
N 48 57 0 
N 55 2 0 
N 13 67 0 
N 73 58 0 
N 12 3 0 
N 59 94 0 
N 83 89 0 
N 26 65 0 
N 10 62 0 
N 89 40 0 
N 28 8 0 
N 53 40 0 
N 10 54 0 
N 24 64 0 
N 40 76 0 
N 10 55 0 
N 77 14 0 
N 7 68 0 
N 43 1 0 
N 70 33 0 
N 94 1 0 
N 32 27 0 
N 46 36 0 
N 53 49 0 
N 67 26 0 
N 4 46 0 
N 99 83 0 
N 89 75 0 
N 99 90 0 
N 53 88 0 
N 51 20 0 
N 69 28 0 
N 66 29 0 
N 66 91 0 
N 67 80 0 
N 65 46 0 
N 17 93 0 
N 62 41 0 
N 39 4 0 
N 26 83 0 
N 46 51 0 
N 95 72 0 
N 52 36 0 
N 11 21 0 
N 19 50 0 
N 62 23 0 
N 72 78 0 
N 49 86 0 
N 19 89 0 
N 97 8 0 
N 61 10 0 
N 41 57 0 
N 9 33 0 
N 73 21 0 
N 45 92 0 
N 20 58 0 
N 22 4 0 
N 69 87 0 
N 38 45 0 
N 49 48 0 
N 34 77 0 
N 7 57 0 
N 80 79 0 
N 30 95 0 
N 87 49 0 
N 87 70 0 
N 94 5 0 
N 49 58 0 
N 75 0 0 
N 53 17 0 
N 46 94 0 
N 35 5 0 
N 14 25 0 
N 9 98 0 
N 81 49 0 
N 53 54 0 
N 15 97 0 
N 69 51 0 
N 28 70 0 
N 64 26 0 
N 23 41 0 
N 42 51 0 
N 87 3 0 
N 96 91 0 
N 47 0 0 
N 81 89 0 
N 71 11 0 
N 73 55 0 
N 58 52 0 
N 36 47 0 
N 8 87 0 
N 30 35 0 
N 61 48 0 
N 88 64 0 
N 55 77 0 
N 5 98 0 
N 40 37 0 
N 18 26 0 
N 92 59 0 
N 16 5 0 
N 48 95 0 
N 96 75 0 
N 40 79 0 
N 13 39 0 
N 81 38 0 
N 49 73 0 
N 7 49 0 
N 48 91 0 
N 78 96 0 
N 63 40 0 
N 24 61 0 
N 69 59 0 
N 39 96 0 
N 50 61 0 
N 1 5 0 
N 71 1 0 
N 20 82 0 
N 57 52 0 
N 46 5 0 
N 63 39 0 
N 24 65 0 
N 91 27 0 
N 38 58 0 
N 55 0 0 
N 89 94 0 
N 45 32 0 
N 4 96 0 
N 92 79 0 
N 59 96 0 
N 40 56 0 
N 20 6 0 
N 50 15 0 
N 77 76 0 
N 62 70 0 
N 32 17 0 
N 69 33 0 
N 62 35 0 
N 35 25 0 
N 93 39 0 
N 85 85 0 
N 49 97 0 
N 5 99 0 
N 7 39 0 
N 71 75 0 
N 8 3 0 
N 56 24 0 
N 45 2 0 
N 86 55 0 
N 97 2 0 
N 99 30 0 
N 2 84 0 
N 87 38 0 
N 58 38 0 
N 64 45 0 
N 36 20 0 
N 28 75 0 
N 99 88 0 
N 83 14 0 
N 11 81 0 
N 60 65 0 
N 60 14 0 
N 48 40 0 
N 19 84 0 
N 80 33 0 
N 66 0 0 
N 54 56 0 
N 24 28 0 
N 32 66 0 
N 39 85 0 
N 76 56 0 
N 47 44 0 
N 87 43 0 
N 74 80 0 
N 0 50 0 
N 70 0 0 
N 85 45 0 
N 4 36 0 
N 45 0 0 
N 30 90 0 
N 48 49 0 
N 97 62 0 
N 53 5 0 
N 46 80 0 
N 16 77 0 
N 32 52 0 
N 34 74 0 
N 45 39 0 
N 60 8 0 
N 2 34 0 
N 5 38 0 
N 49 96 0 
N 6 45 0 
N 82 21 0 
N 31 50 0 
N 93 5 0 
N 78 28 0 
N 72 65 0 
N 7 67 0 
N 69 37 0 
N 12 96 0 
N 83 75 0 
N 11 46 0 
N 59 36 0 
N 38 32 0 
N 91 55 0 
N 0 24 0 
N 3 33 0 
N 60 92 0 
N 19 80 0 
N 20 19 0 
N 79 50 0 
N 76 85 0 
N 96 68 0 
N 40 63 0 
N 13 77 0 
N 1 55 0 
N 65 90 0 
N 36 37 0 
N 71 21 0 
N 1 64 0 
N 75 68 0 
N 22 15 0 
N 55 59 0 
N 23 1 0 
N 72 2 0 
N 9 13 0 
N 90 76 0 
N 16 65 0 
N 44 16 0 
N 53 27 0 
N 7 2 0 
N 66 66 0 
N 96 3 0 
N 97 80 0 
N 88 98 0 
N 67 83 0 
N 26 96 0 
N 26 45 0 
O 86 4 0 
500
Atoms. Timestep: 35
N 77 50 0 
N 74 1 0 
N 9 0 0 
N 57 17 0 
N 12 46 0 
N 28 53 0 
N 23 89 0 
N 0 47 0 
N 4 40 0 
N 80 4 0 
N 91 46 0 
N 42 14 0 
N 44 33 0 
N 80 74 0 
N 55 16 0 
N 11 99 0 
N 57 71 0 
N 12 36 0 
N 28 81 0 
N 11 74 0 
N 36 50 0 
N 98 87 0 
N 95 31 0 
N 78 70 0 
N 11 56 0 
N 35 60 0 
N 35 98 0 
N 55 45 0 
N 47 78 0 
N 24 56 0 
N 20 80 0 
N 32 70 0 
N 25 35 0 
N 41 74 0 
N 56 4 0 
N 50 50 0 
N 35 69 0 
N 16 68 0 
N 39 64 0 
N 65 54 0 
N 64 0 0 
N 82 52 0 
N 61 87 0 
N 40 16 0 
N 31 99 0 
N 22 26 0 
N 0 73 0 
N 58 5 0 
N 49 46 0 
N 83 65 0 
N 74 81 0 
N 98 4 0 
N 91 86 0 
N 91 74 0 
N 98 45 0 
N 4 98 0 
N 26 6 0 
N 9 50 0 
N 64 58 0 
N 6 46 0 
N 27 49 0 
N 21 57 0 
N 86 42 0 
N 38 25 0 
N 14 65 0 
N 60 18 0 
N 50 56 0 
N 29 30 0 
N 17 72 0 
N 62 52 0 
N 43 19 0 
N 30 85 0 
N 1 10 0 
N 88 11 0 
N 80 33 0 
N 38 1 0 
N 72 31 0 
N 62 35 0 
N 26 7 0 
N 19 21 0 
N 28 49 0 
N 77 72 0 
N 49 4 0 
N 9 41 0 
N 43 42 0 
N 27 59 0 
N 20 64 0 
N 1 57 0 
N 98 12 0 
N 50 18 0 
N 17 31 0 
N 99 14 0 
N 42 25 0 
N 19 68 0 
N 67 34 0 
N 64 49 0 
N 14 21 0 
N 68 95 0 
N 30 59 0 
N 47 58 0 
N 45 8 0 
N 31 16 0 
N 45 24 0 
N 73 70 0 
N 21 43 0 
N 72 76 0 
N 45 4 0 
N 97 58 0 
N 36 41 0 
N 29 23 0 
N 53 78 0 
N 33 61 0 
N 15 19 0 
N 9 12 0 
N 38 47 0 
N 57 36 0 
N 81 17 0 
N 28 45 0 
N 86 34 0 
N 7 32 0 
N 12 74 0 
N 84 3 0 
N 52 51 0 
N 11 15 0 
N 27 71 0 
N 21 36 0 
N 53 20 0 
N 4 29 0 
N 39 7 0 
N 96 43 0 
N 83 58 0 
N 59 86 0 
N 5 12 0 
N 4 31 0 
N 37 67 0 
N 17 30 0 
N 27 77 0 
N 7 37 0 
N 79 53 0 
N 50 0 0 
N 13 61 0 
N 36 26 0 
N 14 18 0 
N 34 95 0 
N 58 28 0 
N 82 25 0 
N 90 39 0 
N 48 85 0 
N 97 6 0 
N 5 9 0 
N 88 3 0 
N 98 49 0 
N 42 53 0 
N 37 55 0 
N 96 93 0 
N 37 48 0 
N 57 1 0 
N 84 28 0 
N 25 37 0 
N 78 78 0 
N 49 79 0 
N 59 15 0 
N 56 65 0 
N 8 78 0 
N 79 36 0 
N 99 90 0 
N 60 69 0 
N 55 88 0 
N 13 93 0 
N 54 30 0 
N 50 5 0 
N 60 86 0 
N 24 61 0 
N 0 17 0 
N 44 71 0 
N 94 95 0 
N 17 87 0 
N 51 21 0 
N 52 9 0 
N 73 15 0 
N 9 63 0 
N 9 21 0 
N 20 97 0 
N 29 13 0 
N 36 49 0 
N 83 49 0 
N 80 65 0 
N 95 21 0 
N 97 33 0 
N 87 54 0 
N 80 73 0 
N 17 22 0 
N 40 66 0 
N 0 81 0 
N 92 76 0 
N 0 59 0 
N 37 7 0 
N 62 55 0 
N 35 24 0 
N 56 57 0 
N 0 1 0 
N 75 60 0 
N 79 15 0 
N 73 33 0 
N 63 53 0 
N 52 64 0 
N 6 89 0 
N 33 29 0 
N 44 64 0 
N 36 17 0 
N 39 44 0 
N 8 86 0 
N 99 63 0 
N 76 39 0 
N 11 33 0 
N 77 59 0 
N 96 51 0 
N 79 18 0 
N 7 41 0 
N 55 46 0 
N 48 25 0 
N 86 4 0 
N 1 11 0 
N 2 14 0 
N 87 87 0 
N 16 14 0 
N 94 35 0 
N 73 97 0 
N 78 4 0 
N 44 72 0 
N 15 92 0 
N 91 19 0 
N 66 88 0 
N 88 78 0 
N 34 33 0 
N 92 13 0 
N 75 43 0 
N 21 16 0 
N 60 38 0 
N 81 55 0 
N 78 20 0 
N 94 42 0 
N 7 6 0 
N 32 74 0 
N 10 52 0 
N 68 12 0 
N 2 59 0 
N 1 3 0 
N 93 48 0 
N 55 36 0 
N 20 37 0 
N 4 75 0 
N 28 37 0 
N 16 93 0 
N 71 46 0 
N 29 62 0 
N 15 76 0 
N 67 8 0 
N 34 16 0 
N 11 78 0 
N 14 22 0 
N 21 76 0 
N 48 56 0 
N 55 1 0 
N 12 67 0 
N 72 58 0 
N 12 2 0 
N 58 94 0 
N 83 90 0 
N 26 64 0 
N 11 62 0 
N 89 41 0 
N 29 8 0 
N 54 40 0 
N 9 54 0 
N 23 64 0 
N 41 76 0 
N 10 56 0 
N 76 14 0 
N 7 69 0 
N 44 1 0 
N 70 32 0 
N 94 2 0 
N 32 28 0 
N 47 36 0 
N 52 49 0 
N 67 27 0 
N 4 45 0 
N 98 83 0 
N 89 74 0 
N 98 90 0 
N 52 88 0 
N 50 20 0 
N 69 27 0 
N 66 28 0 
N 67 91 0 
N 67 81 0 
N 64 46 0 
N 17 92 0 
N 61 41 0 
N 39 3 0 
N 27 83 0 
N 46 52 0 
N 95 71 0 
N 51 36 0 
N 10 21 0 
N 19 49 0 
N 62 24 0 
N 71 78 0 
N 49 85 0 
N 19 88 0 
N 98 8 0 
N 61 11 0 
N 42 57 0 
N 10 33 0 
N 73 22 0 
N 44 92 0 
N 19 58 0 
N 22 3 0 
N 68 87 0 
N 37 45 0 
N 49 47 0 
N 33 77 0 
N 6 57 0 
N 79 79 0 
N 31 95 0 
N 88 49 0 
N 87 69 0 
N 95 5 0 
N 49 57 0 
N 74 0 0 
N 53 16 0 
N 45 94 0 
N 35 4 0 
N 14 24 0 
N 9 99 0 
N 81 50 0 
N 54 54 0 
N 14 97 0 
N 69 50 0 
N 28 69 0 
N 63 26 0 
N 23 40 0 
N 43 51 0 
N 87 4 0 
N 97 91 0 
N 47 99 0 
N 82 89 0 
N 71 12 0 
N 72 55 0 
N 59 52 0 
N 35 47 0 
N 8 88 0 
N 29 35 0 
N 62 48 0 
N 88 63 0 
N 54 77 0 
N 5 99 0 
N 40 36 0 
N 18 27 0 
N 92 60 0 
N 15 5 0 
N 49 95 0 
N 96 76 0 
N 41 79 0 
N 12 39 0 
N 80 38 0 
N 48 73 0 
N 7 48 0 
N 47 91 0 
N 78 95 0 
N 64 40 0 
N 24 60 0 
N 69 58 0 
N 38 96 0 
N 50 60 0 
N 2 5 0 
N 71 2 0 
N 19 82 0 
N 57 51 0 
N 47 5 0 
N 62 39 0 
N 24 66 0 
N 90 27 0 
N 39 58 0 
N 54 0 0 
N 89 95 0 
N 45 33 0 
N 4 97 0 
N 92 80 0 
N 59 97 0 
N 40 57 0 
N 20 5 0 
N 50 16 0 
N 78 76 0 
N 62 71 0 
N 32 18 0 
N 69 32 0 
N 63 35 0 
N 34 25 0 
N 93 40 0 
N 85 86 0 
N 48 97 0 
N 4 99 0 
N 7 38 0 
N 70 75 0 
N 8 4 0 
N 56 25 0 
N 44 2 0 
N 85 55 0 
N 98 2 0 
N 98 30 0 
N 3 84 0 
N 87 37 0 
N 58 37 0 
N 63 45 0 
N 36 19 0 
N 28 76 0 
N 99 89 0 
N 83 15 0 
N 10 81 0 
N 59 65 0 
N 59 14 0 
N 48 39 0 
N 19 83 0 
N 80 32 0 
N 67 0 0 
N 54 55 0 
N 24 29 0 
N 31 66 0 
N 39 84 0 
N 75 56 0 
N 47 45 0 
N 87 42 0 
N 75 80 0 
N 99 50 0 
N 71 0 0 
N 86 45 0 
N 4 35 0 
N 45 1 0 
N 30 89 0 
N 49 49 0 
N 98 62 0 
N 54 5 0 
N 47 80 0 
N 17 77 0 
N 31 52 0 
N 35 74 0 
N 45 40 0 
N 59 8 0 
N 2 35 0 
N 6 38 0 
N 48 96 0 
N 5 45 0 
N 83 21 0 
N 31 49 0 
N 93 6 0 
N 79 28 0 
N 73 65 0 
N 7 66 0 
N 69 38 0 
N 12 97 0 
N 83 76 0 
N 10 46 0 
N 58 36 0 
N 38 31 0 
N 90 55 0 
N 1 24 0 
N 3 32 0 
N 59 92 0 
N 19 79 0 
N 19 19 0 
N 78 50 0 
N 75 85 0 
N 97 68 0 
N 40 64 0 
N 14 77 0 
N 2 55 0 
N 66 90 0 
N 36 38 0 
N 71 22 0 
N 1 63 0 
N 74 68 0 
N 21 15 0 
N 56 59 0 
N 23 0 0 
N 72 3 0 
N 8 13 0 
N 90 75 0 
N 17 65 0 
N 44 17 0 
N 53 26 0 
N 8 2 0 
N 66 65 0 
N 97 3 0 
N 96 80 0 
N 87 98 0 
N 68 83 0 
N 26 95 0 
N 26 44 0 
