15
Atoms. Timestep: 1
N 19 69 0 
N 10 79 0 
N 70 48 0 
N 87 37 0 
N 61 80 0 
O 47 24 0 
O 9 89 0 
O 71 34 0 
O 70 25 0 
O 17 39 0 
O 94 4 0 
O 41 35 0 
O 86 48 0 
O 50 93 0 
O 96 69 0 
15
Atoms. Timestep: 2
N 19 68 0 
N 10 80 0 
N 70 47 0 
N 87 38 0 
N 61 81 0 
O 46 24 0 
O 9 90 0 
O 71 33 0 
O 69 25 0 
O 17 38 0 
O 94 5 0 
O 40 35 0 
O 86 49 0 
O 50 94 0 
O 95 69 0 
15
Atoms. Timestep: 3
N 19 67 0 
N 10 81 0 
N 70 46 0 
N 87 39 0 
N 61 82 0 
O 45 24 0 
O 9 91 0 
O 71 32 0 
O 69 24 0 
O 17 37 0 
O 94 6 0 
O 39 35 0 
O 86 50 0 
O 50 95 0 
O 94 69 0 
15
Atoms. Timestep: 4
N 19 66 0 
N 10 82 0 
N 70 45 0 
N 87 40 0 
N 61 83 0 
O 44 24 0 
O 9 92 0 
O 71 31 0 
O 69 23 0 
O 17 36 0 
O 94 7 0 
O 38 35 0 
O 86 51 0 
O 50 96 0 
O 93 69 0 
15
Atoms. Timestep: 5
N 19 65 0 
N 10 83 0 
N 70 44 0 
N 87 41 0 
N 61 84 0 
O 43 24 0 
O 9 93 0 
O 71 30 0 
O 69 22 0 
O 17 35 0 
O 94 8 0 
O 37 35 0 
O 86 52 0 
O 50 97 0 
O 92 69 0 
15
Atoms. Timestep: 6
N 19 64 0 
N 10 84 0 
N 70 43 0 
N 87 42 0 
N 61 85 0 
O 42 24 0 
O 9 94 0 
O 71 29 0 
O 69 21 0 
O 17 34 0 
O 94 9 0 
O 36 35 0 
O 86 53 0 
O 50 98 0 
O 91 69 0 
15
Atoms. Timestep: 7
N 19 63 0 
N 10 85 0 
N 70 42 0 
N 87 43 0 
N 61 86 0 
O 41 24 0 
O 9 95 0 
O 71 28 0 
O 69 20 0 
O 17 33 0 
O 94 10 0 
O 36 34 0 
O 86 54 0 
O 50 99 0 
O 90 69 0 
15
Atoms. Timestep: 8
N 19 62 0 
N 10 86 0 
N 70 41 0 
N 87 44 0 
N 61 87 0 
O 40 24 0 
O 9 96 0 
O 71 27 0 
O 69 19 0 
O 17 32 0 
O 94 11 0 
O 36 33 0 
O 86 55 0 
O 50 0 0 
O 90 70 0 
15
Atoms. Timestep: 9
N 19 61 0 
N 10 87 0 
N 70 40 0 
N 87 45 0 
N 61 88 0 
O 39 24 0 
O 9 97 0 
O 71 26 0 
O 69 18 0 
O 17 31 0 
O 94 12 0 
O 36 32 0 
O 86 56 0 
O 50 1 0 
O 90 71 0 
15
Atoms. Timestep: 10
N 19 60 0 
N 10 88 0 
N 70 39 0 
N 87 46 0 
N 61 89 0 
O 38 24 0 
O 9 98 0 
O 71 25 0 
O 69 17 0 
O 17 30 0 
O 94 13 0 
O 36 31 0 
O 86 57 0 
O 50 2 0 
O 90 72 0 
15
Atoms. Timestep: 11
N 19 59 0 
N 10 89 0 
N 70 38 0 
N 87 47 0 
N 61 90 0 
O 37 24 0 
O 9 99 0 
O 71 24 0 
O 69 16 0 
O 17 29 0 
O 94 14 0 
O 36 30 0 
O 86 58 0 
O 50 3 0 
O 90 73 0 
15
Atoms. Timestep: 12
N 19 58 0 
N 10 90 0 
N 70 37 0 
N 87 48 0 
N 61 91 0 
O 36 24 0 
O 9 0 0 
O 71 23 0 
O 69 15 0 
O 17 28 0 
O 94 15 0 
O 36 29 0 
O 86 59 0 
O 50 4 0 
O 90 74 0 
15
Atoms. Timestep: 13
N 19 57 0 
N 10 91 0 
N 70 36 0 
N 87 49 0 
N 61 92 0 
O 35 24 0 
O 9 1 0 
O 71 22 0 
O 69 14 0 
O 17 27 0 
O 94 16 0 
O 36 28 0 
O 86 60 0 
O 50 5 0 
O 90 75 0 
15
Atoms. Timestep: 14
N 19 56 0 
N 10 92 0 
N 70 35 0 
N 87 50 0 
N 61 93 0 
O 35 23 0 
O 9 2 0 
O 71 21 0 
O 69 13 0 
O 17 26 0 
O 94 17 0 
O 36 27 0 
O 86 61 0 
O 50 6 0 
O 90 76 0 
15
Atoms. Timestep: 15
N 19 55 0 
N 10 93 0 
N 70 34 0 
N 87 51 0 
N 61 94 0 
O 35 22 0 
O 9 3 0 
O 71 20 0 
O 69 14 0 
O 17 25 0 
O 94 18 0 
O 36 26 0 
O 86 62 0 
O 50 7 0 
O 90 77 0 
15
Atoms. Timestep: 16
N 19 54 0 
N 10 94 0 
N 70 33 0 
N 87 52 0 
N 61 95 0 
O 35 21 0 
O 9 4 0 
O 71 19 0 
O 69 13 0 
O 17 24 0 
O 94 19 0 
O 36 25 0 
O 86 63 0 
O 50 8 0 
O 90 78 0 
15
Atoms. Timestep: 17
N 19 53 0 
N 10 95 0 
N 70 32 0 
N 87 53 0 
N 61 96 0 
O 35 20 0 
O 9 5 0 
O 71 18 0 
O 69 14 0 
O 17 23 0 
O 95 19 0 
O 36 24 0 
O 86 64 0 
O 50 9 0 
O 90 79 0 
15
Atoms. Timestep: 18
N 19 52 0 
N 10 96 0 
N 70 31 0 
N 87 54 0 
N 61 97 0 
O 36 20 0 
O 9 6 0 
O 71 17 0 
O 69 13 0 
O 17 24 0 
O 95 20 0 
O 36 23 0 
O 86 65 0 
O 50 10 0 
O 90 80 0 
15
Atoms. Timestep: 19
N 19 51 0 
N 10 97 0 
N 70 30 0 
N 87 55 0 
N 61 98 0 
O 35 20 0 
O 9 7 0 
O 71 16 0 
O 69 12 0 
O 17 23 0 
O 96 20 0 
O 36 22 0 
O 86 66 0 
O 50 11 0 
O 90 81 0 
15
Atoms. Timestep: 20
N 19 50 0 
N 10 98 0 
N 70 29 0 
N 87 56 0 
N 61 99 0 
O 36 20 0 
O 9 8 0 
O 71 15 0 
O 69 13 0 
O 17 24 0 
O 96 21 0 
O 36 21 0 
O 86 67 0 
O 50 12 0 
O 90 82 0 
15
Atoms. Timestep: 21
N 19 49 0 
N 10 99 0 
N 70 28 0 
N 87 57 0 
N 61 0 0 
O 35 20 0 
O 9 9 0 
O 71 14 0 
O 69 12 0 
O 17 23 0 
O 96 22 0 
O 36 21 0 
O 86 68 0 
O 50 13 0 
O 90 83 0 
15
Atoms. Timestep: 22
N 19 48 0 
N 10 0 0 
N 70 27 0 
N 87 58 0 
N 61 1 0 
O 35 19 0 
O 9 10 0 
O 71 13 0 
O 69 13 0 
O 17 24 0 
O 96 23 0 
O 36 20 0 
O 86 69 0 
O 50 14 0 
O 90 84 0 
15
Atoms. Timestep: 23
N 19 47 0 
N 10 1 0 
N 70 26 0 
N 87 59 0 
N 61 2 0 
O 36 19 0 
O 9 11 0 
O 71 12 0 
O 69 12 0 
O 17 23 0 
O 96 24 0 
O 35 20 0 
O 86 70 0 
O 50 15 0 
O 90 85 0 
15
Atoms. Timestep: 24
N 19 46 0 
N 10 2 0 
N 70 25 0 
N 87 60 0 
N 61 3 0 
O 36 19 0 
O 9 12 0 
O 71 11 0 
O 69 13 0 
O 17 24 0 
O 96 25 0 
O 35 19 0 
O 86 71 0 
O 50 16 0 
O 90 86 0 
15
Atoms. Timestep: 25
N 19 45 0 
N 10 3 0 
N 70 24 0 
N 87 61 0 
N 62 3 0 
O 37 19 0 
O 9 13 0 
O 72 11 0 
O 69 12 0 
O 17 23 0 
O 96 26 0 
O 35 19 0 
O 86 72 0 
O 50 17 0 
O 90 87 0 
15
Atoms. Timestep: 26
N 19 44 0 
N 10 4 0 
N 70 23 0 
N 87 62 0 
N 62 4 0 
O 36 19 0 
O 9 14 0 
O 72 10 0 
O 69 13 0 
O 17 24 0 
O 96 27 0 
O 35 18 0 
O 86 73 0 
O 50 18 0 
O 90 88 0 
15
Atoms. Timestep: 27
N 19 43 0 
N 10 5 0 
N 70 22 0 
N 87 63 0 
N 63 4 0 
O 36 19 0 
O 9 15 0 
O 73 10 0 
O 69 12 0 
O 17 23 0 
O 96 28 0 
O 36 18 0 
O 86 74 0 
O 50 19 0 
O 90 89 0 
15
Atoms. Timestep: 28
N 19 42 0 
N 10 6 0 
N 70 21 0 
N 87 64 0 
N 63 5 0 
O 36 18 0 
O 9 16 0 
O 73 9 0 
O 69 11 0 
O 17 24 0 
O 95 28 0 
O 37 18 0 
O 86 75 0 
O 50 20 0 
O 90 90 0 
15
Atoms. Timestep: 29
N 19 41 0 
N 10 7 0 
N 70 20 0 
N 87 65 0 
N 64 5 0 
O 36 17 0 
O 9 17 0 
O 74 9 0 
O 69 12 0 
O 17 23 0 
O 95 29 0 
O 37 17 0 
O 86 76 0 
O 49 20 0 
O 90 91 0 
15
Atoms. Timestep: 30
N 19 40 0 
N 10 8 0 
N 70 19 0 
N 87 66 0 
N 64 6 0 
O 37 17 0 
O 9 18 0 
O 74 8 0 
O 69 11 0 
O 17 24 0 
O 95 30 0 
O 38 17 0 
O 86 77 0 
O 48 20 0 
O 90 92 0 
15
Atoms. Timestep: 31
N 19 39 0 
N 10 9 0 
N 70 18 0 
N 87 67 0 
N 65 6 0 
O 37 16 0 
O 9 19 0 
O 75 8 0 
O 69 12 0 
O 17 23 0 
O 94 30 0 
O 38 16 0 
O 86 78 0 
O 47 20 0 
O 90 93 0 
15
Atoms. Timestep: 32
N 19 38 0 
N 10 10 0 
N 70 17 0 
N 87 68 0 
N 65 7 0 
O 38 16 0 
O 9 20 0 
O 75 7 0 
O 69 11 0 
O 17 24 0 
O 94 31 0 
O 39 16 0 
O 86 79 0 
O 46 20 0 
O 90 94 0 
15
Atoms. Timestep: 33
N 19 37 0 
N 10 11 0 
N 70 16 0 
N 87 69 0 
N 66 7 0 
O 38 15 0 
O 9 21 0 
O 76 7 0 
O 69 10 0 
O 17 23 0 
O 93 31 0 
O 39 16 0 
O 86 80 0 
O 45 20 0 
O 90 95 0 
15
Atoms. Timestep: 34
N 19 36 0 
N 10 12 0 
N 70 15 0 
N 87 70 0 
N 66 8 0 
O 38 14 0 
O 9 22 0 
O 76 6 0 
O 70 10 0 
O 17 22 0 
O 93 32 0 
O 39 15 0 
O 86 81 0 
O 44 20 0 
O 90 96 0 
15
Atoms. Timestep: 35
N 19 35 0 
N 10 13 0 
N 70 14 0 
N 87 71 0 
N 67 8 0 
O 38 13 0 
O 9 23 0 
O 77 6 0 
O 71 10 0 
O 17 23 0 
O 93 33 0 
O 39 14 0 
O 86 82 0 
O 43 20 0 
O 90 97 0 
15
Atoms. Timestep: 36
N 19 34 0 
N 10 14 0 
N 70 13 0 
N 87 72 0 
N 68 8 0 
O 38 12 0 
O 9 24 0 
O 78 6 0 
O 71 9 0 
O 17 22 0 
O 93 34 0 
O 40 14 0 
O 86 83 0 
O 44 20 0 
O 91 97 0 
15
Atoms. Timestep: 37
N 19 33 0 
N 10 15 0 
N 70 12 0 
N 87 73 0 
N 69 8 0 
O 38 11 0 
O 9 25 0 
O 79 6 0 
O 72 9 0 
O 18 22 0 
O 93 35 0 
O 41 14 0 
O 86 84 0 
O 43 20 0 
O 91 98 0 
15
Atoms. Timestep: 38
N 19 32 0 
N 10 16 0 
N 70 11 0 
N 87 74 0 
N 70 8 0 
O 38 10 0 
O 9 26 0 
O 80 6 0 
O 73 9 0 
O 18 21 0 
O 93 36 0 
O 42 14 0 
O 86 85 0 
O 44 20 0 
O 92 98 0 
15
Atoms. Timestep: 39
N 18 32 0 
N 11 16 0 
N 71 11 0 
N 87 75 0 
N 70 7 0 
O 39 10 0 
O 8 26 0 
O 81 6 0 
O 74 9 0 
O 19 21 0 
O 92 36 0 
O 41 14 0 
O 86 86 0 
O 45 20 0 
O 92 99 0 
15
Atoms. Timestep: 40
N 17 32 0 
N 12 16 0 
N 72 11 0 
N 87 76 0 
N 70 6 0 
O 40 10 0 
O 7 26 0 
O 82 6 0 
O 74 8 0 
O 20 21 0 
O 91 36 0 
O 42 14 0 
O 86 87 0 
O 44 20 0 
O 93 99 0 
15
Atoms. Timestep: 41
N 16 32 0 
N 13 16 0 
N 72 10 0 
N 87 77 0 
N 71 6 0 
O 41 10 0 
O 6 26 0 
O 83 6 0 
O 74 7 0 
O 21 21 0 
O 90 36 0 
O 43 14 0 
O 86 88 0 
O 43 20 0 
O 93 0 0 
15
Atoms. Timestep: 42
N 15 32 0 
N 14 16 0 
N 72 9 0 
N 87 78 0 
N 72 6 0 
O 42 10 0 
O 5 26 0 
O 84 6 0 
O 74 6 0 
O 22 21 0 
O 89 36 0 
O 44 14 0 
O 86 89 0 
O 44 20 0 
O 94 0 0 
15
Atoms. Timestep: 43
N 14 32 0 
N 15 16 0 
N 72 10 0 
N 87 79 0 
N 73 6 0 
O 43 10 0 
O 4 26 0 
O 85 6 0 
O 75 6 0 
O 23 21 0 
O 88 36 0 
O 43 14 0 
O 86 90 0 
O 45 20 0 
O 95 0 0 
15
Atoms. Timestep: 44
N 13 32 0 
N 16 16 0 
N 72 11 0 
N 87 80 0 
N 74 6 0 
O 44 10 0 
O 3 26 0 
O 86 6 0 
O 76 6 0 
O 24 21 0 
O 87 36 0 
O 44 14 0 
O 86 91 0 
O 44 20 0 
O 95 1 0 
15
Atoms. Timestep: 45
N 12 32 0 
N 17 16 0 
N 72 12 0 
N 87 81 0 
N 75 6 0 
O 45 10 0 
O 2 26 0 
O 87 6 0 
O 77 6 0 
O 25 21 0 
O 86 36 0 
O 45 14 0 
O 86 92 0 
O 45 20 0 
O 96 1 0 
15
Atoms. Timestep: 46
N 11 32 0 
N 18 16 0 
N 72 13 0 
N 87 82 0 
N 76 6 0 
O 46 10 0 
O 1 26 0 
O 88 6 0 
O 78 6 0 
O 26 21 0 
O 85 36 0 
O 46 14 0 
O 86 93 0 
O 46 20 0 
O 97 1 0 
15
Atoms. Timestep: 47
N 10 32 0 
N 19 16 0 
N 72 14 0 
N 87 83 0 
N 77 6 0 
O 45 10 0 
O 0 26 0 
O 89 6 0 
O 79 6 0 
O 27 21 0 
O 84 36 0 
O 45 14 0 
O 86 94 0 
O 45 20 0 
O 97 2 0 
15
Atoms. Timestep: 48
N 9 32 0 
N 20 16 0 
N 72 15 0 
N 87 84 0 
N 78 6 0 
O 46 10 0 
O 99 26 0 
O 90 6 0 
O 80 6 0 
O 28 21 0 
O 84 37 0 
O 46 14 0 
O 86 95 0 
O 46 20 0 
O 98 2 0 
15
Atoms. Timestep: 49
N 8 32 0 
N 21 16 0 
N 72 16 0 
N 87 85 0 
N 79 6 0 
O 47 10 0 
O 98 26 0 
O 91 6 0 
O 81 6 0 
O 29 21 0 
O 83 37 0 
O 47 14 0 
O 86 96 0 
O 47 20 0 
O 99 2 0 
15
Atoms. Timestep: 50
N 7 32 0 
N 22 16 0 
N 72 17 0 
N 87 86 0 
N 80 6 0 
O 48 10 0 
O 97 26 0 
O 92 6 0 
O 82 6 0 
O 30 21 0 
O 83 38 0 
O 48 14 0 
O 86 97 0 
O 48 20 0 
O 0 2 0 
15
Atoms. Timestep: 51
N 6 32 0 
N 23 16 0 
N 72 18 0 
N 87 87 0 
N 81 6 0 
O 49 10 0 
O 96 26 0 
O 93 6 0 
O 83 6 0 
O 31 21 0 
O 83 39 0 
O 47 14 0 
O 86 98 0 
O 47 20 0 
O 0 3 0 
15
Atoms. Timestep: 52
N 5 32 0 
N 24 16 0 
N 72 19 0 
N 87 88 0 
N 82 6 0 
O 48 10 0 
O 95 26 0 
O 94 6 0 
O 84 6 0 
O 32 21 0 
O 83 40 0 
O 48 14 0 
O 86 97 0 
O 48 20 0 
O 1 3 0 
15
Atoms. Timestep: 53
N 4 32 0 
N 25 16 0 
N 72 20 0 
N 87 89 0 
N 83 6 0 
O 49 10 0 
O 94 26 0 
O 95 6 0 
O 85 6 0 
O 33 21 0 
O 82 40 0 
O 49 14 0 
O 86 98 0 
O 49 20 0 
O 2 3 0 
15
Atoms. Timestep: 54
N 3 32 0 
N 26 16 0 
N 72 21 0 
N 87 90 0 
N 84 6 0 
O 50 10 0 
O 93 26 0 
O 96 6 0 
O 86 6 0 
O 34 21 0 
O 82 41 0 
O 50 14 0 
O 86 99 0 
O 50 20 0 
O 3 3 0 
15
Atoms. Timestep: 55
N 2 32 0 
N 27 16 0 
N 72 22 0 
N 87 91 0 
N 85 6 0 
O 51 10 0 
O 92 26 0 
O 97 6 0 
O 87 6 0 
O 35 21 0 
O 81 41 0 
O 51 14 0 
O 86 98 0 
O 49 20 0 
O 4 3 0 
15
Atoms. Timestep: 56
N 1 32 0 
N 28 16 0 
N 73 22 0 
N 87 92 0 
N 86 6 0 
O 52 10 0 
O 91 26 0 
O 98 6 0 
O 88 6 0 
O 36 21 0 
O 81 42 0 
O 52 14 0 
O 86 99 0 
O 50 20 0 
O 5 3 0 
15
Atoms. Timestep: 57
N 0 32 0 
N 29 16 0 
N 74 22 0 
N 87 93 0 
N 87 6 0 
O 53 10 0 
O 90 26 0 
O 99 6 0 
O 89 6 0 
O 37 21 0 
O 80 42 0 
O 53 14 0 
O 86 0 0 
O 51 20 0 
O 6 3 0 
15
Atoms. Timestep: 58
N 99 32 0 
N 30 16 0 
N 75 22 0 
N 87 94 0 
N 88 6 0 
O 54 10 0 
O 89 26 0 
O 0 6 0 
O 90 6 0 
O 38 21 0 
O 80 43 0 
O 54 14 0 
O 86 1 0 
O 52 20 0 
O 7 3 0 
15
Atoms. Timestep: 59
N 98 32 0 
N 31 16 0 
N 76 22 0 
N 87 95 0 
N 89 6 0 
O 55 10 0 
O 88 26 0 
O 1 6 0 
O 91 6 0 
O 39 21 0 
O 79 43 0 
O 55 14 0 
O 86 0 0 
O 53 20 0 
O 8 3 0 
15
Atoms. Timestep: 60
N 97 32 0 
N 32 16 0 
N 77 22 0 
N 87 96 0 
N 90 6 0 
O 56 10 0 
O 87 26 0 
O 2 6 0 
O 92 6 0 
O 40 21 0 
O 78 43 0 
O 56 14 0 
O 86 1 0 
O 54 20 0 
O 9 3 0 
15
Atoms. Timestep: 61
N 96 32 0 
N 33 16 0 
N 78 22 0 
N 87 97 0 
N 91 6 0 
O 57 10 0 
O 88 26 0 
O 3 6 0 
O 93 6 0 
O 41 21 0 
O 77 43 0 
O 57 14 0 
O 86 2 0 
O 55 20 0 
O 10 3 0 
15
Atoms. Timestep: 62
N 95 32 0 
N 34 16 0 
N 79 22 0 
N 87 98 0 
N 92 6 0 
O 58 10 0 
O 87 26 0 
O 4 6 0 
O 94 6 0 
O 42 21 0 
O 76 43 0 
O 58 14 0 
O 86 3 0 
O 56 20 0 
O 11 3 0 
15
Atoms. Timestep: 63
N 94 32 0 
N 35 16 0 
N 80 22 0 
N 87 99 0 
N 93 6 0 
O 59 10 0 
O 88 26 0 
O 5 6 0 
O 95 6 0 
O 43 21 0 
O 75 43 0 
O 59 14 0 
O 86 4 0 
O 57 20 0 
O 12 3 0 
15
Atoms. Timestep: 64
N 94 31 0 
N 36 16 0 
N 81 22 0 
N 87 0 0 
N 94 6 0 
O 60 10 0 
O 87 26 0 
O 6 6 0 
O 96 6 0 
O 44 21 0 
O 75 44 0 
O 60 14 0 
O 86 5 0 
O 58 20 0 
O 13 3 0 
15
Atoms. Timestep: 65
N 93 31 0 
N 37 16 0 
N 82 22 0 
N 87 1 0 
N 95 6 0 
O 61 10 0 
O 88 26 0 
O 7 6 0 
O 97 6 0 
O 45 21 0 
O 74 44 0 
O 61 14 0 
O 86 6 0 
O 59 20 0 
O 14 3 0 
15
Atoms. Timestep: 66
N 92 31 0 
N 38 16 0 
N 83 22 0 
N 87 2 0 
N 96 6 0 
O 62 10 0 
O 88 25 0 
O 8 6 0 
O 98 6 0 
O 46 21 0 
O 73 44 0 
O 62 14 0 
O 86 7 0 
O 60 20 0 
O 15 3 0 
15
Atoms. Timestep: 67
N 92 30 0 
N 39 16 0 
N 84 22 0 
N 87 3 0 
N 97 6 0 
O 63 10 0 
O 89 25 0 
O 9 6 0 
O 99 6 0 
O 47 21 0 
O 72 44 0 
O 63 14 0 
O 86 8 0 
O 61 20 0 
O 16 3 0 
15
Atoms. Timestep: 68
N 92 29 0 
N 40 16 0 
N 85 22 0 
N 87 4 0 
N 98 6 0 
O 64 10 0 
O 89 24 0 
O 10 6 0 
O 0 6 0 
O 48 21 0 
O 71 44 0 
O 64 14 0 
O 86 9 0 
O 62 20 0 
O 17 3 0 
15
Atoms. Timestep: 69
N 92 28 0 
N 41 16 0 
N 86 22 0 
N 87 5 0 
N 99 6 0 
O 65 10 0 
O 90 24 0 
O 11 6 0 
O 1 6 0 
O 49 21 0 
O 70 44 0 
O 65 14 0 
O 86 10 0 
O 63 20 0 
O 18 3 0 
15
Atoms. Timestep: 70
N 92 27 0 
N 42 16 0 
N 87 22 0 
N 87 6 0 
N 0 6 0 
O 64 10 0 
O 90 23 0 
O 12 6 0 
O 2 6 0 
O 50 21 0 
O 69 44 0 
O 66 14 0 
O 86 11 0 
O 64 20 0 
O 19 3 0 
15
Atoms. Timestep: 71
N 92 26 0 
N 43 16 0 
N 88 22 0 
N 87 7 0 
N 1 6 0 
O 65 10 0 
O 91 23 0 
O 13 6 0 
O 3 6 0 
O 51 21 0 
O 68 44 0 
O 65 14 0 
O 86 12 0 
O 65 20 0 
O 20 3 0 
15
Atoms. Timestep: 72
N 92 25 0 
N 44 16 0 
N 89 22 0 
N 87 8 0 
N 2 6 0 
O 66 10 0 
O 91 22 0 
O 14 6 0 
O 4 6 0 
O 52 21 0 
O 67 44 0 
O 66 14 0 
O 86 13 0 
O 66 20 0 
O 21 3 0 
15
Atoms. Timestep: 73
N 92 26 0 
N 45 16 0 
N 90 22 0 
N 87 9 0 
N 3 6 0 
O 67 10 0 
O 92 22 0 
O 15 6 0 
O 5 6 0 
O 53 21 0 
O 66 44 0 
O 67 14 0 
O 86 14 0 
O 67 20 0 
O 22 3 0 
15
Atoms. Timestep: 74
N 92 27 0 
N 46 16 0 
N 91 22 0 
N 87 10 0 
N 4 6 0 
O 66 10 0 
O 93 22 0 
O 16 6 0 
O 6 6 0 
O 54 21 0 
O 65 44 0 
O 66 14 0 
O 86 15 0 
O 68 20 0 
O 23 3 0 
15
Atoms. Timestep: 75
N 92 28 0 
N 47 16 0 
N 92 22 0 
N 87 11 0 
N 5 6 0 
O 67 10 0 
O 94 22 0 
O 17 6 0 
O 7 6 0 
O 55 21 0 
O 64 44 0 
O 67 14 0 
O 86 16 0 
O 69 20 0 
O 24 3 0 
15
Atoms. Timestep: 76
N 92 29 0 
N 48 16 0 
N 93 22 0 
N 87 12 0 
N 6 6 0 
O 68 10 0 
O 95 22 0 
O 18 6 0 
O 8 6 0 
O 56 21 0 
O 63 44 0 
O 68 14 0 
O 86 17 0 
O 68 20 0 
O 25 3 0 
15
Atoms. Timestep: 77
N 92 30 0 
N 49 16 0 
N 94 22 0 
N 87 13 0 
N 7 6 0 
O 69 10 0 
O 96 22 0 
O 19 6 0 
O 9 6 0 
O 57 21 0 
O 63 45 0 
O 69 14 0 
O 86 18 0 
O 69 20 0 
O 26 3 0 
15
Atoms. Timestep: 78
N 92 31 0 
N 50 16 0 
N 95 22 0 
N 87 14 0 
N 8 6 0 
O 68 10 0 
O 97 22 0 
O 20 6 0 
O 10 6 0 
O 58 21 0 
O 63 46 0 
O 68 14 0 
O 86 19 0 
O 68 20 0 
O 27 3 0 
15
Atoms. Timestep: 79
N 92 32 0 
N 51 16 0 
N 95 21 0 
N 87 15 0 
N 9 6 0 
O 69 10 0 
O 98 22 0 
O 21 6 0 
O 11 6 0 
O 59 21 0 
O 62 46 0 
O 69 14 0 
O 86 20 0 
O 69 20 0 
O 28 3 0 
15
Atoms. Timestep: 80
N 92 33 0 
N 52 16 0 
N 96 21 0 
N 87 16 0 
N 10 6 0 
O 70 10 0 
O 99 22 0 
O 22 6 0 
O 12 6 0 
O 60 21 0 
O 62 47 0 
O 70 14 0 
O 86 21 0 
O 70 20 0 
O 29 3 0 
15
Atoms. Timestep: 81
N 92 34 0 
N 53 16 0 
N 97 21 0 
N 87 17 0 
N 11 6 0 
O 71 10 0 
O 0 22 0 
O 23 6 0 
O 13 6 0 
O 61 21 0 
O 61 47 0 
O 71 14 0 
O 86 22 0 
O 71 20 0 
O 30 3 0 
15
Atoms. Timestep: 82
N 92 33 0 
N 54 16 0 
N 98 21 0 
N 87 18 0 
N 12 6 0 
O 70 10 0 
O 1 22 0 
O 24 6 0 
O 14 6 0 
O 62 21 0 
O 61 48 0 
O 70 14 0 
O 86 23 0 
O 70 20 0 
O 31 3 0 
15
Atoms. Timestep: 83
N 92 32 0 
N 55 16 0 
N 99 21 0 
N 87 19 0 
N 13 6 0 
O 71 10 0 
O 2 22 0 
O 25 6 0 
O 15 6 0 
O 63 21 0 
O 61 49 0 
O 71 14 0 
O 86 24 0 
O 71 20 0 
O 32 3 0 
15
Atoms. Timestep: 84
N 92 31 0 
N 56 16 0 
N 0 21 0 
N 87 20 0 
N 14 6 0 
O 72 10 0 
O 3 22 0 
O 26 6 0 
O 16 6 0 
O 64 21 0 
O 61 50 0 
O 72 14 0 
O 86 25 0 
O 72 20 0 
O 33 3 0 
15
Atoms. Timestep: 85
N 91 31 0 
N 57 16 0 
N 1 21 0 
N 87 21 0 
N 15 6 0 
O 73 10 0 
O 4 22 0 
O 27 6 0 
O 17 6 0 
O 65 21 0 
O 61 51 0 
O 73 14 0 
O 86 26 0 
O 73 20 0 
O 34 3 0 
15
Atoms. Timestep: 86
N 90 31 0 
N 57 17 0 
N 2 21 0 
N 87 22 0 
N 16 6 0 
O 74 10 0 
O 5 22 0 
O 28 6 0 
O 18 6 0 
O 66 21 0 
O 61 52 0 
O 74 14 0 
O 86 27 0 
O 72 20 0 
O 35 3 0 
15
Atoms. Timestep: 87
N 89 31 0 
N 58 17 0 
N 3 21 0 
N 87 23 0 
N 17 6 0 
O 75 10 0 
O 6 22 0 
O 29 6 0 
O 19 6 0 
O 67 21 0 
O 60 52 0 
O 73 14 0 
O 86 28 0 
O 73 20 0 
O 36 3 0 
15
Atoms. Timestep: 88
N 88 31 0 
N 59 17 0 
N 4 21 0 
N 87 24 0 
N 18 6 0 
O 76 10 0 
O 7 22 0 
O 30 6 0 
O 20 6 0 
O 68 21 0 
O 59 52 0 
O 74 14 0 
O 86 27 0 
O 74 20 0 
O 37 3 0 
15
Atoms. Timestep: 89
N 88 30 0 
N 60 17 0 
N 5 21 0 
N 87 25 0 
N 19 6 0 
O 77 10 0 
O 8 22 0 
O 31 6 0 
O 21 6 0 
O 69 21 0 
O 59 53 0 
O 75 14 0 
O 86 28 0 
O 73 20 0 
O 38 3 0 
15
Atoms. Timestep: 90
N 87 30 0 
N 61 17 0 
N 6 21 0 
N 87 26 0 
N 20 6 0 
O 78 10 0 
O 9 22 0 
O 32 6 0 
O 22 6 0 
O 70 21 0 
O 58 53 0 
O 76 14 0 
O 86 27 0 
O 74 20 0 
O 39 3 0 
15
Atoms. Timestep: 91
N 87 31 0 
N 62 17 0 
N 7 21 0 
N 87 27 0 
N 21 6 0 
O 79 10 0 
O 10 22 0 
O 33 6 0 
O 23 6 0 
O 71 21 0 
O 57 53 0 
O 77 14 0 
O 85 27 0 
O 75 20 0 
O 40 3 0 
15
Atoms. Timestep: 92
N 87 32 0 
N 63 17 0 
N 8 21 0 
N 86 27 0 
N 22 6 0 
O 80 10 0 
O 11 22 0 
O 34 6 0 
O 24 6 0 
O 72 21 0 
O 56 53 0 
O 78 14 0 
O 84 27 0 
O 76 20 0 
O 41 3 0 
15
Atoms. Timestep: 93
N 87 33 0 
N 64 17 0 
N 9 21 0 
N 85 27 0 
N 23 6 0 
O 81 10 0 
O 12 22 0 
O 35 6 0 
O 25 6 0 
O 73 21 0 
O 55 53 0 
O 79 14 0 
O 83 27 0 
O 75 20 0 
O 42 3 0 
15
Atoms. Timestep: 94
N 87 34 0 
N 65 17 0 
N 10 21 0 
N 84 27 0 
N 24 6 0 
O 82 10 0 
O 13 22 0 
O 36 6 0 
O 26 6 0 
O 74 21 0 
O 54 53 0 
O 79 13 0 
O 82 27 0 
O 76 20 0 
O 43 3 0 
15
Atoms. Timestep: 95
N 87 35 0 
N 66 17 0 
N 11 21 0 
N 83 27 0 
N 25 6 0 
O 83 10 0 
O 14 22 0 
O 37 6 0 
O 27 6 0 
O 75 21 0 
O 53 53 0 
O 80 13 0 
O 81 27 0 
O 75 20 0 
O 44 3 0 
15
Atoms. Timestep: 96
N 87 36 0 
N 67 17 0 
N 12 21 0 
N 82 27 0 
N 26 6 0 
O 84 10 0 
O 15 22 0 
O 38 6 0 
O 28 6 0 
O 76 21 0 
O 52 53 0 
O 81 13 0 
O 80 27 0 
O 76 20 0 
O 45 3 0 
15
Atoms. Timestep: 97
N 87 37 0 
N 68 17 0 
N 13 21 0 
N 81 27 0 
N 27 6 0 
O 85 10 0 
O 16 22 0 
O 39 6 0 
O 29 6 0 
O 76 20 0 
O 51 53 0 
O 82 13 0 
O 79 27 0 
O 77 20 0 
O 46 3 0 
15
Atoms. Timestep: 98
N 87 38 0 
N 69 17 0 
N 14 21 0 
N 80 27 0 
N 28 6 0 
O 86 10 0 
O 17 22 0 
O 40 6 0 
O 30 6 0 
O 77 20 0 
O 50 53 0 
O 83 13 0 
O 78 27 0 
O 77 19 0 
O 47 3 0 
15
Atoms. Timestep: 99
N 87 39 0 
N 70 17 0 
N 15 21 0 
N 79 27 0 
N 29 6 0 
O 87 10 0 
O 18 22 0 
O 41 6 0 
O 31 6 0 
O 78 20 0 
O 49 53 0 
O 84 13 0 
O 77 27 0 
O 78 19 0 
O 48 3 0 
15
Atoms. Timestep: 100
N 87 40 0 
N 71 17 0 
N 16 21 0 
N 78 27 0 
N 30 6 0 
O 88 10 0 
O 19 22 0 
O 42 6 0 
O 32 6 0 
O 79 20 0 
O 48 53 0 
O 85 13 0 
O 76 27 0 
O 79 19 0 
O 49 3 0 
15
Atoms. Timestep: 101
N 87 41 0 
N 72 17 0 
N 17 21 0 
N 77 27 0 
N 31 6 0 
O 89 10 0 
O 20 22 0 
O 43 6 0 
O 33 6 0 
O 80 20 0 
O 47 53 0 
O 86 13 0 
O 75 27 0 
O 80 19 0 
O 50 3 0 
15
Atoms. Timestep: 102
N 87 42 0 
N 73 17 0 
N 18 21 0 
N 76 27 0 
N 32 6 0 
O 90 10 0 
O 21 22 0 
O 44 6 0 
O 34 6 0 
O 81 20 0 
O 46 53 0 
O 87 13 0 
O 74 27 0 
O 81 19 0 
O 51 3 0 
15
Atoms. Timestep: 103
N 87 43 0 
N 74 17 0 
N 19 21 0 
N 75 27 0 
N 33 6 0 
O 91 10 0 
O 22 22 0 
O 45 6 0 
O 35 6 0 
O 82 20 0 
O 45 53 0 
O 88 13 0 
O 73 27 0 
O 82 19 0 
O 52 3 0 
15
Atoms. Timestep: 104
N 87 44 0 
N 75 17 0 
N 20 21 0 
N 74 27 0 
N 34 6 0 
O 92 10 0 
O 23 22 0 
O 46 6 0 
O 36 6 0 
O 83 20 0 
O 44 53 0 
O 89 13 0 
O 72 27 0 
O 83 19 0 
O 53 3 0 
15
Atoms. Timestep: 105
N 87 45 0 
N 76 17 0 
N 21 21 0 
N 73 27 0 
N 35 6 0 
O 93 10 0 
O 24 22 0 
O 47 6 0 
O 37 6 0 
O 84 20 0 
O 43 53 0 
O 90 13 0 
O 71 27 0 
O 84 19 0 
O 54 3 0 
15
Atoms. Timestep: 106
N 87 46 0 
N 77 17 0 
N 22 21 0 
N 72 27 0 
N 36 6 0 
O 94 10 0 
O 25 22 0 
O 48 6 0 
O 38 6 0 
O 85 20 0 
O 43 54 0 
O 91 13 0 
O 70 27 0 
O 85 19 0 
O 55 3 0 
15
Atoms. Timestep: 107
N 87 47 0 
N 78 17 0 
N 23 21 0 
N 71 27 0 
N 37 6 0 
O 95 10 0 
O 26 22 0 
O 49 6 0 
O 39 6 0 
O 86 20 0 
O 43 55 0 
O 92 13 0 
O 69 27 0 
O 86 19 0 
O 56 3 0 
15
Atoms. Timestep: 108
N 87 48 0 
N 79 17 0 
N 24 21 0 
N 70 27 0 
N 38 6 0 
O 96 10 0 
O 27 22 0 
O 50 6 0 
O 40 6 0 
O 87 20 0 
O 43 56 0 
O 93 13 0 
O 68 27 0 
O 87 19 0 
O 57 3 0 
15
Atoms. Timestep: 109
N 87 49 0 
N 80 17 0 
N 25 21 0 
N 69 27 0 
N 39 6 0 
O 97 10 0 
O 28 22 0 
O 51 6 0 
O 41 6 0 
O 88 20 0 
O 43 57 0 
O 94 13 0 
O 67 27 0 
O 88 19 0 
O 58 3 0 
15
Atoms. Timestep: 110
N 87 50 0 
N 81 17 0 
N 26 21 0 
N 68 27 0 
N 40 6 0 
O 98 10 0 
O 29 22 0 
O 52 6 0 
O 42 6 0 
O 89 20 0 
O 43 58 0 
O 95 13 0 
O 66 27 0 
O 89 19 0 
O 59 3 0 
15
Atoms. Timestep: 111
N 87 51 0 
N 82 17 0 
N 27 21 0 
N 67 27 0 
N 41 6 0 
O 99 10 0 
O 30 22 0 
O 53 6 0 
O 43 6 0 
O 90 20 0 
O 43 59 0 
O 96 13 0 
O 65 27 0 
O 90 19 0 
O 60 3 0 
15
Atoms. Timestep: 112
N 87 52 0 
N 83 17 0 
N 28 21 0 
N 66 27 0 
N 42 6 0 
O 0 10 0 
O 31 22 0 
O 54 6 0 
O 44 6 0 
O 91 20 0 
O 43 60 0 
O 97 13 0 
O 64 27 0 
O 91 19 0 
O 61 3 0 
15
Atoms. Timestep: 113
N 87 51 0 
N 84 17 0 
N 29 21 0 
N 65 27 0 
N 43 6 0 
O 1 10 0 
O 32 22 0 
O 55 6 0 
O 45 6 0 
O 92 20 0 
O 43 61 0 
O 98 13 0 
O 63 27 0 
O 92 19 0 
O 62 3 0 
15
Atoms. Timestep: 114
N 87 50 0 
N 85 17 0 
N 30 21 0 
N 64 27 0 
N 44 6 0 
O 2 10 0 
O 33 22 0 
O 56 6 0 
O 46 6 0 
O 93 20 0 
O 43 62 0 
O 99 13 0 
O 62 27 0 
O 93 19 0 
O 63 3 0 
15
Atoms. Timestep: 115
N 87 49 0 
N 86 17 0 
N 31 21 0 
N 63 27 0 
N 45 6 0 
O 3 10 0 
O 34 22 0 
O 57 6 0 
O 47 6 0 
O 94 20 0 
O 43 63 0 
O 0 13 0 
O 61 27 0 
O 94 19 0 
O 64 3 0 
15
Atoms. Timestep: 116
N 87 48 0 
N 87 17 0 
N 32 21 0 
N 62 27 0 
N 46 6 0 
O 4 10 0 
O 35 22 0 
O 58 6 0 
O 48 6 0 
O 95 20 0 
O 43 64 0 
O 1 13 0 
O 60 27 0 
O 95 19 0 
O 65 3 0 
15
Atoms. Timestep: 117
N 87 47 0 
N 88 17 0 
N 33 21 0 
N 61 27 0 
N 47 6 0 
O 5 10 0 
O 36 22 0 
O 59 6 0 
O 49 6 0 
O 96 20 0 
O 43 65 0 
O 2 13 0 
O 59 27 0 
O 96 19 0 
O 66 3 0 
15
Atoms. Timestep: 118
N 87 46 0 
N 89 17 0 
N 34 21 0 
N 60 27 0 
N 48 6 0 
O 6 10 0 
O 37 22 0 
O 60 6 0 
O 50 6 0 
O 97 20 0 
O 43 66 0 
O 3 13 0 
O 58 27 0 
O 97 19 0 
O 67 3 0 
15
Atoms. Timestep: 119
N 87 45 0 
N 90 17 0 
N 35 21 0 
N 59 27 0 
N 47 6 0 
O 7 10 0 
O 38 22 0 
O 61 6 0 
O 51 6 0 
O 98 20 0 
O 43 65 0 
O 4 13 0 
O 57 27 0 
O 98 19 0 
O 68 3 0 
15
Atoms. Timestep: 120
N 87 44 0 
N 91 17 0 
N 36 21 0 
N 58 27 0 
N 48 6 0 
O 8 10 0 
O 39 22 0 
O 62 6 0 
O 52 6 0 
O 99 20 0 
O 43 66 0 
O 5 13 0 
O 56 27 0 
O 99 19 0 
O 69 3 0 
15
Atoms. Timestep: 121
N 87 43 0 
N 92 17 0 
N 37 21 0 
N 57 27 0 
N 49 6 0 
O 9 10 0 
O 40 22 0 
O 63 6 0 
O 53 6 0 
O 0 20 0 
O 43 65 0 
O 6 13 0 
O 55 27 0 
O 0 19 0 
O 70 3 0 
15
Atoms. Timestep: 122
N 87 44 0 
N 93 17 0 
N 38 21 0 
N 57 26 0 
N 50 6 0 
O 10 10 0 
O 41 22 0 
O 64 6 0 
O 54 6 0 
O 1 20 0 
O 43 66 0 
O 7 13 0 
O 54 27 0 
O 1 19 0 
O 71 3 0 
15
Atoms. Timestep: 123
N 87 45 0 
N 94 17 0 
N 39 21 0 
N 56 26 0 
N 51 6 0 
O 11 10 0 
O 42 22 0 
O 65 6 0 
O 55 6 0 
O 2 20 0 
O 43 65 0 
O 8 13 0 
O 53 27 0 
O 2 19 0 
O 72 3 0 
15
Atoms. Timestep: 124
N 87 46 0 
N 95 17 0 
N 40 21 0 
N 55 26 0 
N 52 6 0 
O 12 10 0 
O 43 22 0 
O 66 6 0 
O 56 6 0 
O 3 20 0 
O 43 66 0 
O 9 13 0 
O 52 27 0 
O 3 19 0 
O 73 3 0 
15
Atoms. Timestep: 125
N 87 47 0 
N 96 17 0 
N 41 21 0 
N 54 26 0 
N 53 6 0 
O 13 10 0 
O 44 22 0 
O 67 6 0 
O 57 6 0 
O 4 20 0 
O 43 67 0 
O 10 13 0 
O 51 27 0 
O 4 19 0 
O 74 3 0 
15
Atoms. Timestep: 126
N 87 48 0 
N 97 17 0 
N 42 21 0 
N 53 26 0 
N 54 6 0 
O 14 10 0 
O 45 22 0 
O 68 6 0 
O 58 6 0 
O 5 20 0 
O 43 66 0 
O 11 13 0 
O 50 27 0 
O 5 19 0 
O 75 3 0 
15
Atoms. Timestep: 127
N 87 49 0 
N 98 17 0 
N 43 21 0 
N 52 26 0 
N 55 6 0 
O 15 10 0 
O 46 22 0 
O 69 6 0 
O 59 6 0 
O 6 20 0 
O 43 67 0 
O 12 13 0 
O 49 27 0 
O 6 19 0 
O 76 3 0 
15
Atoms. Timestep: 128
N 87 50 0 
N 99 17 0 
N 44 21 0 
N 51 26 0 
N 56 6 0 
O 16 10 0 
O 47 22 0 
O 70 6 0 
O 60 6 0 
O 7 20 0 
O 43 68 0 
O 13 13 0 
O 48 27 0 
O 7 19 0 
O 77 3 0 
15
Atoms. Timestep: 129
N 87 51 0 
N 0 17 0 
N 45 21 0 
N 50 26 0 
N 57 6 0 
O 17 10 0 
O 48 22 0 
O 71 6 0 
O 61 6 0 
O 8 20 0 
O 43 67 0 
O 14 13 0 
O 47 27 0 
O 8 19 0 
O 78 3 0 
15
Atoms. Timestep: 130
N 87 52 0 
N 1 17 0 
N 46 21 0 
N 49 26 0 
N 58 6 0 
O 18 10 0 
O 49 22 0 
O 72 6 0 
O 62 6 0 
O 9 20 0 
O 43 68 0 
O 15 13 0 
O 46 27 0 
O 9 19 0 
O 79 3 0 
15
Atoms. Timestep: 131
N 87 53 0 
N 2 17 0 
N 47 21 0 
N 48 26 0 
N 59 6 0 
O 19 10 0 
O 50 22 0 
O 73 6 0 
O 63 6 0 
O 10 20 0 
O 43 67 0 
O 16 13 0 
O 45 27 0 
O 10 19 0 
O 80 3 0 
15
Atoms. Timestep: 132
N 87 54 0 
N 3 17 0 
N 48 21 0 
N 47 26 0 
N 60 6 0 
O 20 10 0 
O 51 22 0 
O 74 6 0 
O 64 6 0 
O 11 20 0 
O 43 68 0 
O 17 13 0 
O 44 27 0 
O 11 19 0 
O 81 3 0 
15
Atoms. Timestep: 133
N 87 55 0 
N 4 17 0 
N 49 21 0 
N 46 26 0 
N 61 6 0 
O 21 10 0 
O 52 22 0 
O 75 6 0 
O 65 6 0 
O 12 20 0 
O 43 69 0 
O 18 13 0 
O 43 27 0 
O 12 19 0 
O 82 3 0 
15
Atoms. Timestep: 134
N 87 56 0 
N 5 17 0 
N 50 21 0 
N 45 26 0 
N 62 6 0 
O 22 10 0 
O 53 22 0 
O 76 6 0 
O 66 6 0 
O 13 20 0 
O 43 68 0 
O 19 13 0 
O 42 27 0 
O 13 19 0 
O 83 3 0 
15
Atoms. Timestep: 135
N 87 57 0 
N 6 17 0 
N 51 21 0 
N 44 26 0 
N 63 6 0 
O 23 10 0 
O 54 22 0 
O 77 6 0 
O 67 6 0 
O 14 20 0 
O 43 69 0 
O 20 13 0 
O 41 27 0 
O 14 19 0 
O 84 3 0 
15
Atoms. Timestep: 136
N 87 58 0 
N 7 17 0 
N 52 21 0 
N 43 26 0 
N 64 6 0 
O 24 10 0 
O 55 22 0 
O 78 6 0 
O 68 6 0 
O 15 20 0 
O 43 68 0 
O 21 13 0 
O 40 27 0 
O 15 19 0 
O 85 3 0 
15
Atoms. Timestep: 137
N 86 58 0 
N 8 17 0 
N 53 21 0 
N 42 26 0 
N 64 7 0 
O 25 10 0 
O 56 22 0 
O 79 6 0 
O 69 6 0 
O 16 20 0 
O 43 69 0 
O 22 13 0 
O 39 27 0 
O 16 19 0 
O 86 3 0 
15
Atoms. Timestep: 138
N 85 58 0 
N 9 17 0 
N 54 21 0 
N 41 26 0 
N 65 7 0 
O 26 10 0 
O 57 22 0 
O 80 6 0 
O 70 6 0 
O 17 20 0 
O 42 69 0 
O 23 13 0 
O 38 27 0 
O 17 19 0 
O 87 3 0 
15
Atoms. Timestep: 139
N 84 58 0 
N 10 17 0 
N 55 21 0 
N 40 26 0 
N 66 7 0 
O 27 10 0 
O 58 22 0 
O 81 6 0 
O 71 6 0 
O 18 20 0 
O 41 69 0 
O 24 13 0 
O 37 27 0 
O 18 19 0 
O 88 3 0 
15
Atoms. Timestep: 140
N 84 57 0 
N 11 17 0 
N 56 21 0 
N 39 26 0 
N 67 7 0 
O 28 10 0 
O 59 22 0 
O 82 6 0 
O 72 6 0 
O 19 20 0 
O 41 70 0 
O 25 13 0 
O 36 27 0 
O 19 19 0 
O 89 3 0 
15
Atoms. Timestep: 141
N 84 56 0 
N 12 17 0 
N 57 21 0 
N 38 26 0 
N 68 7 0 
O 29 10 0 
O 60 22 0 
O 83 6 0 
O 73 6 0 
O 20 20 0 
O 41 71 0 
O 26 13 0 
O 35 27 0 
O 20 19 0 
O 90 3 0 
15
Atoms. Timestep: 142
N 84 55 0 
N 13 17 0 
N 58 21 0 
N 37 26 0 
N 69 7 0 
O 30 10 0 
O 61 22 0 
O 84 6 0 
O 74 6 0 
O 21 20 0 
O 40 71 0 
O 27 13 0 
O 34 27 0 
O 21 19 0 
O 91 3 0 
15
Atoms. Timestep: 143
N 84 54 0 
N 14 17 0 
N 59 21 0 
N 36 26 0 
N 70 7 0 
O 31 10 0 
O 62 22 0 
O 85 6 0 
O 75 6 0 
O 22 20 0 
O 40 72 0 
O 28 13 0 
O 33 27 0 
O 22 19 0 
O 92 3 0 
15
Atoms. Timestep: 144
N 84 53 0 
N 15 17 0 
N 60 21 0 
N 35 26 0 
N 71 7 0 
O 31 9 0 
O 63 22 0 
O 86 6 0 
O 76 6 0 
O 23 20 0 
O 40 73 0 
O 29 13 0 
O 32 27 0 
O 23 19 0 
O 93 3 0 
15
Atoms. Timestep: 145
N 84 52 0 
N 16 17 0 
N 61 21 0 
N 34 26 0 
N 72 7 0 
O 32 9 0 
O 64 22 0 
O 87 6 0 
O 77 6 0 
O 24 20 0 
O 40 72 0 
O 30 13 0 
O 31 27 0 
O 24 19 0 
O 94 3 0 
15
Atoms. Timestep: 146
N 84 51 0 
N 17 17 0 
N 62 21 0 
N 33 26 0 
N 73 7 0 
O 33 9 0 
O 65 22 0 
O 88 6 0 
O 78 6 0 
O 25 20 0 
O 40 73 0 
O 31 13 0 
O 30 27 0 
O 25 19 0 
O 95 3 0 
15
Atoms. Timestep: 147
N 84 50 0 
N 18 17 0 
N 63 21 0 
N 32 26 0 
N 74 7 0 
O 34 9 0 
O 66 22 0 
O 89 6 0 
O 79 6 0 
O 26 20 0 
O 40 74 0 
O 32 13 0 
O 29 27 0 
O 26 19 0 
O 96 3 0 
15
Atoms. Timestep: 148
N 84 49 0 
N 19 17 0 
N 64 21 0 
N 31 26 0 
N 75 7 0 
O 35 9 0 
O 67 22 0 
O 90 6 0 
O 80 6 0 
O 27 20 0 
O 40 73 0 
O 33 13 0 
O 28 27 0 
O 27 19 0 
O 97 3 0 
15
Atoms. Timestep: 149
N 84 48 0 
N 20 17 0 
N 65 21 0 
N 30 26 0 
N 76 7 0 
O 36 9 0 
O 68 22 0 
O 91 6 0 
O 81 6 0 
O 27 19 0 
O 40 72 0 
O 34 13 0 
O 27 27 0 
O 28 19 0 
O 98 3 0 
15
Atoms. Timestep: 150
N 84 47 0 
N 21 17 0 
N 66 21 0 
N 29 26 0 
N 77 7 0 
O 37 9 0 
O 69 22 0 
O 92 6 0 
O 82 6 0 
O 28 19 0 
O 40 73 0 
O 35 13 0 
O 26 27 0 
O 29 19 0 
O 99 3 0 
15
Atoms. Timestep: 151
N 84 46 0 
N 22 17 0 
N 67 21 0 
N 28 26 0 
N 78 7 0 
O 38 9 0 
O 70 22 0 
O 93 6 0 
O 83 6 0 
O 29 19 0 
O 40 72 0 
O 36 13 0 
O 25 27 0 
O 30 19 0 
O 0 3 0 
15
Atoms. Timestep: 152
N 84 45 0 
N 23 17 0 
N 68 21 0 
N 27 26 0 
N 79 7 0 
O 39 9 0 
O 71 22 0 
O 94 6 0 
O 84 6 0 
O 30 19 0 
O 40 73 0 
O 37 13 0 
O 24 27 0 
O 31 19 0 
O 1 3 0 
15
Atoms. Timestep: 153
N 84 44 0 
N 24 17 0 
N 69 21 0 
N 26 26 0 
N 80 7 0 
O 40 9 0 
O 72 22 0 
O 95 6 0 
O 85 6 0 
O 31 19 0 
O 40 72 0 
O 38 13 0 
O 23 27 0 
O 32 19 0 
O 2 3 0 
15
Atoms. Timestep: 154
N 84 43 0 
N 25 17 0 
N 70 21 0 
N 25 26 0 
N 81 7 0 
O 41 9 0 
O 73 22 0 
O 96 6 0 
O 86 6 0 
O 32 19 0 
O 40 71 0 
O 39 13 0 
O 22 27 0 
O 33 19 0 
O 3 3 0 
15
Atoms. Timestep: 155
N 84 42 0 
N 26 17 0 
N 71 21 0 
N 24 26 0 
N 82 7 0 
O 42 9 0 
O 74 22 0 
O 97 6 0 
O 87 6 0 
O 33 19 0 
O 40 72 0 
O 40 13 0 
O 21 27 0 
O 34 19 0 
O 4 3 0 
15
Atoms. Timestep: 156
N 84 41 0 
N 27 17 0 
N 72 21 0 
N 23 26 0 
N 83 7 0 
O 43 9 0 
O 75 22 0 
O 98 6 0 
O 88 6 0 
O 34 19 0 
O 40 71 0 
O 41 13 0 
O 20 27 0 
O 35 19 0 
O 5 3 0 
15
Atoms. Timestep: 157
N 84 40 0 
N 28 17 0 
N 73 21 0 
N 22 26 0 
N 84 7 0 
O 44 9 0 
O 76 22 0 
O 99 6 0 
O 89 6 0 
O 35 19 0 
O 40 70 0 
O 42 13 0 
O 19 27 0 
O 36 19 0 
O 6 3 0 
15
Atoms. Timestep: 158
N 84 39 0 
N 29 17 0 
N 74 21 0 
N 21 26 0 
N 85 7 0 
O 45 9 0 
O 77 22 0 
O 0 6 0 
O 90 6 0 
O 36 19 0 
O 40 71 0 
O 43 13 0 
O 18 27 0 
O 37 19 0 
O 7 3 0 
15
Atoms. Timestep: 159
N 84 38 0 
N 30 17 0 
N 75 21 0 
N 20 26 0 
N 86 7 0 
O 46 9 0 
O 78 22 0 
O 1 6 0 
O 91 6 0 
O 37 19 0 
O 40 70 0 
O 44 13 0 
O 17 27 0 
O 38 19 0 
O 8 3 0 
15
Atoms. Timestep: 160
N 84 37 0 
N 31 17 0 
N 76 21 0 
N 19 26 0 
N 87 7 0 
O 47 9 0 
O 79 22 0 
O 2 6 0 
O 92 6 0 
O 38 19 0 
O 40 69 0 
O 45 13 0 
O 16 27 0 
O 39 19 0 
O 9 3 0 
15
Atoms. Timestep: 161
N 84 36 0 
N 32 17 0 
N 77 21 0 
N 18 26 0 
N 88 7 0 
O 48 9 0 
O 80 22 0 
O 3 6 0 
O 93 6 0 
O 39 19 0 
O 40 68 0 
O 46 13 0 
O 15 27 0 
O 40 19 0 
O 10 3 0 
15
Atoms. Timestep: 162
N 84 35 0 
N 33 17 0 
N 78 21 0 
N 17 26 0 
N 89 7 0 
O 49 9 0 
O 81 22 0 
O 4 6 0 
O 94 6 0 
O 40 19 0 
O 40 69 0 
O 47 13 0 
O 14 27 0 
O 41 19 0 
O 11 3 0 
15
Atoms. Timestep: 163
N 84 34 0 
N 34 17 0 
N 79 21 0 
N 16 26 0 
N 90 7 0 
O 50 9 0 
O 82 22 0 
O 5 6 0 
O 95 6 0 
O 41 19 0 
O 40 68 0 
O 48 13 0 
O 13 27 0 
O 42 19 0 
O 12 3 0 
15
Atoms. Timestep: 164
N 84 33 0 
N 35 17 0 
N 80 21 0 
N 15 26 0 
N 91 7 0 
O 51 9 0 
O 83 22 0 
O 6 6 0 
O 96 6 0 
O 42 19 0 
O 40 69 0 
O 49 13 0 
O 12 27 0 
O 43 19 0 
O 13 3 0 
15
Atoms. Timestep: 165
N 84 32 0 
N 36 17 0 
N 81 21 0 
N 14 26 0 
N 92 7 0 
O 52 9 0 
O 84 22 0 
O 7 6 0 
O 97 6 0 
O 43 19 0 
O 40 68 0 
O 50 13 0 
O 11 27 0 
O 44 19 0 
O 14 3 0 
15
Atoms. Timestep: 166
N 84 31 0 
N 37 17 0 
N 82 21 0 
N 13 26 0 
N 93 7 0 
O 53 9 0 
O 85 22 0 
O 8 6 0 
O 98 6 0 
O 44 19 0 
O 40 67 0 
O 51 13 0 
O 10 27 0 
O 45 19 0 
O 15 3 0 
15
Atoms. Timestep: 167
N 84 30 0 
N 38 17 0 
N 83 21 0 
N 12 26 0 
N 94 7 0 
O 54 9 0 
O 86 22 0 
O 9 6 0 
O 99 6 0 
O 45 19 0 
O 40 68 0 
O 52 13 0 
O 9 27 0 
O 46 19 0 
O 16 3 0 
15
Atoms. Timestep: 168
N 84 29 0 
N 39 17 0 
N 84 21 0 
N 11 26 0 
N 95 7 0 
O 55 9 0 
O 87 22 0 
O 10 6 0 
O 0 6 0 
O 46 19 0 
O 40 67 0 
O 53 13 0 
O 8 27 0 
O 47 19 0 
O 17 3 0 
15
Atoms. Timestep: 169
N 84 28 0 
N 40 17 0 
N 85 21 0 
N 12 26 0 
N 96 7 0 
O 56 9 0 
O 88 22 0 
O 11 6 0 
O 1 6 0 
O 47 19 0 
O 40 68 0 
O 54 13 0 
O 7 27 0 
O 48 19 0 
O 18 3 0 
15
Atoms. Timestep: 170
N 84 29 0 
N 41 17 0 
N 86 21 0 
N 11 26 0 
N 97 7 0 
O 57 9 0 
O 89 22 0 
O 12 6 0 
O 2 6 0 
O 48 19 0 
O 40 67 0 
O 55 13 0 
O 6 27 0 
O 49 19 0 
O 19 3 0 
15
Atoms. Timestep: 171
N 84 30 0 
N 42 17 0 
N 87 21 0 
N 10 26 0 
N 98 7 0 
O 58 9 0 
O 90 22 0 
O 13 6 0 
O 3 6 0 
O 49 19 0 
O 39 67 0 
O 56 13 0 
O 5 27 0 
O 50 19 0 
O 20 3 0 
15
Atoms. Timestep: 172
N 84 31 0 
N 43 17 0 
N 88 21 0 
N 9 26 0 
N 99 7 0 
O 59 9 0 
O 91 22 0 
O 14 6 0 
O 4 6 0 
O 50 19 0 
O 38 67 0 
O 57 13 0 
O 4 27 0 
O 51 19 0 
O 21 3 0 
15
Atoms. Timestep: 173
N 84 32 0 
N 44 17 0 
N 89 21 0 
N 8 26 0 
N 0 7 0 
O 60 9 0 
O 92 22 0 
O 15 6 0 
O 5 6 0 
O 51 19 0 
O 37 67 0 
O 58 13 0 
O 3 27 0 
O 52 19 0 
O 22 3 0 
15
Atoms. Timestep: 174
N 84 33 0 
N 45 17 0 
N 90 21 0 
N 7 26 0 
N 1 7 0 
O 61 9 0 
O 93 22 0 
O 16 6 0 
O 6 6 0 
O 52 19 0 
O 36 67 0 
O 59 13 0 
O 2 27 0 
O 53 19 0 
O 23 3 0 
15
Atoms. Timestep: 175
N 84 34 0 
N 46 17 0 
N 91 21 0 
N 6 26 0 
N 2 7 0 
O 62 9 0 
O 94 22 0 
O 17 6 0 
O 7 6 0 
O 53 19 0 
O 35 67 0 
O 60 13 0 
O 1 27 0 
O 54 19 0 
O 24 3 0 
15
Atoms. Timestep: 176
N 84 35 0 
N 47 17 0 
N 92 21 0 
N 5 26 0 
N 3 7 0 
O 63 9 0 
O 95 22 0 
O 18 6 0 
O 8 6 0 
O 54 19 0 
O 35 68 0 
O 61 13 0 
O 0 27 0 
O 55 19 0 
O 25 3 0 
15
Atoms. Timestep: 177
N 84 36 0 
N 48 17 0 
N 93 21 0 
N 4 26 0 
N 4 7 0 
O 64 9 0 
O 96 22 0 
O 19 6 0 
O 9 6 0 
O 55 19 0 
O 35 67 0 
O 62 13 0 
O 99 27 0 
O 56 19 0 
O 26 3 0 
15
Atoms. Timestep: 178
N 85 36 0 
N 49 17 0 
N 94 21 0 
N 3 26 0 
N 5 7 0 
O 65 9 0 
O 97 22 0 
O 20 6 0 
O 10 6 0 
O 56 19 0 
O 35 66 0 
O 63 13 0 
O 98 27 0 
O 57 19 0 
O 27 3 0 
15
Atoms. Timestep: 179
N 86 36 0 
N 50 17 0 
N 95 21 0 
N 2 26 0 
N 6 7 0 
O 66 9 0 
O 98 22 0 
O 21 6 0 
O 11 6 0 
O 57 19 0 
O 35 65 0 
O 64 13 0 
O 97 27 0 
O 58 19 0 
O 28 3 0 
15
Atoms. Timestep: 180
N 87 36 0 
N 51 17 0 
N 96 21 0 
N 1 26 0 
N 7 7 0 
O 67 9 0 
O 99 22 0 
O 22 6 0 
O 12 6 0 
O 58 19 0 
O 35 66 0 
O 65 13 0 
O 96 27 0 
O 59 19 0 
O 29 3 0 
15
Atoms. Timestep: 181
N 87 35 0 
N 52 17 0 
N 97 21 0 
N 1 25 0 
N 8 7 0 
O 68 9 0 
O 0 22 0 
O 23 6 0 
O 13 6 0 
O 59 19 0 
O 35 65 0 
O 66 13 0 
O 95 27 0 
O 60 19 0 
O 30 3 0 
15
Atoms. Timestep: 182
N 87 34 0 
N 53 17 0 
N 98 21 0 
N 1 24 0 
N 9 7 0 
O 69 9 0 
O 1 22 0 
O 24 6 0 
O 14 6 0 
O 60 19 0 
O 35 64 0 
O 67 13 0 
O 95 28 0 
O 61 19 0 
O 31 3 0 
15
Atoms. Timestep: 183
N 88 34 0 
N 54 17 0 
N 97 21 0 
N 1 23 0 
N 10 7 0 
O 70 9 0 
O 1 21 0 
O 25 6 0 
O 15 6 0 
O 61 19 0 
O 35 63 0 
O 68 13 0 
O 95 29 0 
O 62 19 0 
O 32 3 0 
15
Atoms. Timestep: 184
N 89 34 0 
N 55 17 0 
N 96 21 0 
N 1 22 0 
N 11 7 0 
O 71 9 0 
O 1 20 0 
O 26 6 0 
O 16 6 0 
O 62 19 0 
O 35 64 0 
O 69 13 0 
O 96 29 0 
O 63 19 0 
O 33 3 0 
15
Atoms. Timestep: 185
N 90 34 0 
N 56 17 0 
N 95 21 0 
N 1 21 0 
N 12 7 0 
O 72 9 0 
O 1 19 0 
O 27 6 0 
O 17 6 0 
O 63 19 0 
O 35 63 0 
O 70 13 0 
O 97 29 0 
O 64 19 0 
O 34 3 0 
15
Atoms. Timestep: 186
N 91 34 0 
N 57 17 0 
N 94 21 0 
N 1 20 0 
N 13 7 0 
O 73 9 0 
O 1 18 0 
O 28 6 0 
O 18 6 0 
O 64 19 0 
O 35 62 0 
O 71 13 0 
O 98 29 0 
O 65 19 0 
O 35 3 0 
15
Atoms. Timestep: 187
N 92 34 0 
N 58 17 0 
N 93 21 0 
N 1 19 0 
N 14 7 0 
O 74 9 0 
O 1 17 0 
O 29 6 0 
O 19 6 0 
O 65 19 0 
O 35 61 0 
O 72 13 0 
O 99 29 0 
O 66 19 0 
O 36 3 0 
15
Atoms. Timestep: 188
N 93 34 0 
N 59 17 0 
N 92 21 0 
N 1 18 0 
N 15 7 0 
O 75 9 0 
O 1 16 0 
O 30 6 0 
O 20 6 0 
O 66 19 0 
O 36 61 0 
O 73 13 0 
O 0 29 0 
O 67 19 0 
O 37 3 0 
15
Atoms. Timestep: 189
N 94 34 0 
N 60 17 0 
N 91 21 0 
N 1 17 0 
N 16 7 0 
O 76 9 0 
O 1 15 0 
O 31 6 0 
O 21 6 0 
O 67 19 0 
O 37 61 0 
O 74 13 0 
O 1 29 0 
O 68 19 0 
O 38 3 0 
15
Atoms. Timestep: 190
N 95 34 0 
N 61 17 0 
N 90 21 0 
N 1 16 0 
N 17 7 0 
O 77 9 0 
O 1 14 0 
O 32 6 0 
O 22 6 0 
O 68 19 0 
O 38 61 0 
O 75 13 0 
O 2 29 0 
O 69 19 0 
O 39 3 0 
15
Atoms. Timestep: 191
N 96 34 0 
N 62 17 0 
N 89 21 0 
N 1 15 0 
N 18 7 0 
O 77 8 0 
O 1 13 0 
O 33 6 0 
O 23 6 0 
O 69 19 0 
O 39 61 0 
O 76 13 0 
O 3 29 0 
O 70 19 0 
O 40 3 0 
15
Atoms. Timestep: 192
N 97 34 0 
N 63 17 0 
N 88 21 0 
N 1 14 0 
N 19 7 0 
O 78 8 0 
O 1 12 0 
O 34 6 0 
O 24 6 0 
O 70 19 0 
O 40 61 0 
O 77 13 0 
O 4 29 0 
O 71 19 0 
O 41 3 0 
15
Atoms. Timestep: 193
N 98 34 0 
N 64 17 0 
N 87 21 0 
N 1 13 0 
N 20 7 0 
O 78 7 0 
O 1 11 0 
O 35 6 0 
O 25 6 0 
O 71 19 0 
O 41 61 0 
O 76 13 0 
O 5 29 0 
O 72 19 0 
O 42 3 0 
15
Atoms. Timestep: 194
N 99 34 0 
N 65 17 0 
N 86 21 0 
N 1 12 0 
N 21 7 0 
O 79 7 0 
O 1 10 0 
O 36 6 0 
O 26 6 0 
O 72 19 0 
O 42 61 0 
O 77 13 0 
O 6 29 0 
O 73 19 0 
O 43 3 0 
15
Atoms. Timestep: 195
N 0 34 0 
N 66 17 0 
N 85 21 0 
N 1 11 0 
N 22 7 0 
O 79 6 0 
O 1 9 0 
O 37 6 0 
O 27 6 0 
O 73 19 0 
O 43 61 0 
O 78 13 0 
O 7 29 0 
O 74 19 0 
O 44 3 0 
15
Atoms. Timestep: 196
N 1 34 0 
N 67 17 0 
N 85 20 0 
N 1 10 0 
N 23 7 0 
O 79 5 0 
O 1 8 0 
O 38 6 0 
O 28 6 0 
O 74 19 0 
O 44 61 0 
O 78 12 0 
O 8 29 0 
O 75 19 0 
O 45 3 0 
15
Atoms. Timestep: 197
N 2 34 0 
N 68 17 0 
N 85 19 0 
N 1 9 0 
N 24 7 0 
O 79 4 0 
O 1 7 0 
O 39 6 0 
O 29 6 0 
O 75 19 0 
O 45 61 0 
O 77 12 0 
O 9 29 0 
O 76 19 0 
O 46 3 0 
15
Atoms. Timestep: 198
N 3 34 0 
N 69 17 0 
N 84 19 0 
N 1 8 0 
N 25 7 0 
O 79 3 0 
O 1 6 0 
O 40 6 0 
O 30 6 0 
O 76 19 0 
O 46 61 0 
O 78 12 0 
O 10 29 0 
O 77 19 0 
O 47 3 0 
15
Atoms. Timestep: 199
N 4 34 0 
N 70 17 0 
N 83 19 0 
N 1 7 0 
N 26 7 0 
O 79 2 0 
O 1 5 0 
O 41 6 0 
O 31 6 0 
O 76 19 0 
O 47 61 0 
O 78 11 0 
O 11 29 0 
O 77 19 0 
O 48 3 0 
15
Atoms. Timestep: 200
N 5 34 0 
N 71 17 0 
N 82 19 0 
N 1 6 0 
N 27 7 0 
O 79 1 0 
O 1 4 0 
O 42 6 0 
O 32 6 0 
O 76 19 0 
O 48 61 0 
O 78 10 0 
O 12 29 0 
O 77 19 0 
O 49 3 0 
15
Atoms. Timestep: 201
N 6 34 0 
N 72 17 0 
N 81 19 0 
N 1 5 0 
N 28 7 0 
O 79 0 0 
O 1 3 0 
O 43 6 0 
O 33 6 0 
O 76 19 0 
O 49 61 0 
O 78 9 0 
O 13 29 0 
O 77 19 0 
O 50 3 0 
15
Atoms. Timestep: 202
N 7 34 0 
N 73 17 0 
N 80 19 0 
N 1 4 0 
N 29 7 0 
O 79 99 0 
O 1 2 0 
O 44 6 0 
O 34 6 0 
O 76 19 0 
O 50 61 0 
O 78 8 0 
O 14 29 0 
O 77 19 0 
O 51 3 0 
15
Atoms. Timestep: 203
N 8 34 0 
N 74 17 0 
N 79 19 0 
N 1 3 0 
N 30 7 0 
O 79 98 0 
O 1 1 0 
O 45 6 0 
O 35 6 0 
O 76 20 0 
O 51 61 0 
O 78 7 0 
O 15 29 0 
O 77 19 0 
O 52 3 0 
15
Atoms. Timestep: 204
N 9 34 0 
N 74 18 0 
N 78 19 0 
N 1 2 0 
N 31 7 0 
O 79 97 0 
O 1 0 0 
O 46 6 0 
O 36 6 0 
O 77 20 0 
O 51 62 0 
O 78 6 0 
O 16 29 0 
O 76 19 0 
O 53 3 0 
15
Atoms. Timestep: 205
N 10 34 0 
N 75 18 0 
N 77 19 0 
N 1 1 0 
N 32 7 0 
O 79 96 0 
O 1 99 0 
O 47 6 0 
O 37 6 0 
O 77 21 0 
O 51 61 0 
O 78 5 0 
O 17 29 0 
O 76 19 0 
O 54 3 0 
14
Atoms. Timestep: 206
N 11 34 0 
N 75 17 0 
N 76 19 0 
N 1 0 0 
N 33 7 0 
O 79 95 0 
O 1 98 0 
O 48 6 0 
O 38 6 0 
O 77 22 0 
O 52 61 0 
O 78 4 0 
O 18 29 0 
O 55 3 0 
14
Atoms. Timestep: 207
N 12 34 0 
N 75 16 0 
N 76 20 0 
N 1 99 0 
N 34 7 0 
O 79 94 0 
O 1 97 0 
O 49 6 0 
O 39 6 0 
O 77 23 0 
O 52 62 0 
O 78 3 0 
O 19 29 0 
O 56 3 0 
14
Atoms. Timestep: 208
N 13 34 0 
N 75 15 0 
N 76 21 0 
N 1 98 0 
N 35 7 0 
O 79 93 0 
O 1 96 0 
O 50 6 0 
O 40 6 0 
O 77 24 0 
O 52 63 0 
O 78 2 0 
O 20 29 0 
O 57 3 0 
14
Atoms. Timestep: 209
N 14 34 0 
N 75 14 0 
N 76 22 0 
N 1 97 0 
N 36 7 0 
O 79 92 0 
O 1 95 0 
O 51 6 0 
O 41 6 0 
O 77 25 0 
O 52 62 0 
O 78 1 0 
O 21 29 0 
O 56 3 0 
14
Atoms. Timestep: 210
N 15 34 0 
N 75 13 0 
N 76 23 0 
N 1 96 0 
N 37 7 0 
O 79 91 0 
O 1 94 0 
O 52 6 0 
O 42 6 0 
O 77 26 0 
O 52 63 0 
O 78 0 0 
O 22 29 0 
O 57 3 0 
14
Atoms. Timestep: 211
N 16 34 0 
N 75 12 0 
N 76 24 0 
N 1 95 0 
N 38 7 0 
O 79 90 0 
O 1 93 0 
O 53 6 0 
O 43 6 0 
O 77 27 0 
O 52 64 0 
O 78 99 0 
O 23 29 0 
O 58 3 0 
14
Atoms. Timestep: 212
N 17 34 0 
N 75 11 0 
N 76 25 0 
N 1 94 0 
N 39 7 0 
O 79 89 0 
O 1 92 0 
O 54 6 0 
O 44 6 0 
O 77 28 0 
O 52 63 0 
O 78 98 0 
O 24 29 0 
O 57 3 0 
14
Atoms. Timestep: 213
N 18 34 0 
N 75 10 0 
N 76 26 0 
N 1 93 0 
N 40 7 0 
O 79 88 0 
O 1 91 0 
O 55 6 0 
O 45 6 0 
O 77 29 0 
O 53 63 0 
O 78 97 0 
O 25 29 0 
O 58 3 0 
14
Atoms. Timestep: 214
N 19 34 0 
N 75 9 0 
N 76 27 0 
N 1 92 0 
N 41 7 0 
O 79 87 0 
O 1 90 0 
O 56 6 0 
O 46 6 0 
O 77 30 0 
O 53 64 0 
O 78 96 0 
O 26 29 0 
O 59 3 0 
14
Atoms. Timestep: 215
N 20 34 0 
N 75 8 0 
N 76 28 0 
N 1 91 0 
N 42 7 0 
O 79 86 0 
O 1 89 0 
O 57 6 0 
O 47 6 0 
O 77 31 0 
O 53 65 0 
O 78 95 0 
O 27 29 0 
O 58 3 0 
14
Atoms. Timestep: 216
N 21 34 0 
N 75 7 0 
N 76 29 0 
N 1 90 0 
N 43 7 0 
O 79 85 0 
O 1 88 0 
O 58 6 0 
O 48 6 0 
O 77 32 0 
O 53 66 0 
O 78 94 0 
O 28 29 0 
O 59 3 0 
14
Atoms. Timestep: 217
N 22 34 0 
N 75 6 0 
N 76 30 0 
N 1 89 0 
N 44 7 0 
O 79 84 0 
O 1 87 0 
O 59 6 0 
O 49 6 0 
O 77 33 0 
O 53 65 0 
O 78 93 0 
O 29 29 0 
O 60 3 0 
14
Atoms. Timestep: 218
N 23 34 0 
N 75 5 0 
N 76 31 0 
N 1 88 0 
N 45 7 0 
O 79 83 0 
O 1 86 0 
O 60 6 0 
O 50 6 0 
O 77 34 0 
O 53 66 0 
O 78 92 0 
O 30 29 0 
O 59 3 0 
14
Atoms. Timestep: 219
N 24 34 0 
N 75 4 0 
N 76 32 0 
N 1 87 0 
N 46 7 0 
O 79 82 0 
O 1 85 0 
O 61 6 0 
O 51 6 0 
O 77 35 0 
O 53 67 0 
O 78 91 0 
O 31 29 0 
O 60 3 0 
14
Atoms. Timestep: 220
N 25 34 0 
N 75 3 0 
N 76 33 0 
N 1 86 0 
N 47 7 0 
O 79 81 0 
O 1 84 0 
O 60 6 0 
O 52 6 0 
O 77 36 0 
O 53 66 0 
O 78 90 0 
O 32 29 0 
O 61 3 0 
14
Atoms. Timestep: 221
N 26 34 0 
N 75 2 0 
N 76 34 0 
N 1 85 0 
N 48 7 0 
O 79 80 0 
O 1 83 0 
O 61 6 0 
O 53 6 0 
O 77 37 0 
O 53 67 0 
O 78 89 0 
O 33 29 0 
O 62 3 0 
14
Atoms. Timestep: 222
N 27 34 0 
N 75 1 0 
N 76 35 0 
N 1 84 0 
N 49 7 0 
O 79 79 0 
O 1 82 0 
O 62 6 0 
O 54 6 0 
O 77 38 0 
O 53 68 0 
O 78 88 0 
O 34 29 0 
O 61 3 0 
14
Atoms. Timestep: 223
N 28 34 0 
N 74 1 0 
N 76 36 0 
N 1 83 0 
N 50 7 0 
O 79 78 0 
O 1 81 0 
O 63 6 0 
O 55 6 0 
O 77 39 0 
O 53 67 0 
O 78 87 0 
O 35 29 0 
O 62 3 0 
14
Atoms. Timestep: 224
N 29 34 0 
N 73 1 0 
N 76 37 0 
N 1 82 0 
N 51 7 0 
O 78 78 0 
O 1 80 0 
O 62 6 0 
O 56 6 0 
O 77 40 0 
O 53 68 0 
O 78 86 0 
O 36 29 0 
O 61 3 0 
14
Atoms. Timestep: 225
N 30 34 0 
N 72 1 0 
N 76 38 0 
N 1 81 0 
N 52 7 0 
O 78 77 0 
O 1 79 0 
O 63 6 0 
O 57 6 0 
O 77 41 0 
O 53 69 0 
O 78 85 0 
O 37 29 0 
O 62 3 0 
14
Atoms. Timestep: 226
N 31 34 0 
N 71 1 0 
N 76 39 0 
N 1 80 0 
N 53 7 0 
O 77 77 0 
O 1 78 0 
O 62 6 0 
O 58 6 0 
O 77 42 0 
O 53 68 0 
O 78 84 0 
O 38 29 0 
O 61 3 0 
14
Atoms. Timestep: 227
N 32 34 0 
N 70 1 0 
N 76 40 0 
N 1 79 0 
N 54 7 0 
O 76 77 0 
O 1 77 0 
O 63 6 0 
O 59 6 0 
O 77 43 0 
O 53 69 0 
O 78 83 0 
O 39 29 0 
O 62 3 0 
14
Atoms. Timestep: 228
N 33 34 0 
N 69 1 0 
N 76 41 0 
N 1 78 0 
N 55 7 0 
O 76 76 0 
O 1 76 0 
O 62 6 0 
O 60 6 0 
O 77 44 0 
O 53 68 0 
O 78 82 0 
O 40 29 0 
O 61 3 0 
14
Atoms. Timestep: 229
N 34 34 0 
N 68 1 0 
N 76 42 0 
N 1 77 0 
N 56 7 0 
O 75 76 0 
O 1 75 0 
O 63 6 0 
O 61 6 0 
O 77 45 0 
O 53 69 0 
O 78 81 0 
O 41 29 0 
O 62 3 0 
14
Atoms. Timestep: 230
N 35 34 0 
N 67 1 0 
N 76 43 0 
N 1 76 0 
N 57 7 0 
O 75 75 0 
O 1 74 0 
O 63 7 0 
O 62 6 0 
O 77 46 0 
O 53 68 0 
O 78 80 0 
O 42 29 0 
O 61 3 0 
14
Atoms. Timestep: 231
N 36 34 0 
N 66 1 0 
N 76 44 0 
N 1 75 0 
N 58 7 0 
O 74 75 0 
O 1 73 0 
O 64 7 0 
O 63 6 0 
O 77 47 0 
O 53 69 0 
O 77 80 0 
O 43 29 0 
O 60 3 0 
14
Atoms. Timestep: 232
N 37 34 0 
N 66 2 0 
N 76 45 0 
N 1 74 0 
N 58 6 0 
O 73 75 0 
O 1 72 0 
O 64 8 0 
O 63 7 0 
O 77 48 0 
O 53 70 0 
O 77 79 0 
O 44 29 0 
O 60 2 0 
14
Atoms. Timestep: 233
N 38 34 0 
N 66 3 0 
N 76 46 0 
N 1 73 0 
N 58 5 0 
O 73 74 0 
O 1 71 0 
O 64 9 0 
O 63 8 0 
O 77 49 0 
O 53 71 0 
O 76 79 0 
O 45 29 0 
O 60 1 0 
14
Atoms. Timestep: 234
N 39 34 0 
N 66 4 0 
N 76 47 0 
N 1 72 0 
N 58 4 0 
O 73 75 0 
O 1 70 0 
O 64 10 0 
O 63 9 0 
O 77 50 0 
O 53 72 0 
O 75 79 0 
O 46 29 0 
O 60 0 0 
14
Atoms. Timestep: 235
N 40 34 0 
N 66 5 0 
N 76 48 0 
N 1 71 0 
N 58 3 0 
O 73 76 0 
O 1 69 0 
O 64 11 0 
O 63 10 0 
O 77 51 0 
O 53 71 0 
O 75 78 0 
O 47 29 0 
O 60 99 0 
14
Atoms. Timestep: 236
N 41 34 0 
N 66 6 0 
N 76 49 0 
N 1 70 0 
N 58 2 0 
O 73 77 0 
O 1 68 0 
O 64 12 0 
O 63 11 0 
O 77 52 0 
O 52 71 0 
O 74 78 0 
O 48 29 0 
O 60 98 0 
14
Atoms. Timestep: 237
N 42 34 0 
N 66 7 0 
N 76 50 0 
N 1 69 0 
N 58 1 0 
O 73 78 0 
O 1 67 0 
O 64 13 0 
O 63 12 0 
O 77 53 0 
O 52 70 0 
O 74 79 0 
O 49 29 0 
O 60 97 0 
14
Atoms. Timestep: 238
N 43 34 0 
N 66 8 0 
N 76 51 0 
N 1 68 0 
N 58 0 0 
O 73 77 0 
O 1 66 0 
O 64 14 0 
O 63 13 0 
O 77 54 0 
O 51 70 0 
O 74 78 0 
O 50 29 0 
O 60 96 0 
14
Atoms. Timestep: 239
N 44 34 0 
N 66 9 0 
N 76 52 0 
N 1 67 0 
N 58 99 0 
O 73 78 0 
O 1 65 0 
O 64 15 0 
O 63 14 0 
O 77 55 0 
O 51 69 0 
O 74 79 0 
O 51 29 0 
O 60 95 0 
14
Atoms. Timestep: 240
N 45 34 0 
N 66 10 0 
N 76 53 0 
N 1 66 0 
N 58 98 0 
O 73 79 0 
O 1 64 0 
O 64 16 0 
O 63 15 0 
O 77 56 0 
O 50 69 0 
O 74 78 0 
O 52 29 0 
O 60 94 0 
14
Atoms. Timestep: 241
N 46 34 0 
N 66 11 0 
N 76 54 0 
N 1 65 0 
N 58 97 0 
O 73 78 0 
O 1 63 0 
O 64 17 0 
O 63 16 0 
O 77 57 0 
O 50 68 0 
O 74 79 0 
O 53 29 0 
O 60 93 0 
14
Atoms. Timestep: 242
N 47 34 0 
N 66 12 0 
N 76 55 0 
N 1 64 0 
N 58 96 0 
O 73 79 0 
O 1 62 0 
O 64 18 0 
O 63 17 0 
O 77 58 0 
O 49 68 0 
O 74 78 0 
O 54 29 0 
O 60 92 0 
14
Atoms. Timestep: 243
N 48 34 0 
N 66 13 0 
N 76 56 0 
N 1 63 0 
N 58 95 0 
O 73 78 0 
O 1 61 0 
O 64 19 0 
O 63 18 0 
O 77 59 0 
O 49 67 0 
O 74 79 0 
O 55 29 0 
O 60 91 0 
14
Atoms. Timestep: 244
N 49 34 0 
N 66 14 0 
N 76 57 0 
N 1 62 0 
N 58 94 0 
O 73 79 0 
O 1 60 0 
O 64 20 0 
O 63 19 0 
O 77 60 0 
O 48 67 0 
O 75 79 0 
O 56 29 0 
O 60 90 0 
14
Atoms. Timestep: 245
N 50 34 0 
N 66 15 0 
N 76 58 0 
N 1 61 0 
N 58 93 0 
O 74 79 0 
O 1 59 0 
O 64 21 0 
O 63 20 0 
O 77 61 0 
O 48 66 0 
O 75 80 0 
O 57 29 0 
O 60 89 0 
14
Atoms. Timestep: 246
N 51 34 0 
N 66 16 0 
N 76 59 0 
N 1 60 0 
N 58 92 0 
O 74 80 0 
O 1 58 0 
O 64 22 0 
O 63 21 0 
O 77 62 0 
O 48 65 0 
O 76 80 0 
O 58 29 0 
O 60 88 0 
14
Atoms. Timestep: 247
N 52 34 0 
N 66 17 0 
N 76 60 0 
N 1 59 0 
N 58 91 0 
O 75 80 0 
O 1 57 0 
O 64 23 0 
O 63 22 0 
O 77 63 0 
O 48 64 0 
O 76 81 0 
O 59 29 0 
O 60 87 0 
14
Atoms. Timestep: 248
N 53 34 0 
N 66 18 0 
N 76 61 0 
N 1 58 0 
N 58 90 0 
O 75 81 0 
O 1 56 0 
O 64 24 0 
O 63 23 0 
O 77 64 0 
O 48 63 0 
O 76 82 0 
O 60 29 0 
O 60 86 0 
14
Atoms. Timestep: 249
N 54 34 0 
N 66 19 0 
N 76 62 0 
N 1 57 0 
N 58 89 0 
O 76 81 0 
O 1 55 0 
O 64 25 0 
O 63 24 0 
O 77 65 0 
O 48 62 0 
O 77 82 0 
O 61 29 0 
O 60 85 0 
14
Atoms. Timestep: 250
N 55 34 0 
N 66 18 0 
N 76 63 0 
N 1 56 0 
N 58 88 0 
O 76 82 0 
O 1 54 0 
O 64 26 0 
O 63 25 0 
O 77 66 0 
O 48 61 0 
O 77 83 0 
O 62 29 0 
O 60 84 0 
14
Atoms. Timestep: 251
N 56 34 0 
N 66 19 0 
N 76 64 0 
N 1 55 0 
N 58 87 0 
O 76 83 0 
O 1 53 0 
O 64 27 0 
O 63 26 0 
O 77 67 0 
O 48 60 0 
O 77 84 0 
O 63 29 0 
O 60 83 0 
14
Atoms. Timestep: 252
N 57 34 0 
N 66 20 0 
N 76 65 0 
N 1 54 0 
N 58 86 0 
O 76 84 0 
O 1 52 0 
O 64 28 0 
O 63 27 0 
O 77 68 0 
O 48 61 0 
O 77 85 0 
O 64 29 0 
O 60 82 0 
14
Atoms. Timestep: 253
N 58 34 0 
N 66 21 0 
N 76 66 0 
N 1 53 0 
N 58 85 0 
O 76 85 0 
O 1 51 0 
O 64 29 0 
O 63 28 0 
O 77 69 0 
O 48 60 0 
O 77 86 0 
O 65 29 0 
O 60 81 0 
14
Atoms. Timestep: 254
N 59 34 0 
N 66 22 0 
N 76 67 0 
N 1 52 0 
N 58 84 0 
O 76 86 0 
O 1 50 0 
O 64 28 0 
O 63 29 0 
O 77 70 0 
O 48 59 0 
O 77 87 0 
O 66 29 0 
O 60 80 0 
14
Atoms. Timestep: 255
N 59 33 0 
N 66 23 0 
N 76 68 0 
N 1 51 0 
N 58 83 0 
O 76 87 0 
O 1 49 0 
O 64 29 0 
O 63 28 0 
O 77 71 0 
O 48 58 0 
O 77 88 0 
O 66 30 0 
O 60 79 0 
14
Atoms. Timestep: 256
N 60 33 0 
N 66 24 0 
N 76 69 0 
N 1 50 0 
N 58 82 0 
O 76 88 0 
O 1 48 0 
O 65 29 0 
O 63 27 0 
O 77 72 0 
O 48 57 0 
O 77 89 0 
O 67 30 0 
O 60 78 0 
14
Atoms. Timestep: 257
N 61 33 0 
N 66 25 0 
N 76 70 0 
N 1 49 0 
N 58 81 0 
O 76 89 0 
O 1 47 0 
O 65 30 0 
O 62 27 0 
O 77 73 0 
O 48 56 0 
O 77 90 0 
O 67 31 0 
O 60 77 0 
14
Atoms. Timestep: 258
N 62 33 0 
N 65 25 0 
N 76 71 0 
N 1 48 0 
N 58 80 0 
O 76 90 0 
O 1 46 0 
O 65 29 0 
O 61 27 0 
O 77 74 0 
O 48 57 0 
O 77 91 0 
O 68 31 0 
O 60 76 0 
14
Atoms. Timestep: 259
N 62 32 0 
N 65 26 0 
N 76 72 0 
N 1 47 0 
N 58 79 0 
O 76 91 0 
O 1 45 0 
O 65 30 0 
O 60 27 0 
O 77 75 0 
O 48 56 0 
O 77 92 0 
O 68 32 0 
O 60 75 0 
14
Atoms. Timestep: 260
N 63 32 0 
N 65 27 0 
N 76 73 0 
N 1 46 0 
N 58 78 0 
O 76 92 0 
O 1 44 0 
O 66 30 0 
O 60 26 0 
O 77 76 0 
O 48 55 0 
O 77 93 0 
O 69 32 0 
O 60 74 0 
14
Atoms. Timestep: 261
N 64 32 0 
N 65 28 0 
N 76 74 0 
N 1 45 0 
N 58 77 0 
O 76 93 0 
O 1 43 0 
O 67 30 0 
O 59 26 0 
O 77 77 0 
O 48 54 0 
O 77 94 0 
O 70 32 0 
O 60 73 0 
14
Atoms. Timestep: 262
N 64 33 0 
N 65 29 0 
N 76 75 0 
N 1 44 0 
N 58 76 0 
O 76 94 0 
O 1 42 0 
O 68 30 0 
O 58 26 0 
O 77 78 0 
O 48 53 0 
O 77 95 0 
O 71 32 0 
O 60 72 0 
14
Atoms. Timestep: 263
N 64 34 0 
N 66 29 0 
N 76 76 0 
N 1 43 0 
N 58 75 0 
O 76 95 0 
O 1 41 0 
O 69 30 0 
O 57 26 0 
O 77 79 0 
O 48 54 0 
O 77 96 0 
O 72 32 0 
O 60 71 0 
14
Atoms. Timestep: 264
N 64 35 0 
N 67 29 0 
N 76 77 0 
N 1 42 0 
N 58 74 0 
O 76 96 0 
O 1 40 0 
O 70 30 0 
O 56 26 0 
O 77 80 0 
O 48 53 0 
O 77 97 0 
O 73 32 0 
O 60 70 0 
14
Atoms. Timestep: 265
N 64 36 0 
N 68 29 0 
N 76 78 0 
N 1 41 0 
N 58 73 0 
O 76 97 0 
O 1 39 0 
O 71 30 0 
O 56 25 0 
O 77 81 0 
O 48 52 0 
O 77 98 0 
O 74 32 0 
O 60 69 0 
14
Atoms. Timestep: 266
N 64 37 0 
N 69 29 0 
N 76 79 0 
N 1 40 0 
N 58 72 0 
O 76 98 0 
O 1 38 0 
O 72 30 0 
O 55 25 0 
O 77 82 0 
O 47 52 0 
O 77 99 0 
O 75 32 0 
O 60 68 0 
14
Atoms. Timestep: 267
N 64 38 0 
N 70 29 0 
N 76 80 0 
N 1 39 0 
N 58 71 0 
O 76 99 0 
O 1 37 0 
O 73 30 0 
O 55 24 0 
O 77 83 0 
O 47 51 0 
O 77 0 0 
O 76 32 0 
O 60 67 0 
14
Atoms. Timestep: 268
N 64 39 0 
N 71 29 0 
N 76 81 0 
N 1 38 0 
N 58 70 0 
O 76 0 0 
O 1 36 0 
O 74 30 0 
O 54 24 0 
O 77 84 0 
O 46 51 0 
O 77 1 0 
O 77 32 0 
O 60 66 0 
14
Atoms. Timestep: 269
N 64 40 0 
N 72 29 0 
N 76 82 0 
N 1 37 0 
N 58 69 0 
O 76 1 0 
O 1 35 0 
O 75 30 0 
O 54 23 0 
O 77 85 0 
O 45 51 0 
O 77 2 0 
O 78 32 0 
O 60 65 0 
14
Atoms. Timestep: 270
N 64 41 0 
N 73 29 0 
N 76 83 0 
N 1 36 0 
N 58 68 0 
O 76 2 0 
O 1 34 0 
O 76 30 0 
O 53 23 0 
O 77 86 0 
O 44 51 0 
O 77 3 0 
O 79 32 0 
O 60 64 0 
14
Atoms. Timestep: 271
N 64 42 0 
N 74 29 0 
N 76 84 0 
N 1 35 0 
N 58 67 0 
O 76 3 0 
O 1 33 0 
O 77 30 0 
O 53 22 0 
O 77 87 0 
O 43 51 0 
O 77 4 0 
O 80 32 0 
O 60 63 0 
14
Atoms. Timestep: 272
N 64 43 0 
N 75 29 0 
N 76 85 0 
N 1 34 0 
N 58 66 0 
O 76 4 0 
O 1 32 0 
O 78 30 0 
O 53 21 0 
O 77 88 0 
O 43 50 0 
O 77 5 0 
O 81 32 0 
O 60 62 0 
14
Atoms. Timestep: 273
N 64 44 0 
N 76 29 0 
N 76 86 0 
N 1 33 0 
N 58 65 0 
O 76 5 0 
O 1 31 0 
O 79 30 0 
O 52 21 0 
O 77 89 0 
O 42 50 0 
O 77 6 0 
O 82 32 0 
O 60 61 0 
14
Atoms. Timestep: 274
N 64 45 0 
N 77 29 0 
N 76 87 0 
N 1 32 0 
N 58 64 0 
O 76 6 0 
O 1 30 0 
O 80 30 0 
O 52 20 0 
O 77 90 0 
O 41 50 0 
O 77 7 0 
O 83 32 0 
O 60 60 0 
14
Atoms. Timestep: 275
N 64 46 0 
N 78 29 0 
N 76 88 0 
N 1 31 0 
N 58 63 0 
O 76 7 0 
O 1 29 0 
O 81 30 0 
O 51 20 0 
O 77 91 0 
O 40 50 0 
O 77 8 0 
O 84 32 0 
O 60 59 0 
14
Atoms. Timestep: 276
N 64 47 0 
N 79 29 0 
N 76 89 0 
N 1 30 0 
N 58 62 0 
O 76 8 0 
O 1 28 0 
O 82 30 0 
O 51 19 0 
O 77 92 0 
O 39 50 0 
O 77 9 0 
O 85 32 0 
O 60 58 0 
14
Atoms. Timestep: 277
N 64 48 0 
N 80 29 0 
N 76 90 0 
N 1 29 0 
N 58 61 0 
O 76 9 0 
O 1 27 0 
O 83 30 0 
O 50 19 0 
O 77 93 0 
O 38 50 0 
O 77 10 0 
O 86 32 0 
O 60 57 0 
14
Atoms. Timestep: 278
N 64 49 0 
N 81 29 0 
N 76 91 0 
N 1 28 0 
N 58 60 0 
O 76 10 0 
O 1 26 0 
O 84 30 0 
O 49 19 0 
O 77 94 0 
O 37 50 0 
O 77 9 0 
O 87 32 0 
O 60 56 0 
14
Atoms. Timestep: 279
N 64 50 0 
N 82 29 0 
N 76 92 0 
N 1 27 0 
N 58 59 0 
O 76 11 0 
O 1 25 0 
O 85 30 0 
O 49 18 0 
O 77 95 0 
O 36 50 0 
O 77 10 0 
O 88 32 0 
O 60 55 0 
14
Atoms. Timestep: 280
N 64 51 0 
N 83 29 0 
N 76 93 0 
N 1 26 0 
N 58 58 0 
O 76 12 0 
O 1 24 0 
O 86 30 0 
O 48 18 0 
O 77 96 0 
O 35 50 0 
O 77 11 0 
O 89 32 0 
O 60 54 0 
14
Atoms. Timestep: 281
N 63 51 0 
N 84 29 0 
N 76 94 0 
N 1 25 0 
N 58 57 0 
O 76 11 0 
O 1 23 0 
O 87 30 0 
O 48 17 0 
O 77 97 0 
O 34 50 0 
O 77 12 0 
O 90 32 0 
O 60 53 0 
14
Atoms. Timestep: 282
N 62 51 0 
N 85 29 0 
N 76 95 0 
N 1 24 0 
N 58 56 0 
O 76 12 0 
O 1 22 0 
O 88 30 0 
O 47 17 0 
O 77 98 0 
O 33 50 0 
O 77 13 0 
O 91 32 0 
O 59 53 0 
14
Atoms. Timestep: 283
N 61 51 0 
N 86 29 0 
N 76 96 0 
N 1 23 0 
N 58 55 0 
O 76 13 0 
O 1 21 0 
O 89 30 0 
O 46 17 0 
O 77 99 0 
O 32 50 0 
O 77 14 0 
O 92 32 0 
O 58 53 0 
14
Atoms. Timestep: 284
N 60 51 0 
N 87 29 0 
N 76 97 0 
N 1 22 0 
N 58 54 0 
O 76 14 0 
O 1 20 0 
O 90 30 0 
O 46 16 0 
O 77 0 0 
O 31 50 0 
O 77 15 0 
O 93 32 0 
O 58 52 0 
14
Atoms. Timestep: 285
N 61 51 0 
N 88 29 0 
N 76 98 0 
N 1 21 0 
N 58 53 0 
O 76 15 0 
O 1 19 0 
O 91 30 0 
O 45 16 0 
O 77 1 0 
O 30 50 0 
O 77 14 0 
O 94 32 0 
O 58 51 0 
14
Atoms. Timestep: 286
N 62 51 0 
N 89 29 0 
N 76 99 0 
N 1 20 0 
N 58 52 0 
O 76 16 0 
O 1 18 0 
O 92 30 0 
O 44 16 0 
O 77 2 0 
O 29 50 0 
O 77 15 0 
O 95 32 0 
O 58 50 0 
14
Atoms. Timestep: 287
N 63 51 0 
N 90 29 0 
N 76 0 0 
N 1 19 0 
N 58 51 0 
O 76 17 0 
O 1 17 0 
O 93 30 0 
O 43 16 0 
O 77 3 0 
O 28 50 0 
O 77 16 0 
O 96 32 0 
O 58 49 0 
14
Atoms. Timestep: 288
N 64 51 0 
N 91 29 0 
N 76 1 0 
N 1 18 0 
N 58 50 0 
O 76 18 0 
O 1 16 0 
O 94 30 0 
O 42 16 0 
O 77 4 0 
O 27 50 0 
O 77 17 0 
O 97 32 0 
O 58 48 0 
14
Atoms. Timestep: 289
N 65 51 0 
N 92 29 0 
N 76 2 0 
N 1 17 0 
N 58 49 0 
O 76 19 0 
O 1 15 0 
O 95 30 0 
O 41 16 0 
O 77 5 0 
O 26 50 0 
O 77 18 0 
O 98 32 0 
O 58 47 0 
14
Atoms. Timestep: 290
N 66 51 0 
N 93 29 0 
N 76 3 0 
N 1 16 0 
N 58 48 0 
O 76 20 0 
O 1 14 0 
O 96 30 0 
O 41 15 0 
O 77 6 0 
O 25 50 0 
O 77 19 0 
O 99 32 0 
O 58 46 0 
14
Atoms. Timestep: 291
N 67 51 0 
N 94 29 0 
N 76 4 0 
N 1 15 0 
N 58 47 0 
O 76 21 0 
O 1 13 0 
O 97 30 0 
O 40 15 0 
O 77 7 0 
O 24 50 0 
O 77 20 0 
O 0 32 0 
O 58 45 0 
14
Atoms. Timestep: 292
N 68 51 0 
N 95 29 0 
N 76 5 0 
N 1 14 0 
N 58 46 0 
O 76 22 0 
O 1 12 0 
O 98 30 0 
O 40 14 0 
O 77 8 0 
O 23 50 0 
O 77 21 0 
O 1 32 0 
O 58 44 0 
14
Atoms. Timestep: 293
N 69 51 0 
N 96 29 0 
N 76 6 0 
N 1 13 0 
N 58 45 0 
O 76 23 0 
O 1 11 0 
O 99 30 0 
O 40 13 0 
O 77 9 0 
O 24 50 0 
O 77 22 0 
O 2 32 0 
O 58 43 0 
14
Atoms. Timestep: 294
N 70 51 0 
N 97 29 0 
N 76 7 0 
N 2 13 0 
N 58 44 0 
O 76 24 0 
O 1 10 0 
O 0 30 0 
O 40 12 0 
O 77 10 0 
O 25 50 0 
O 77 23 0 
O 3 32 0 
O 58 42 0 
14
Atoms. Timestep: 295
N 71 51 0 
N 98 29 0 
N 76 8 0 
N 2 12 0 
N 58 43 0 
O 76 25 0 
O 1 9 0 
O 1 30 0 
O 40 11 0 
O 77 11 0 
O 24 50 0 
O 77 24 0 
O 4 32 0 
O 58 41 0 
14
Atoms. Timestep: 296
N 72 51 0 
N 99 29 0 
N 76 9 0 
N 2 11 0 
N 58 42 0 
O 76 26 0 
O 1 8 0 
O 2 30 0 
O 40 10 0 
O 77 12 0 
O 25 50 0 
O 77 25 0 
O 5 32 0 
O 58 40 0 
14
Atoms. Timestep: 297
N 73 51 0 
N 0 29 0 
N 76 10 0 
N 2 10 0 
N 58 41 0 
O 76 27 0 
O 1 7 0 
O 3 30 0 
O 40 9 0 
O 77 13 0 
O 26 50 0 
O 77 26 0 
O 6 32 0 
O 58 39 0 
14
Atoms. Timestep: 298
N 74 51 0 
N 1 29 0 
N 76 11 0 
N 2 9 0 
N 58 40 0 
O 76 28 0 
O 1 6 0 
O 4 30 0 
O 40 8 0 
O 77 14 0 
O 27 50 0 
O 77 27 0 
O 7 32 0 
O 58 38 0 
14
Atoms. Timestep: 299
N 75 51 0 
N 2 29 0 
N 76 12 0 
N 2 8 0 
N 58 39 0 
O 76 29 0 
O 1 5 0 
O 5 30 0 
O 40 7 0 
O 77 15 0 
O 28 50 0 
O 77 28 0 
O 8 32 0 
O 58 37 0 
14
Atoms. Timestep: 300
N 76 51 0 
N 3 29 0 
N 76 13 0 
N 2 7 0 
N 58 38 0 
O 76 30 0 
O 1 4 0 
O 6 30 0 
O 40 6 0 
O 77 16 0 
O 29 50 0 
O 77 29 0 
O 9 32 0 
O 58 36 0 
14
Atoms. Timestep: 301
N 76 50 0 
N 4 29 0 
N 76 14 0 
N 2 6 0 
N 58 37 0 
O 76 31 0 
O 1 3 0 
O 7 30 0 
O 40 5 0 
O 77 17 0 
O 28 50 0 
O 77 30 0 
O 10 32 0 
O 58 35 0 
14
Atoms. Timestep: 302
N 76 49 0 
N 5 29 0 
N 76 15 0 
N 2 5 0 
N 58 36 0 
O 76 32 0 
O 1 2 0 
O 8 30 0 
O 40 4 0 
O 77 18 0 
O 29 50 0 
O 77 31 0 
O 11 32 0 
O 58 34 0 
14
Atoms. Timestep: 303
N 76 48 0 
N 6 29 0 
N 76 16 0 
N 2 4 0 
N 58 35 0 
O 76 31 0 
O 1 1 0 
O 9 30 0 
O 40 3 0 
O 77 19 0 
O 30 50 0 
O 77 32 0 
O 12 32 0 
O 58 33 0 
14
Atoms. Timestep: 304
N 76 47 0 
N 7 29 0 
N 76 17 0 
N 2 3 0 
N 58 34 0 
O 76 32 0 
O 1 0 0 
O 10 30 0 
O 40 2 0 
O 77 20 0 
O 31 50 0 
O 77 31 0 
O 13 32 0 
O 58 32 0 
14
Atoms. Timestep: 305
N 76 46 0 
N 8 29 0 
N 76 18 0 
N 2 2 0 
N 58 33 0 
O 76 31 0 
O 1 99 0 
O 11 30 0 
O 40 1 0 
O 77 21 0 
O 32 50 0 
O 77 32 0 
O 14 32 0 
O 58 31 0 
14
Atoms. Timestep: 306
N 76 45 0 
N 9 29 0 
N 76 19 0 
N 2 1 0 
N 58 32 0 
O 76 32 0 
O 1 98 0 
O 12 30 0 
O 40 0 0 
O 77 22 0 
O 33 50 0 
O 77 31 0 
O 15 32 0 
O 58 30 0 
14
Atoms. Timestep: 307
N 76 44 0 
N 10 29 0 
N 76 20 0 
N 2 0 0 
N 58 31 0 
O 76 31 0 
O 1 97 0 
O 13 30 0 
O 40 99 0 
O 77 23 0 
O 34 50 0 
O 77 32 0 
O 16 32 0 
O 58 29 0 
14
Atoms. Timestep: 308
N 76 43 0 
N 11 29 0 
N 76 21 0 
N 2 99 0 
N 58 30 0 
O 76 32 0 
O 1 96 0 
O 14 30 0 
O 40 98 0 
O 77 24 0 
O 35 50 0 
O 77 31 0 
O 17 32 0 
O 58 28 0 
14
Atoms. Timestep: 309
N 76 42 0 
N 12 29 0 
N 76 22 0 
N 2 98 0 
N 58 29 0 
O 76 31 0 
O 1 95 0 
O 15 30 0 
O 40 97 0 
O 77 25 0 
O 36 50 0 
O 77 32 0 
O 18 32 0 
O 58 27 0 
14
Atoms. Timestep: 310
N 76 41 0 
N 13 29 0 
N 76 23 0 
N 2 97 0 
N 58 28 0 
O 76 32 0 
O 1 94 0 
O 16 30 0 
O 40 96 0 
O 77 26 0 
O 37 50 0 
O 77 31 0 
O 19 32 0 
O 58 26 0 
14
Atoms. Timestep: 311
N 76 40 0 
N 14 29 0 
N 76 24 0 
N 2 96 0 
N 58 27 0 
O 76 31 0 
O 1 93 0 
O 17 30 0 
O 40 95 0 
O 77 27 0 
O 38 50 0 
O 77 32 0 
O 20 32 0 
O 58 25 0 
14
Atoms. Timestep: 312
N 76 39 0 
N 15 29 0 
N 76 25 0 
N 2 95 0 
N 58 26 0 
O 76 32 0 
O 1 92 0 
O 18 30 0 
O 40 94 0 
O 77 28 0 
O 39 50 0 
O 77 31 0 
O 21 32 0 
O 58 24 0 
14
Atoms. Timestep: 313
N 76 38 0 
N 16 29 0 
N 76 26 0 
N 2 94 0 
N 58 25 0 
O 76 31 0 
O 1 91 0 
O 19 30 0 
O 40 93 0 
O 77 29 0 
O 40 50 0 
O 77 32 0 
O 22 32 0 
O 58 23 0 
14
Atoms. Timestep: 314
N 76 37 0 
N 17 29 0 
N 76 27 0 
N 2 93 0 
N 58 24 0 
O 76 32 0 
O 1 90 0 
O 20 30 0 
O 40 92 0 
O 77 30 0 
O 41 50 0 
O 77 31 0 
O 23 32 0 
O 58 22 0 
14
Atoms. Timestep: 315
N 76 36 0 
N 18 29 0 
N 76 28 0 
N 2 92 0 
N 58 23 0 
O 76 31 0 
O 1 89 0 
O 21 30 0 
O 40 91 0 
O 77 31 0 
O 42 50 0 
O 77 32 0 
O 24 32 0 
O 58 21 0 
14
Atoms. Timestep: 316
N 76 35 0 
N 19 29 0 
N 76 29 0 
N 2 91 0 
N 58 22 0 
O 76 32 0 
O 1 88 0 
O 22 30 0 
O 40 90 0 
O 77 31 0 
O 43 50 0 
O 77 32 0 
O 25 32 0 
O 58 20 0 
14
Atoms. Timestep: 317
N 76 34 0 
N 20 29 0 
N 76 30 0 
N 2 90 0 
N 58 21 0 
O 76 31 0 
O 1 87 0 
O 23 30 0 
O 40 89 0 
O 78 31 0 
O 44 50 0 
O 77 32 0 
O 26 32 0 
O 58 19 0 
13
Atoms. Timestep: 318
N 76 33 0 
N 21 29 0 
N 76 31 0 
N 2 89 0 
N 58 20 0 
O 1 86 0 
O 24 30 0 
O 40 88 0 
O 78 30 0 
O 45 50 0 
O 77 31 0 
O 27 32 0 
O 58 18 0 
12
Atoms. Timestep: 319
N 76 34 0 
N 22 29 0 
N 77 31 0 
N 2 88 0 
N 58 19 0 
O 1 85 0 
O 25 30 0 
O 40 87 0 
O 78 29 0 
O 46 50 0 
O 28 32 0 
O 58 17 0 
12
Atoms. Timestep: 320
N 76 35 0 
N 23 29 0 
N 77 30 0 
N 2 87 0 
N 58 18 0 
O 1 84 0 
O 26 30 0 
O 40 86 0 
O 78 28 0 
O 47 50 0 
O 29 32 0 
O 58 16 0 
12
Atoms. Timestep: 321
N 76 36 0 
N 24 29 0 
N 76 30 0 
N 2 86 0 
N 58 17 0 
O 1 83 0 
O 27 30 0 
O 40 85 0 
O 79 28 0 
O 48 50 0 
O 30 32 0 
O 58 15 0 
12
Atoms. Timestep: 322
N 76 37 0 
N 25 29 0 
N 77 30 0 
N 2 85 0 
N 58 16 0 
O 1 82 0 
O 28 30 0 
O 40 84 0 
O 80 28 0 
O 47 50 0 
O 31 32 0 
O 58 14 0 
12
Atoms. Timestep: 323
N 76 38 0 
N 26 29 0 
N 78 30 0 
N 2 84 0 
N 58 15 0 
O 1 81 0 
O 29 30 0 
O 40 83 0 
O 81 28 0 
O 47 51 0 
O 32 32 0 
O 58 13 0 
12
Atoms. Timestep: 324
N 76 39 0 
N 27 29 0 
N 79 30 0 
N 2 83 0 
N 58 14 0 
O 1 80 0 
O 30 30 0 
O 40 82 0 
O 81 27 0 
O 47 52 0 
O 33 32 0 
O 58 12 0 
12
Atoms. Timestep: 325
N 76 40 0 
N 28 29 0 
N 79 29 0 
N 2 84 0 
N 58 13 0 
O 1 79 0 
O 31 30 0 
O 40 81 0 
O 82 27 0 
O 47 53 0 
O 34 32 0 
O 58 11 0 
12
Atoms. Timestep: 326
N 76 41 0 
N 29 29 0 
N 80 29 0 
N 2 83 0 
N 58 12 0 
O 1 78 0 
O 32 30 0 
O 40 80 0 
O 82 26 0 
O 47 54 0 
O 35 32 0 
O 58 10 0 
12
Atoms. Timestep: 327
N 76 42 0 
N 30 29 0 
N 80 28 0 
N 2 82 0 
N 58 11 0 
O 1 77 0 
O 33 30 0 
O 40 79 0 
O 82 25 0 
O 47 55 0 
O 36 32 0 
O 58 9 0 
12
Atoms. Timestep: 328
N 76 43 0 
N 31 29 0 
N 80 27 0 
N 2 81 0 
N 58 10 0 
O 1 76 0 
O 34 30 0 
O 40 78 0 
O 82 24 0 
O 47 56 0 
O 37 32 0 
O 58 8 0 
12
Atoms. Timestep: 329
N 76 44 0 
N 32 29 0 
N 80 26 0 
N 2 80 0 
N 58 9 0 
O 1 75 0 
O 35 30 0 
O 40 77 0 
O 82 23 0 
O 47 57 0 
O 38 32 0 
O 58 7 0 
12
Atoms. Timestep: 330
N 76 45 0 
N 33 29 0 
N 81 26 0 
N 2 79 0 
N 58 8 0 
O 1 74 0 
O 36 30 0 
O 40 76 0 
O 82 22 0 
O 46 57 0 
O 39 32 0 
O 58 6 0 
12
Atoms. Timestep: 331
N 76 46 0 
N 34 29 0 
N 81 25 0 
N 2 78 0 
N 58 7 0 
O 1 73 0 
O 37 30 0 
O 40 75 0 
O 82 21 0 
O 46 58 0 
O 40 32 0 
O 58 5 0 
12
Atoms. Timestep: 332
N 76 47 0 
N 35 29 0 
N 81 24 0 
N 2 77 0 
N 58 6 0 
O 1 72 0 
O 38 30 0 
O 40 74 0 
O 82 20 0 
O 45 58 0 
O 41 32 0 
O 58 4 0 
12
Atoms. Timestep: 333
N 76 48 0 
N 36 29 0 
N 81 23 0 
N 2 76 0 
N 58 5 0 
O 1 71 0 
O 39 30 0 
O 40 73 0 
O 82 19 0 
O 45 59 0 
O 42 32 0 
O 58 3 0 
12
Atoms. Timestep: 334
N 76 49 0 
N 37 29 0 
N 81 22 0 
N 2 75 0 
N 58 4 0 
O 1 70 0 
O 40 30 0 
O 40 72 0 
O 82 18 0 
O 45 60 0 
O 43 32 0 
O 58 2 0 
12
Atoms. Timestep: 335
N 76 50 0 
N 38 29 0 
N 81 21 0 
N 2 74 0 
N 58 3 0 
O 1 69 0 
O 41 30 0 
O 40 71 0 
O 82 17 0 
O 45 61 0 
O 44 32 0 
O 58 1 0 
12
Atoms. Timestep: 336
N 76 51 0 
N 39 29 0 
N 81 20 0 
N 2 73 0 
N 58 2 0 
O 1 68 0 
O 42 30 0 
O 40 70 0 
O 82 16 0 
O 44 61 0 
O 45 32 0 
O 58 0 0 
12
Atoms. Timestep: 337
N 77 51 0 
N 40 29 0 
N 81 19 0 
N 2 72 0 
N 58 1 0 
O 1 67 0 
O 43 30 0 
O 40 69 0 
O 82 15 0 
O 44 62 0 
O 46 32 0 
O 58 99 0 
12
Atoms. Timestep: 338
N 78 51 0 
N 41 29 0 
N 81 18 0 
N 2 71 0 
N 58 0 0 
O 1 66 0 
O 44 30 0 
O 40 68 0 
O 82 14 0 
O 44 63 0 
O 47 32 0 
O 58 98 0 
12
Atoms. Timestep: 339
N 79 51 0 
N 42 29 0 
N 81 17 0 
N 2 70 0 
N 58 99 0 
O 1 65 0 
O 45 30 0 
O 40 67 0 
O 82 13 0 
O 44 64 0 
O 48 32 0 
O 58 97 0 
12
Atoms. Timestep: 340
N 80 51 0 
N 43 29 0 
N 81 16 0 
N 2 69 0 
N 58 98 0 
O 1 64 0 
O 46 30 0 
O 40 66 0 
O 82 12 0 
O 44 65 0 
O 49 32 0 
O 58 96 0 
12
Atoms. Timestep: 341
N 81 51 0 
N 44 29 0 
N 81 15 0 
N 2 68 0 
N 58 97 0 
O 1 63 0 
O 47 30 0 
O 40 65 0 
O 82 11 0 
O 44 64 0 
O 50 32 0 
O 58 95 0 
12
Atoms. Timestep: 342
N 82 51 0 
N 45 29 0 
N 81 14 0 
N 2 67 0 
N 58 96 0 
O 1 62 0 
O 48 30 0 
O 40 64 0 
O 82 10 0 
O 44 63 0 
O 51 32 0 
O 58 94 0 
12
Atoms. Timestep: 343
N 83 51 0 
N 46 29 0 
N 81 13 0 
N 2 66 0 
N 58 95 0 
O 1 61 0 
O 49 30 0 
O 40 65 0 
O 82 9 0 
O 44 64 0 
O 52 32 0 
O 58 93 0 
12
Atoms. Timestep: 344
N 84 51 0 
N 47 29 0 
N 81 12 0 
N 2 65 0 
N 58 94 0 
O 1 60 0 
O 50 30 0 
O 40 64 0 
O 82 8 0 
O 44 63 0 
O 53 32 0 
O 58 92 0 
12
Atoms. Timestep: 345
N 85 51 0 
N 48 29 0 
N 81 11 0 
N 2 64 0 
N 58 93 0 
O 1 59 0 
O 51 30 0 
O 40 63 0 
O 82 7 0 
O 44 62 0 
O 54 32 0 
O 58 91 0 
12
Atoms. Timestep: 346
N 86 51 0 
N 49 29 0 
N 81 10 0 
N 2 63 0 
N 58 92 0 
O 1 58 0 
O 52 30 0 
O 40 62 0 
O 82 6 0 
O 44 63 0 
O 55 32 0 
O 58 90 0 
12
Atoms. Timestep: 347
N 87 51 0 
N 50 29 0 
N 81 9 0 
N 2 62 0 
N 58 91 0 
O 1 57 0 
O 53 30 0 
O 40 63 0 
O 82 5 0 
O 44 62 0 
O 56 32 0 
O 58 89 0 
12
Atoms. Timestep: 348
N 88 51 0 
N 51 29 0 
N 81 8 0 
N 2 61 0 
N 58 90 0 
O 1 56 0 
O 54 30 0 
O 40 62 0 
O 82 4 0 
O 44 61 0 
O 57 32 0 
O 58 88 0 
12
Atoms. Timestep: 349
N 89 51 0 
N 52 29 0 
N 81 7 0 
N 2 60 0 
N 58 89 0 
O 1 55 0 
O 55 30 0 
O 40 61 0 
O 82 3 0 
O 44 60 0 
O 58 32 0 
O 58 87 0 
12
Atoms. Timestep: 350
N 90 51 0 
N 53 29 0 
N 81 6 0 
N 2 59 0 
N 58 88 0 
O 1 54 0 
O 56 30 0 
O 40 60 0 
O 82 2 0 
O 44 59 0 
O 59 32 0 
O 58 86 0 
12
Atoms. Timestep: 351
N 91 51 0 
N 54 29 0 
N 81 5 0 
N 2 58 0 
N 58 87 0 
O 1 53 0 
O 57 30 0 
O 40 59 0 
O 82 1 0 
O 44 60 0 
O 60 32 0 
O 58 85 0 
12
Atoms. Timestep: 352
N 92 51 0 
N 55 29 0 
N 81 4 0 
N 2 57 0 
N 58 86 0 
O 1 52 0 
O 58 30 0 
O 40 58 0 
O 82 0 0 
O 44 59 0 
O 61 32 0 
O 58 84 0 
12
Atoms. Timestep: 353
N 93 51 0 
N 56 29 0 
N 81 3 0 
N 2 56 0 
N 58 85 0 
O 1 51 0 
O 59 30 0 
O 40 57 0 
O 82 99 0 
O 44 58 0 
O 62 32 0 
O 58 83 0 
12
Atoms. Timestep: 354
N 94 51 0 
N 57 29 0 
N 81 2 0 
N 2 55 0 
N 58 84 0 
O 1 50 0 
O 60 30 0 
O 40 58 0 
O 82 98 0 
O 44 57 0 
O 63 32 0 
O 58 82 0 
12
Atoms. Timestep: 355
N 95 51 0 
N 58 29 0 
N 81 1 0 
N 2 54 0 
N 58 83 0 
O 1 49 0 
O 61 30 0 
O 40 57 0 
O 82 97 0 
O 44 56 0 
O 64 32 0 
O 58 81 0 
12
Atoms. Timestep: 356
N 96 51 0 
N 59 29 0 
N 81 0 0 
N 2 53 0 
N 58 82 0 
O 1 48 0 
O 62 30 0 
O 40 56 0 
O 82 96 0 
O 44 55 0 
O 65 32 0 
O 58 80 0 
12
Atoms. Timestep: 357
N 97 51 0 
N 60 29 0 
N 81 99 0 
N 2 52 0 
N 58 81 0 
O 1 47 0 
O 63 30 0 
O 40 55 0 
O 82 95 0 
O 44 54 0 
O 66 32 0 
O 58 79 0 
12
Atoms. Timestep: 358
N 98 51 0 
N 61 29 0 
N 81 98 0 
N 3 52 0 
N 58 80 0 
O 1 46 0 
O 64 30 0 
O 40 54 0 
O 82 94 0 
O 44 53 0 
O 67 32 0 
O 58 78 0 
12
Atoms. Timestep: 359
N 98 50 0 
N 62 29 0 
N 81 97 0 
N 4 52 0 
N 58 79 0 
O 1 45 0 
O 65 30 0 
O 40 53 0 
O 82 93 0 
O 44 52 0 
O 68 32 0 
O 58 77 0 
12
Atoms. Timestep: 360
N 98 49 0 
N 63 29 0 
N 81 96 0 
N 5 52 0 
N 58 78 0 
O 1 44 0 
O 66 30 0 
O 40 52 0 
O 82 92 0 
O 44 53 0 
O 69 32 0 
O 58 76 0 
12
Atoms. Timestep: 361
N 98 48 0 
N 64 29 0 
N 81 95 0 
N 6 52 0 
N 58 77 0 
O 1 43 0 
O 67 30 0 
O 40 51 0 
O 82 91 0 
O 44 52 0 
O 70 32 0 
O 58 75 0 
12
Atoms. Timestep: 362
N 98 47 0 
N 65 29 0 
N 81 94 0 
N 7 52 0 
N 58 76 0 
O 1 42 0 
O 68 30 0 
O 40 50 0 
O 82 90 0 
O 44 51 0 
O 71 32 0 
O 58 74 0 
12
Atoms. Timestep: 363
N 98 46 0 
N 66 29 0 
N 81 93 0 
N 8 52 0 
N 58 75 0 
O 1 41 0 
O 69 30 0 
O 40 49 0 
O 82 89 0 
O 44 50 0 
O 72 32 0 
O 58 73 0 
12
Atoms. Timestep: 364
N 98 45 0 
N 67 29 0 
N 81 92 0 
N 9 52 0 
N 58 74 0 
O 1 40 0 
O 70 30 0 
O 40 48 0 
O 82 88 0 
O 44 49 0 
O 73 32 0 
O 58 72 0 
12
Atoms. Timestep: 365
N 98 44 0 
N 68 29 0 
N 81 91 0 
N 10 52 0 
N 58 73 0 
O 1 39 0 
O 71 30 0 
O 41 48 0 
O 82 87 0 
O 44 48 0 
O 74 32 0 
O 58 71 0 
12
Atoms. Timestep: 366
N 98 43 0 
N 69 29 0 
N 81 90 0 
N 11 52 0 
N 58 72 0 
O 1 38 0 
O 72 30 0 
O 41 47 0 
O 82 86 0 
O 44 47 0 
O 75 32 0 
O 58 70 0 
12
Atoms. Timestep: 367
N 98 42 0 
N 70 29 0 
N 81 89 0 
N 12 52 0 
N 58 71 0 
O 1 37 0 
O 73 30 0 
O 42 47 0 
O 82 85 0 
O 44 46 0 
O 76 32 0 
O 58 69 0 
12
Atoms. Timestep: 368
N 98 41 0 
N 71 29 0 
N 81 88 0 
N 13 52 0 
N 58 70 0 
O 1 36 0 
O 74 30 0 
O 42 46 0 
O 82 84 0 
O 44 45 0 
O 77 32 0 
O 58 68 0 
12
Atoms. Timestep: 369
N 98 40 0 
N 72 29 0 
N 81 87 0 
N 14 52 0 
N 58 69 0 
O 1 35 0 
O 75 30 0 
O 43 46 0 
O 82 83 0 
O 44 44 0 
O 78 32 0 
O 58 67 0 
12
Atoms. Timestep: 370
N 98 39 0 
N 73 29 0 
N 81 86 0 
N 15 52 0 
N 58 68 0 
O 1 34 0 
O 76 30 0 
O 43 45 0 
O 82 82 0 
O 44 43 0 
O 79 32 0 
O 58 66 0 
12
Atoms. Timestep: 371
N 98 38 0 
N 74 29 0 
N 81 85 0 
N 16 52 0 
N 58 67 0 
O 1 33 0 
O 77 30 0 
O 43 44 0 
O 82 81 0 
O 44 42 0 
O 80 32 0 
O 58 65 0 
12
Atoms. Timestep: 372
N 98 37 0 
N 75 29 0 
N 81 84 0 
N 17 52 0 
N 58 66 0 
O 1 32 0 
O 78 30 0 
O 43 43 0 
O 82 80 0 
O 44 41 0 
O 81 32 0 
O 58 64 0 
12
Atoms. Timestep: 373
N 98 36 0 
N 76 29 0 
N 81 83 0 
N 18 52 0 
N 58 65 0 
O 1 31 0 
O 79 30 0 
O 44 43 0 
O 82 79 0 
O 44 40 0 
O 82 32 0 
O 58 63 0 
12
Atoms. Timestep: 374
N 98 35 0 
N 77 29 0 
N 81 82 0 
N 19 52 0 
N 58 64 0 
O 1 30 0 
O 80 30 0 
O 44 42 0 
O 82 78 0 
O 45 40 0 
O 83 32 0 
O 58 62 0 
12
Atoms. Timestep: 375
N 98 34 0 
N 78 29 0 
N 81 81 0 
N 20 52 0 
N 58 63 0 
O 1 29 0 
O 81 30 0 
O 44 41 0 
O 82 77 0 
O 45 39 0 
O 84 32 0 
O 58 61 0 
12
Atoms. Timestep: 376
N 98 33 0 
N 79 29 0 
N 81 80 0 
N 21 52 0 
N 58 62 0 
O 1 28 0 
O 82 30 0 
O 45 41 0 
O 82 76 0 
O 45 38 0 
O 85 32 0 
O 58 60 0 
12
Atoms. Timestep: 377
N 98 32 0 
N 80 29 0 
N 81 79 0 
N 22 52 0 
N 58 61 0 
O 1 27 0 
O 83 30 0 
O 45 40 0 
O 82 75 0 
O 46 38 0 
O 86 32 0 
O 58 59 0 
12
Atoms. Timestep: 378
N 98 31 0 
N 81 29 0 
N 81 78 0 
N 23 52 0 
N 58 60 0 
O 1 26 0 
O 84 30 0 
O 45 39 0 
O 82 74 0 
O 46 37 0 
O 87 32 0 
O 58 58 0 
12
Atoms. Timestep: 379
N 98 30 0 
N 82 29 0 
N 81 77 0 
N 24 52 0 
N 58 59 0 
O 1 25 0 
O 85 30 0 
O 45 38 0 
O 82 73 0 
O 46 36 0 
O 88 32 0 
O 58 57 0 
12
Atoms. Timestep: 380
N 98 29 0 
N 83 29 0 
N 81 76 0 
N 25 52 0 
N 58 58 0 
O 1 24 0 
O 86 30 0 
O 45 37 0 
O 82 72 0 
O 46 35 0 
O 89 32 0 
O 58 56 0 
12
Atoms. Timestep: 381
N 98 28 0 
N 84 29 0 
N 81 75 0 
N 26 52 0 
N 58 57 0 
O 1 23 0 
O 87 30 0 
O 45 36 0 
O 82 71 0 
O 46 34 0 
O 90 32 0 
O 58 55 0 
12
Atoms. Timestep: 382
N 98 27 0 
N 85 29 0 
N 81 74 0 
N 27 52 0 
N 58 56 0 
O 1 22 0 
O 88 30 0 
O 45 35 0 
O 82 70 0 
O 46 33 0 
O 91 32 0 
O 58 54 0 
12
Atoms. Timestep: 383
N 98 26 0 
N 86 29 0 
N 81 73 0 
N 28 52 0 
N 58 55 0 
O 1 21 0 
O 89 30 0 
O 45 34 0 
O 82 69 0 
O 46 32 0 
O 92 32 0 
O 58 53 0 
12
Atoms. Timestep: 384
N 98 25 0 
N 87 29 0 
N 81 72 0 
N 28 51 0 
N 58 54 0 
O 1 20 0 
O 90 30 0 
O 45 33 0 
O 82 68 0 
O 46 31 0 
O 93 32 0 
O 58 52 0 
12
Atoms. Timestep: 385
N 98 24 0 
N 88 29 0 
N 81 71 0 
N 28 50 0 
N 58 53 0 
O 1 19 0 
O 91 30 0 
O 45 32 0 
O 82 67 0 
O 46 30 0 
O 94 32 0 
O 58 51 0 
12
Atoms. Timestep: 386
N 98 23 0 
N 89 29 0 
N 81 70 0 
N 28 49 0 
N 58 52 0 
O 1 18 0 
O 92 30 0 
O 45 31 0 
O 82 66 0 
O 46 29 0 
O 95 32 0 
O 58 50 0 
12
Atoms. Timestep: 387
N 98 22 0 
N 90 29 0 
N 81 69 0 
N 28 48 0 
N 58 51 0 
O 1 17 0 
O 93 30 0 
O 45 30 0 
O 82 65 0 
O 46 28 0 
O 96 32 0 
O 58 49 0 
12
Atoms. Timestep: 388
N 98 21 0 
N 91 29 0 
N 81 68 0 
N 28 47 0 
N 58 50 0 
O 1 16 0 
O 94 30 0 
O 45 29 0 
O 82 64 0 
O 46 27 0 
O 97 32 0 
O 58 48 0 
12
Atoms. Timestep: 389
N 98 20 0 
N 92 29 0 
N 81 67 0 
N 28 46 0 
N 58 51 0 
O 1 15 0 
O 95 30 0 
O 45 28 0 
O 82 63 0 
O 46 26 0 
O 98 32 0 
O 58 47 0 
12
Atoms. Timestep: 390
N 98 19 0 
N 93 29 0 
N 81 66 0 
N 28 45 0 
N 58 50 0 
O 1 14 0 
O 96 30 0 
O 46 28 0 
O 82 62 0 
O 46 25 0 
O 99 32 0 
O 58 46 0 
12
Atoms. Timestep: 391
N 98 18 0 
N 94 29 0 
N 81 65 0 
N 29 45 0 
N 58 49 0 
O 1 13 0 
O 97 30 0 
O 47 28 0 
O 82 61 0 
O 46 24 0 
O 0 32 0 
O 58 45 0 
12
Atoms. Timestep: 392
N 98 17 0 
N 95 29 0 
N 81 64 0 
N 30 45 0 
N 58 48 0 
O 1 12 0 
O 98 30 0 
O 47 27 0 
O 82 60 0 
O 46 23 0 
O 1 32 0 
O 58 44 0 
12
Atoms. Timestep: 393
N 98 16 0 
N 96 29 0 
N 81 63 0 
N 30 44 0 
N 58 47 0 
O 1 11 0 
O 99 30 0 
O 47 26 0 
O 82 59 0 
O 46 22 0 
O 2 32 0 
O 58 43 0 
12
Atoms. Timestep: 394
N 98 15 0 
N 97 29 0 
N 81 62 0 
N 30 43 0 
N 58 46 0 
O 1 10 0 
O 0 30 0 
O 47 25 0 
O 82 58 0 
O 46 21 0 
O 3 32 0 
O 58 42 0 
12
Atoms. Timestep: 395
N 98 14 0 
N 98 29 0 
N 81 61 0 
N 30 42 0 
N 58 45 0 
O 1 9 0 
O 1 30 0 
O 47 24 0 
O 82 57 0 
O 46 20 0 
O 4 32 0 
O 58 41 0 
12
Atoms. Timestep: 396
N 98 13 0 
N 99 29 0 
N 81 60 0 
N 30 41 0 
N 58 44 0 
O 1 8 0 
O 2 30 0 
O 47 23 0 
O 82 56 0 
O 46 19 0 
O 5 32 0 
O 58 40 0 
12
Atoms. Timestep: 397
N 98 12 0 
N 0 29 0 
N 81 59 0 
N 30 40 0 
N 58 43 0 
O 1 7 0 
O 3 30 0 
O 47 22 0 
O 82 55 0 
O 46 18 0 
O 6 32 0 
O 58 39 0 
12
Atoms. Timestep: 398
N 98 11 0 
N 1 29 0 
N 81 58 0 
N 30 39 0 
N 58 42 0 
O 1 6 0 
O 4 30 0 
O 47 21 0 
O 82 54 0 
O 46 17 0 
O 7 32 0 
O 58 38 0 
12
Atoms. Timestep: 399
N 98 10 0 
N 2 29 0 
N 81 57 0 
N 30 38 0 
N 58 41 0 
O 1 5 0 
O 5 30 0 
O 47 20 0 
O 82 53 0 
O 46 16 0 
O 8 32 0 
O 58 37 0 
12
Atoms. Timestep: 400
N 98 9 0 
N 3 29 0 
N 81 56 0 
N 29 38 0 
N 58 40 0 
O 1 4 0 
O 6 30 0 
O 47 19 0 
O 82 52 0 
O 46 15 0 
O 9 32 0 
O 58 36 0 
12
Atoms. Timestep: 401
N 98 8 0 
N 4 29 0 
N 81 55 0 
N 28 38 0 
N 58 39 0 
O 1 3 0 
O 7 30 0 
O 47 18 0 
O 82 51 0 
O 46 14 0 
O 10 32 0 
O 58 35 0 
12
Atoms. Timestep: 402
N 98 7 0 
N 5 29 0 
N 81 54 0 
N 27 38 0 
N 58 38 0 
O 1 2 0 
O 8 30 0 
O 47 17 0 
O 82 50 0 
O 46 13 0 
O 11 32 0 
O 58 34 0 
12
Atoms. Timestep: 403
N 98 6 0 
N 6 29 0 
N 81 53 0 
N 26 38 0 
N 58 37 0 
O 1 1 0 
O 9 30 0 
O 47 16 0 
O 82 49 0 
O 46 12 0 
O 12 32 0 
O 58 33 0 
12
Atoms. Timestep: 404
N 98 5 0 
N 7 29 0 
N 81 52 0 
N 25 38 0 
N 58 36 0 
O 1 0 0 
O 10 30 0 
O 47 15 0 
O 82 48 0 
O 46 11 0 
O 13 32 0 
O 58 32 0 
12
Atoms. Timestep: 405
N 98 4 0 
N 8 29 0 
N 81 51 0 
N 24 38 0 
N 58 35 0 
O 1 99 0 
O 11 30 0 
O 47 14 0 
O 82 47 0 
O 46 10 0 
O 14 32 0 
O 58 31 0 
12
Atoms. Timestep: 406
N 98 3 0 
N 9 29 0 
N 81 50 0 
N 23 38 0 
N 58 34 0 
O 1 98 0 
O 12 30 0 
O 47 13 0 
O 82 46 0 
O 46 9 0 
O 15 32 0 
O 58 30 0 
12
Atoms. Timestep: 407
N 98 2 0 
N 10 29 0 
N 81 49 0 
N 22 38 0 
N 58 33 0 
O 1 97 0 
O 13 30 0 
O 47 12 0 
O 82 45 0 
O 46 8 0 
O 16 32 0 
O 58 29 0 
12
Atoms. Timestep: 408
N 98 1 0 
N 11 29 0 
N 81 48 0 
N 21 38 0 
N 58 32 0 
O 1 96 0 
O 14 30 0 
O 47 11 0 
O 82 44 0 
O 46 7 0 
O 17 32 0 
O 58 28 0 
12
Atoms. Timestep: 409
N 98 0 0 
N 12 29 0 
N 81 47 0 
N 21 37 0 
N 58 31 0 
O 1 95 0 
O 15 30 0 
O 47 10 0 
O 82 43 0 
O 46 6 0 
O 18 32 0 
O 58 27 0 
12
Atoms. Timestep: 410
N 98 99 0 
N 13 29 0 
N 81 46 0 
N 21 36 0 
N 58 30 0 
O 1 94 0 
O 16 30 0 
O 47 9 0 
O 82 42 0 
O 46 5 0 
O 19 32 0 
O 58 26 0 
12
Atoms. Timestep: 411
N 98 98 0 
N 14 29 0 
N 81 45 0 
N 21 35 0 
N 58 29 0 
O 1 93 0 
O 17 30 0 
O 47 8 0 
O 82 41 0 
O 46 4 0 
O 19 31 0 
O 58 25 0 
12
Atoms. Timestep: 412
N 98 97 0 
N 15 29 0 
N 81 44 0 
N 21 34 0 
N 58 28 0 
O 1 92 0 
O 18 30 0 
O 47 7 0 
O 82 40 0 
O 46 3 0 
O 19 30 0 
O 58 24 0 
12
Atoms. Timestep: 413
N 98 96 0 
N 16 29 0 
N 81 43 0 
N 21 33 0 
N 58 27 0 
O 1 91 0 
O 19 30 0 
O 47 6 0 
O 82 39 0 
O 46 2 0 
O 20 30 0 
O 58 23 0 
12
Atoms. Timestep: 414
N 98 95 0 
N 17 29 0 
N 81 42 0 
N 21 32 0 
N 58 26 0 
O 1 90 0 
O 20 30 0 
O 47 5 0 
O 82 38 0 
O 46 1 0 
O 20 29 0 
O 58 22 0 
12
Atoms. Timestep: 415
N 98 94 0 
N 18 29 0 
N 81 41 0 
N 21 31 0 
N 58 25 0 
O 1 89 0 
O 19 30 0 
O 47 4 0 
O 82 37 0 
O 46 0 0 
O 21 29 0 
O 58 21 0 
12
Atoms. Timestep: 416
N 98 93 0 
N 19 29 0 
N 81 40 0 
N 20 31 0 
N 58 24 0 
O 1 88 0 
O 19 31 0 
O 47 3 0 
O 82 36 0 
O 46 99 0 
O 22 29 0 
O 58 20 0 
11
Atoms. Timestep: 417
N 98 92 0 
N 19 28 0 
N 81 39 0 
N 19 31 0 
N 58 23 0 
O 1 87 0 
O 47 2 0 
O 82 35 0 
O 46 98 0 
O 23 29 0 
O 58 19 0 
11
Atoms. Timestep: 418
N 98 91 0 
N 19 27 0 
N 81 38 0 
N 19 32 0 
N 58 22 0 
O 1 86 0 
O 47 1 0 
O 82 34 0 
O 46 97 0 
O 24 29 0 
O 58 18 0 
11
Atoms. Timestep: 419
N 98 90 0 
N 20 27 0 
N 81 37 0 
N 19 33 0 
N 58 21 0 
O 1 85 0 
O 47 0 0 
O 82 33 0 
O 46 96 0 
O 25 29 0 
O 58 17 0 
11
Atoms. Timestep: 420
N 98 89 0 
N 21 27 0 
N 81 36 0 
N 19 34 0 
N 58 20 0 
O 1 84 0 
O 47 99 0 
O 82 32 0 
O 46 95 0 
O 26 29 0 
O 58 16 0 
11
Atoms. Timestep: 421
N 98 88 0 
N 22 27 0 
N 81 35 0 
N 19 35 0 
N 58 19 0 
O 1 83 0 
O 47 98 0 
O 82 31 0 
O 46 94 0 
O 27 29 0 
O 58 15 0 
11
Atoms. Timestep: 422
N 98 87 0 
N 23 27 0 
N 81 34 0 
N 19 36 0 
N 58 18 0 
O 1 82 0 
O 47 97 0 
O 82 30 0 
O 46 93 0 
O 28 29 0 
O 58 14 0 
11
Atoms. Timestep: 423
N 98 86 0 
N 24 27 0 
N 81 33 0 
N 19 37 0 
N 58 17 0 
O 1 81 0 
O 47 96 0 
O 82 29 0 
O 46 92 0 
O 29 29 0 
O 58 13 0 
11
Atoms. Timestep: 424
N 98 85 0 
N 25 27 0 
N 81 32 0 
N 19 38 0 
N 58 16 0 
O 1 80 0 
O 47 95 0 
O 82 28 0 
O 46 91 0 
O 30 29 0 
O 58 12 0 
11
Atoms. Timestep: 425
N 98 84 0 
N 26 27 0 
N 81 31 0 
N 19 39 0 
N 58 15 0 
O 1 79 0 
O 47 94 0 
O 82 27 0 
O 46 90 0 
O 31 29 0 
O 58 11 0 
11
Atoms. Timestep: 426
N 98 83 0 
N 27 27 0 
N 81 30 0 
N 19 40 0 
N 58 14 0 
O 1 78 0 
O 47 93 0 
O 82 26 0 
O 46 89 0 
O 32 29 0 
O 58 10 0 
11
Atoms. Timestep: 427
N 98 82 0 
N 28 27 0 
N 81 29 0 
N 19 41 0 
N 58 13 0 
O 1 77 0 
O 47 92 0 
O 82 25 0 
O 46 88 0 
O 33 29 0 
O 58 9 0 
11
Atoms. Timestep: 428
N 98 81 0 
N 29 27 0 
N 81 28 0 
N 19 42 0 
N 58 12 0 
O 1 76 0 
O 47 91 0 
O 82 24 0 
O 46 87 0 
O 34 29 0 
O 58 8 0 
11
Atoms. Timestep: 429
N 98 82 0 
N 30 27 0 
N 81 27 0 
N 19 43 0 
N 58 13 0 
O 1 75 0 
O 47 90 0 
O 82 23 0 
O 46 86 0 
O 35 29 0 
O 58 7 0 
11
Atoms. Timestep: 430
N 98 81 0 
N 31 27 0 
N 82 27 0 
N 19 44 0 
N 58 12 0 
O 1 74 0 
O 47 89 0 
O 82 22 0 
O 46 85 0 
O 36 29 0 
O 58 6 0 
11
Atoms. Timestep: 431
N 98 80 0 
N 32 27 0 
N 82 26 0 
N 19 45 0 
N 58 11 0 
O 1 73 0 
O 47 88 0 
O 82 21 0 
O 46 84 0 
O 37 29 0 
O 58 5 0 
11
Atoms. Timestep: 432
N 98 79 0 
N 33 27 0 
N 82 25 0 
N 19 46 0 
N 58 10 0 
O 1 72 0 
O 47 87 0 
O 82 20 0 
O 46 83 0 
O 38 29 0 
O 58 4 0 
11
Atoms. Timestep: 433
N 98 78 0 
N 34 27 0 
N 82 24 0 
N 19 47 0 
N 58 9 0 
O 1 71 0 
O 47 86 0 
O 82 19 0 
O 46 82 0 
O 39 29 0 
O 58 3 0 
11
Atoms. Timestep: 434
N 98 77 0 
N 35 27 0 
N 82 23 0 
N 19 48 0 
N 58 8 0 
O 1 70 0 
O 47 85 0 
O 82 18 0 
O 46 81 0 
O 40 29 0 
O 58 2 0 
11
Atoms. Timestep: 435
N 98 76 0 
N 36 27 0 
N 82 22 0 
N 19 49 0 
N 58 7 0 
O 1 69 0 
O 47 84 0 
O 82 17 0 
O 46 80 0 
O 41 29 0 
O 58 1 0 
11
Atoms. Timestep: 436
N 98 75 0 
N 37 27 0 
N 82 21 0 
N 19 50 0 
N 58 6 0 
O 1 68 0 
O 47 83 0 
O 82 16 0 
O 46 79 0 
O 42 29 0 
O 58 0 0 
11
Atoms. Timestep: 437
N 98 74 0 
N 38 27 0 
N 83 21 0 
N 19 51 0 
N 58 5 0 
O 1 67 0 
O 47 82 0 
O 82 15 0 
O 46 78 0 
O 43 29 0 
O 58 99 0 
11
Atoms. Timestep: 438
N 98 73 0 
N 39 27 0 
N 83 20 0 
N 18 51 0 
N 58 4 0 
O 1 66 0 
O 47 81 0 
O 82 14 0 
O 46 77 0 
O 44 29 0 
O 58 98 0 
11
Atoms. Timestep: 439
N 98 72 0 
N 40 27 0 
N 83 19 0 
N 17 51 0 
N 58 3 0 
O 1 65 0 
O 47 80 0 
O 82 13 0 
O 46 76 0 
O 45 29 0 
O 58 97 0 
11
Atoms. Timestep: 440
N 98 71 0 
N 41 27 0 
N 83 18 0 
N 16 51 0 
N 58 2 0 
O 1 64 0 
O 47 79 0 
O 82 12 0 
O 46 75 0 
O 46 29 0 
O 58 96 0 
11
Atoms. Timestep: 441
N 98 70 0 
N 42 27 0 
N 83 17 0 
N 15 51 0 
N 58 1 0 
O 1 63 0 
O 47 78 0 
O 82 11 0 
O 46 74 0 
O 47 29 0 
O 58 95 0 
11
Atoms. Timestep: 442
N 98 69 0 
N 43 27 0 
N 83 16 0 
N 14 51 0 
N 58 0 0 
O 1 62 0 
O 47 77 0 
O 82 10 0 
O 46 73 0 
O 48 29 0 
O 58 94 0 
11
Atoms. Timestep: 443
N 98 68 0 
N 44 27 0 
N 83 15 0 
N 13 51 0 
N 58 99 0 
O 1 61 0 
O 47 76 0 
O 82 9 0 
O 46 72 0 
O 49 29 0 
O 58 93 0 
11
Atoms. Timestep: 444
N 98 67 0 
N 45 27 0 
N 83 14 0 
N 12 51 0 
N 58 98 0 
O 1 60 0 
O 47 75 0 
O 82 8 0 
O 46 71 0 
O 50 29 0 
O 58 92 0 
11
Atoms. Timestep: 445
N 98 66 0 
N 46 27 0 
N 83 13 0 
N 11 51 0 
N 58 97 0 
O 1 59 0 
O 47 74 0 
O 82 7 0 
O 46 70 0 
O 51 29 0 
O 58 91 0 
11
Atoms. Timestep: 446
N 98 65 0 
N 47 27 0 
N 83 12 0 
N 10 51 0 
N 58 96 0 
O 1 58 0 
O 47 73 0 
O 82 6 0 
O 46 69 0 
O 52 29 0 
O 58 90 0 
11
Atoms. Timestep: 447
N 98 64 0 
N 48 27 0 
N 83 11 0 
N 9 51 0 
N 58 95 0 
O 1 57 0 
O 47 72 0 
O 82 5 0 
O 46 68 0 
O 53 29 0 
O 58 89 0 
11
Atoms. Timestep: 448
N 98 63 0 
N 49 27 0 
N 83 10 0 
N 8 51 0 
N 58 94 0 
O 1 56 0 
O 47 71 0 
O 82 4 0 
O 46 67 0 
O 54 29 0 
O 58 88 0 
11
Atoms. Timestep: 449
N 98 62 0 
N 50 27 0 
N 83 9 0 
N 7 51 0 
N 58 93 0 
O 1 55 0 
O 47 70 0 
O 82 3 0 
O 46 66 0 
O 55 29 0 
O 58 87 0 
11
Atoms. Timestep: 450
N 98 61 0 
N 51 27 0 
N 83 8 0 
N 6 51 0 
N 58 92 0 
O 1 54 0 
O 47 69 0 
O 82 2 0 
O 46 65 0 
O 56 29 0 
O 58 86 0 
11
Atoms. Timestep: 451
N 98 60 0 
N 52 27 0 
N 83 7 0 
N 5 51 0 
N 58 91 0 
O 0 54 0 
O 47 68 0 
O 82 1 0 
O 46 64 0 
O 57 29 0 
O 58 85 0 
11
Atoms. Timestep: 452
N 98 59 0 
N 53 27 0 
N 83 6 0 
N 4 51 0 
N 58 90 0 
O 0 53 0 
O 47 67 0 
O 82 0 0 
O 46 63 0 
O 58 29 0 
O 58 84 0 
11
Atoms. Timestep: 453
N 98 58 0 
N 54 27 0 
N 83 5 0 
N 3 51 0 
N 58 89 0 
O 99 53 0 
O 47 66 0 
O 82 99 0 
O 46 62 0 
O 59 29 0 
O 58 83 0 
11
Atoms. Timestep: 454
N 98 57 0 
N 55 27 0 
N 83 4 0 
N 2 51 0 
N 58 88 0 
O 98 53 0 
O 47 65 0 
O 82 98 0 
O 46 61 0 
O 60 29 0 
O 58 82 0 
11
Atoms. Timestep: 455
N 98 56 0 
N 56 27 0 
N 83 3 0 
N 1 51 0 
N 58 87 0 
O 98 52 0 
O 47 64 0 
O 82 97 0 
O 46 60 0 
O 61 29 0 
O 58 81 0 
11
Atoms. Timestep: 456
N 98 55 0 
N 57 27 0 
N 83 2 0 
N 0 51 0 
N 58 86 0 
O 97 52 0 
O 47 63 0 
O 82 96 0 
O 46 59 0 
O 62 29 0 
O 58 80 0 
11
Atoms. Timestep: 457
N 98 54 0 
N 58 27 0 
N 83 1 0 
N 99 51 0 
N 58 85 0 
O 97 51 0 
O 47 62 0 
O 82 95 0 
O 46 58 0 
O 63 29 0 
O 58 79 0 
11
Atoms. Timestep: 458
N 98 55 0 
N 59 27 0 
N 83 0 0 
N 98 51 0 
N 58 84 0 
O 96 51 0 
O 47 61 0 
O 82 94 0 
O 46 57 0 
O 64 29 0 
O 58 78 0 
11
Atoms. Timestep: 459
N 98 56 0 
N 60 27 0 
N 83 99 0 
N 97 51 0 
N 58 83 0 
O 95 51 0 
O 47 60 0 
O 82 93 0 
O 46 56 0 
O 65 29 0 
O 58 77 0 
11
Atoms. Timestep: 460
N 98 57 0 
N 61 27 0 
N 83 98 0 
N 96 51 0 
N 58 82 0 
O 94 51 0 
O 47 59 0 
O 82 92 0 
O 46 55 0 
O 66 29 0 
O 58 76 0 
11
Atoms. Timestep: 461
N 98 58 0 
N 62 27 0 
N 83 97 0 
N 95 51 0 
N 58 81 0 
O 93 51 0 
O 47 58 0 
O 82 91 0 
O 46 54 0 
O 67 29 0 
O 58 75 0 
11
Atoms. Timestep: 462
N 98 59 0 
N 63 27 0 
N 83 96 0 
N 94 51 0 
N 58 80 0 
O 92 51 0 
O 47 57 0 
O 82 90 0 
O 46 53 0 
O 68 29 0 
O 58 74 0 
11
Atoms. Timestep: 463
N 98 60 0 
N 64 27 0 
N 83 95 0 
N 93 51 0 
N 58 79 0 
O 91 51 0 
O 47 56 0 
O 82 89 0 
O 46 52 0 
O 69 29 0 
O 58 73 0 
11
Atoms. Timestep: 464
N 98 61 0 
N 65 27 0 
N 83 94 0 
N 92 51 0 
N 58 78 0 
O 90 51 0 
O 47 55 0 
O 82 88 0 
O 46 51 0 
O 70 29 0 
O 58 72 0 
11
Atoms. Timestep: 465
N 98 62 0 
N 66 27 0 
N 83 93 0 
N 91 51 0 
N 58 77 0 
O 89 51 0 
O 47 54 0 
O 82 87 0 
O 46 50 0 
O 71 29 0 
O 58 71 0 
11
Atoms. Timestep: 466
N 98 63 0 
N 67 27 0 
N 83 92 0 
N 90 51 0 
N 58 76 0 
O 88 51 0 
O 47 53 0 
O 82 86 0 
O 46 49 0 
O 72 29 0 
O 58 70 0 
11
Atoms. Timestep: 467
N 98 64 0 
N 68 27 0 
N 83 91 0 
N 89 51 0 
N 58 75 0 
O 87 51 0 
O 47 52 0 
O 82 85 0 
O 46 48 0 
O 73 29 0 
O 58 69 0 
11
Atoms. Timestep: 468
N 98 65 0 
N 69 27 0 
N 83 90 0 
N 88 51 0 
N 58 74 0 
O 86 51 0 
O 47 51 0 
O 82 84 0 
O 46 47 0 
O 74 29 0 
O 58 68 0 
11
Atoms. Timestep: 469
N 98 66 0 
N 70 27 0 
N 83 89 0 
N 87 51 0 
N 58 73 0 
O 85 51 0 
O 47 50 0 
O 82 83 0 
O 46 46 0 
O 75 29 0 
O 58 67 0 
11
Atoms. Timestep: 470
N 98 67 0 
N 71 27 0 
N 83 88 0 
N 88 51 0 
N 58 72 0 
O 84 51 0 
O 47 49 0 
O 82 82 0 
O 46 45 0 
O 76 29 0 
O 58 66 0 
11
Atoms. Timestep: 471
N 98 68 0 
N 72 27 0 
N 83 87 0 
N 87 51 0 
N 58 71 0 
O 83 51 0 
O 47 48 0 
O 82 81 0 
O 46 44 0 
O 77 29 0 
O 58 65 0 
11
Atoms. Timestep: 472
N 98 69 0 
N 73 27 0 
N 83 86 0 
N 86 51 0 
N 58 70 0 
O 82 51 0 
O 47 47 0 
O 82 80 0 
O 46 43 0 
O 78 29 0 
O 58 64 0 
11
Atoms. Timestep: 473
N 97 69 0 
N 74 27 0 
N 83 85 0 
N 85 51 0 
N 58 69 0 
O 81 51 0 
O 47 46 0 
O 82 79 0 
O 46 42 0 
O 79 29 0 
O 58 63 0 
11
Atoms. Timestep: 474
N 96 69 0 
N 75 27 0 
N 83 84 0 
N 84 51 0 
N 58 68 0 
O 80 51 0 
O 47 45 0 
O 82 78 0 
O 46 41 0 
O 80 29 0 
O 58 62 0 
11
Atoms. Timestep: 475
N 95 69 0 
N 76 27 0 
N 83 83 0 
N 83 51 0 
N 58 67 0 
O 79 51 0 
O 47 44 0 
O 82 77 0 
O 46 40 0 
O 81 29 0 
O 58 61 0 
11
Atoms. Timestep: 476
N 94 69 0 
N 77 27 0 
N 83 82 0 
N 82 51 0 
N 58 66 0 
O 78 51 0 
O 47 43 0 
O 82 76 0 
O 46 39 0 
O 82 29 0 
O 58 60 0 
11
Atoms. Timestep: 477
N 93 69 0 
N 78 27 0 
N 83 81 0 
N 81 51 0 
N 58 65 0 
O 77 51 0 
O 47 42 0 
O 82 75 0 
O 46 38 0 
O 83 29 0 
O 58 59 0 
11
Atoms. Timestep: 478
N 92 69 0 
N 79 27 0 
N 83 80 0 
N 80 51 0 
N 58 64 0 
O 76 51 0 
O 47 41 0 
O 82 74 0 
O 46 37 0 
O 84 29 0 
O 58 58 0 
11
Atoms. Timestep: 479
N 91 69 0 
N 80 27 0 
N 83 79 0 
N 79 51 0 
N 58 63 0 
O 75 51 0 
O 47 40 0 
O 82 73 0 
O 46 36 0 
O 85 29 0 
O 58 57 0 
11
Atoms. Timestep: 480
N 90 69 0 
N 81 27 0 
N 83 78 0 
N 78 51 0 
N 58 62 0 
O 74 51 0 
O 47 39 0 
O 82 72 0 
O 46 35 0 
O 86 29 0 
O 58 56 0 
11
Atoms. Timestep: 481
N 89 69 0 
N 82 27 0 
N 83 77 0 
N 77 51 0 
N 58 61 0 
O 73 51 0 
O 47 38 0 
O 82 71 0 
O 46 34 0 
O 87 29 0 
O 58 55 0 
11
Atoms. Timestep: 482
N 88 69 0 
N 83 27 0 
N 83 76 0 
N 76 51 0 
N 58 60 0 
O 72 51 0 
O 47 37 0 
O 82 70 0 
O 46 33 0 
O 88 29 0 
O 58 54 0 
11
Atoms. Timestep: 483
N 87 69 0 
N 84 27 0 
N 83 75 0 
N 75 51 0 
N 58 59 0 
O 71 51 0 
O 47 36 0 
O 81 70 0 
O 46 32 0 
O 89 29 0 
O 58 53 0 
11
Atoms. Timestep: 484
N 87 68 0 
N 85 27 0 
N 83 74 0 
N 74 51 0 
N 58 58 0 
O 70 51 0 
O 47 35 0 
O 81 69 0 
O 46 31 0 
O 90 29 0 
O 58 52 0 
11
Atoms. Timestep: 485
N 87 67 0 
N 86 27 0 
N 83 73 0 
N 73 51 0 
N 58 57 0 
O 69 51 0 
O 47 34 0 
O 81 68 0 
O 46 30 0 
O 91 29 0 
O 58 51 0 
11
Atoms. Timestep: 486
N 87 66 0 
N 87 27 0 
N 83 72 0 
N 72 51 0 
N 58 56 0 
O 68 51 0 
O 47 33 0 
O 81 67 0 
O 46 29 0 
O 92 29 0 
O 58 50 0 
11
Atoms. Timestep: 487
N 87 65 0 
N 88 27 0 
N 83 71 0 
N 71 51 0 
N 58 55 0 
O 67 51 0 
O 47 32 0 
O 81 66 0 
O 46 28 0 
O 93 29 0 
O 58 49 0 
11
Atoms. Timestep: 488
N 87 64 0 
N 89 27 0 
N 83 70 0 
N 70 51 0 
N 58 54 0 
O 66 51 0 
O 47 31 0 
O 81 65 0 
O 46 27 0 
O 94 29 0 
O 58 48 0 
11
Atoms. Timestep: 489
N 87 63 0 
N 90 27 0 
N 83 69 0 
N 69 51 0 
N 58 53 0 
O 65 51 0 
O 47 30 0 
O 81 64 0 
O 46 26 0 
O 95 29 0 
O 58 47 0 
11
Atoms. Timestep: 490
N 87 62 0 
N 91 27 0 
N 83 68 0 
N 68 51 0 
N 58 52 0 
O 64 51 0 
O 47 29 0 
O 81 63 0 
O 46 25 0 
O 96 29 0 
O 58 46 0 
11
Atoms. Timestep: 491
N 87 61 0 
N 92 27 0 
N 83 67 0 
N 67 51 0 
N 59 52 0 
O 63 51 0 
O 47 28 0 
O 81 62 0 
O 46 24 0 
O 97 29 0 
O 58 45 0 
11
Atoms. Timestep: 492
N 87 60 0 
N 93 27 0 
N 83 66 0 
N 66 51 0 
N 60 52 0 
O 62 51 0 
O 47 27 0 
O 81 61 0 
O 46 23 0 
O 98 29 0 
O 58 44 0 
11
Atoms. Timestep: 493
N 87 59 0 
N 94 27 0 
N 83 65 0 
N 65 51 0 
N 61 52 0 
O 63 51 0 
O 47 26 0 
O 81 60 0 
O 46 22 0 
O 99 29 0 
O 58 43 0 
11
Atoms. Timestep: 494
N 87 58 0 
N 95 27 0 
N 83 64 0 
N 64 51 0 
N 62 52 0 
O 62 51 0 
O 47 25 0 
O 81 59 0 
O 46 21 0 
O 0 29 0 
O 58 42 0 
10
Atoms. Timestep: 495
N 87 57 0 
N 96 27 0 
N 83 63 0 
N 65 51 0 
N 62 51 0 
O 47 24 0 
O 81 58 0 
O 46 20 0 
O 1 29 0 
O 58 41 0 
10
Atoms. Timestep: 496
N 87 56 0 
N 97 27 0 
N 83 62 0 
N 66 51 0 
N 61 51 0 
O 47 23 0 
O 81 57 0 
O 46 19 0 
O 2 29 0 
O 58 40 0 
10
Atoms. Timestep: 497
N 87 55 0 
N 98 27 0 
N 83 61 0 
N 67 51 0 
N 60 51 0 
O 47 22 0 
O 81 56 0 
O 46 18 0 
O 3 29 0 
O 58 39 0 
10
Atoms. Timestep: 498
N 87 54 0 
N 99 27 0 
N 83 60 0 
N 66 51 0 
N 59 51 0 
O 47 21 0 
O 81 55 0 
O 46 17 0 
O 4 29 0 
O 58 38 0 
10
Atoms. Timestep: 499
N 87 53 0 
N 0 27 0 
N 83 59 0 
N 67 51 0 
N 58 51 0 
O 47 20 0 
O 81 54 0 
O 46 16 0 
O 5 29 0 
O 58 37 0 
10
Atoms. Timestep: 500
N 87 52 0 
N 1 27 0 
N 83 58 0 
N 68 51 0 
N 57 51 0 
O 47 19 0 
O 81 53 0 
O 46 15 0 
O 6 29 0 
O 58 36 0 
10
Atoms. Timestep: 501
N 87 51 0 
N 2 27 0 
N 83 57 0 
N 69 51 0 
N 56 51 0 
O 47 18 0 
O 81 52 0 
O 46 14 0 
O 7 29 0 
O 58 35 0 
10
Atoms. Timestep: 502
N 87 50 0 
N 3 27 0 
N 83 56 0 
N 70 51 0 
N 55 51 0 
O 47 17 0 
O 81 51 0 
O 46 13 0 
O 8 29 0 
O 58 34 0 
10
Atoms. Timestep: 503
N 87 49 0 
N 4 27 0 
N 83 55 0 
N 71 51 0 
N 54 51 0 
O 47 16 0 
O 81 50 0 
O 46 12 0 
O 9 29 0 
O 58 33 0 
10
Atoms. Timestep: 504
N 87 48 0 
N 4 26 0 
N 83 54 0 
N 72 51 0 
N 53 51 0 
O 47 15 0 
O 81 49 0 
O 46 11 0 
O 10 29 0 
O 58 32 0 
10
Atoms. Timestep: 505
N 87 47 0 
N 5 26 0 
N 83 53 0 
N 73 51 0 
N 52 51 0 
O 47 14 0 
O 81 48 0 
O 46 10 0 
O 11 29 0 
O 58 31 0 
10
Atoms. Timestep: 506
N 87 46 0 
N 6 26 0 
N 83 52 0 
N 74 51 0 
N 52 50 0 
O 47 13 0 
O 81 47 0 
O 46 9 0 
O 12 29 0 
O 58 30 0 
10
Atoms. Timestep: 507
N 87 45 0 
N 7 26 0 
N 83 51 0 
N 75 51 0 
N 52 49 0 
O 47 12 0 
O 81 46 0 
O 46 8 0 
O 13 29 0 
O 58 29 0 
10
Atoms. Timestep: 508
N 87 44 0 
N 8 26 0 
N 83 50 0 
N 76 51 0 
N 52 48 0 
O 47 11 0 
O 81 45 0 
O 46 7 0 
O 14 29 0 
O 58 28 0 
10
Atoms. Timestep: 509
N 87 43 0 
N 9 26 0 
N 83 49 0 
N 75 51 0 
N 52 47 0 
O 47 10 0 
O 81 44 0 
O 46 6 0 
O 15 29 0 
O 58 27 0 
10
Atoms. Timestep: 510
N 87 42 0 
N 10 26 0 
N 83 48 0 
N 74 51 0 
N 52 46 0 
O 47 9 0 
O 81 43 0 
O 46 5 0 
O 16 29 0 
O 58 26 0 
10
Atoms. Timestep: 511
N 87 41 0 
N 11 26 0 
N 83 47 0 
N 73 51 0 
N 52 45 0 
O 47 8 0 
O 81 42 0 
O 47 5 0 
O 17 29 0 
O 58 25 0 
10
Atoms. Timestep: 512
N 87 40 0 
N 12 26 0 
N 83 46 0 
N 72 51 0 
N 52 44 0 
O 47 7 0 
O 81 41 0 
O 47 4 0 
O 18 29 0 
O 58 24 0 
10
Atoms. Timestep: 513
N 87 39 0 
N 13 26 0 
N 83 45 0 
N 71 51 0 
N 52 43 0 
O 47 6 0 
O 81 40 0 
O 47 3 0 
O 19 29 0 
O 58 23 0 
10
Atoms. Timestep: 514
N 87 38 0 
N 14 26 0 
N 83 44 0 
N 70 51 0 
N 51 43 0 
O 47 5 0 
O 81 39 0 
O 48 3 0 
O 20 29 0 
O 58 22 0 
10
Atoms. Timestep: 515
N 87 37 0 
N 15 26 0 
N 83 43 0 
N 69 51 0 
N 50 43 0 
O 48 5 0 
O 81 38 0 
O 49 3 0 
O 21 29 0 
O 58 21 0 
10
Atoms. Timestep: 516
N 87 36 0 
N 16 26 0 
N 83 42 0 
N 68 51 0 
N 49 43 0 
O 49 5 0 
O 81 37 0 
O 50 3 0 
O 22 29 0 
O 58 20 0 
10
Atoms. Timestep: 517
N 87 35 0 
N 17 26 0 
N 83 41 0 
N 67 51 0 
N 48 43 0 
O 50 5 0 
O 81 36 0 
O 51 3 0 
O 23 29 0 
O 58 19 0 
10
Atoms. Timestep: 518
N 87 34 0 
N 18 26 0 
N 83 40 0 
N 66 51 0 
N 47 43 0 
O 51 5 0 
O 81 35 0 
O 52 3 0 
O 24 29 0 
O 58 18 0 
10
Atoms. Timestep: 519
N 87 33 0 
N 19 26 0 
N 83 39 0 
N 65 51 0 
N 46 43 0 
O 52 5 0 
O 81 34 0 
O 53 3 0 
O 25 29 0 
O 58 17 0 
10
Atoms. Timestep: 520
N 87 32 0 
N 20 26 0 
N 83 38 0 
N 64 51 0 
N 45 43 0 
O 53 5 0 
O 81 33 0 
O 54 3 0 
O 26 29 0 
O 58 16 0 
10
Atoms. Timestep: 521
N 87 31 0 
N 21 26 0 
N 83 37 0 
N 65 51 0 
N 44 43 0 
O 54 5 0 
O 81 32 0 
O 55 3 0 
O 27 29 0 
O 58 15 0 
10
Atoms. Timestep: 522
N 87 30 0 
N 22 26 0 
N 83 36 0 
N 64 51 0 
N 43 43 0 
O 55 5 0 
O 81 31 0 
O 56 3 0 
O 28 29 0 
O 58 14 0 
10
Atoms. Timestep: 523
N 87 29 0 
N 23 26 0 
N 83 35 0 
N 65 51 0 
N 42 43 0 
O 56 5 0 
O 81 30 0 
O 55 3 0 
O 29 29 0 
O 57 14 0 
10
Atoms. Timestep: 524
N 87 28 0 
N 24 26 0 
N 83 34 0 
N 64 51 0 
N 42 42 0 
O 55 5 0 
O 81 29 0 
O 56 3 0 
O 30 29 0 
O 57 13 0 
10
Atoms. Timestep: 525
N 87 27 0 
N 25 26 0 
N 83 33 0 
N 65 51 0 
N 42 41 0 
O 56 5 0 
O 81 28 0 
O 57 3 0 
O 31 29 0 
O 57 12 0 
10
Atoms. Timestep: 526
N 87 26 0 
N 26 26 0 
N 83 32 0 
N 64 51 0 
N 42 40 0 
O 57 5 0 
O 81 27 0 
O 56 3 0 
O 32 29 0 
O 57 11 0 
10
Atoms. Timestep: 527
N 87 25 0 
N 27 26 0 
N 83 31 0 
N 65 51 0 
N 42 39 0 
O 56 5 0 
O 81 26 0 
O 57 3 0 
O 33 29 0 
O 57 10 0 
10
Atoms. Timestep: 528
N 87 24 0 
N 28 26 0 
N 83 30 0 
N 65 52 0 
N 42 38 0 
O 57 5 0 
O 81 25 0 
O 56 3 0 
O 34 29 0 
O 57 9 0 
10
Atoms. Timestep: 529
N 87 23 0 
N 29 26 0 
N 83 29 0 
N 66 52 0 
N 42 37 0 
O 56 5 0 
O 81 24 0 
O 57 3 0 
O 35 29 0 
O 57 8 0 
10
Atoms. Timestep: 530
N 87 22 0 
N 30 26 0 
N 83 28 0 
N 66 53 0 
N 42 36 0 
O 57 5 0 
O 81 23 0 
O 56 3 0 
O 36 29 0 
O 57 7 0 
10
Atoms. Timestep: 531
N 87 21 0 
N 31 26 0 
N 83 27 0 
N 66 54 0 
N 42 35 0 
O 58 5 0 
O 81 22 0 
O 57 3 0 
O 37 29 0 
O 57 6 0 
10
Atoms. Timestep: 532
N 87 20 0 
N 32 26 0 
N 83 26 0 
N 66 55 0 
N 42 34 0 
O 58 5 0 
O 81 21 0 
O 58 3 0 
O 38 29 0 
O 57 5 0 
10
Atoms. Timestep: 533
N 87 19 0 
N 33 26 0 
N 83 25 0 
N 67 55 0 
N 42 33 0 
O 58 5 0 
O 81 20 0 
O 57 3 0 
O 39 29 0 
O 57 5 0 
10
Atoms. Timestep: 534
N 87 18 0 
N 34 26 0 
N 83 24 0 
N 68 55 0 
N 42 32 0 
O 57 5 0 
O 81 19 0 
O 58 3 0 
O 38 29 0 
O 57 4 0 
10
Atoms. Timestep: 535
N 87 17 0 
N 35 26 0 
N 83 23 0 
N 68 56 0 
N 41 32 0 
O 58 5 0 
O 81 18 0 
O 58 3 0 
O 38 30 0 
O 57 3 0 
10
Atoms. Timestep: 536
N 87 16 0 
N 35 27 0 
N 83 22 0 
N 68 57 0 
N 40 32 0 
O 57 5 0 
O 81 17 0 
O 57 3 0 
O 38 29 0 
O 56 3 0 
10
Atoms. Timestep: 537
N 87 15 0 
N 36 27 0 
N 83 21 0 
N 68 58 0 
N 40 31 0 
O 57 4 0 
O 81 16 0 
O 57 2 0 
O 39 29 0 
O 56 2 0 
10
Atoms. Timestep: 538
N 87 14 0 
N 37 27 0 
N 83 20 0 
N 68 59 0 
N 40 30 0 
O 57 3 0 
O 81 15 0 
O 56 2 0 
O 39 28 0 
O 56 1 0 
10
Atoms. Timestep: 539
N 87 13 0 
N 38 27 0 
N 83 19 0 
N 68 60 0 
N 40 29 0 
O 57 2 0 
O 81 14 0 
O 56 1 0 
O 40 28 0 
O 56 0 0 
9
Atoms. Timestep: 540
N 87 12 0 
N 37 27 0 
N 83 18 0 
N 68 61 0 
N 40 28 0 
O 56 2 0 
O 81 13 0 
O 55 1 0 
O 55 0 0 
9
Atoms. Timestep: 541
N 87 11 0 
N 36 27 0 
N 83 17 0 
N 68 62 0 
N 41 28 0 
O 55 2 0 
O 81 12 0 
O 55 0 0 
O 55 99 0 
9
Atoms. Timestep: 542
N 87 10 0 
N 35 27 0 
N 83 16 0 
N 68 63 0 
N 42 28 0 
O 55 1 0 
O 81 11 0 
O 55 99 0 
O 55 98 0 
9
Atoms. Timestep: 543
N 87 9 0 
N 34 27 0 
N 83 15 0 
N 68 64 0 
N 43 28 0 
O 55 0 0 
O 81 10 0 
O 55 98 0 
O 54 98 0 
9
Atoms. Timestep: 544
N 87 8 0 
N 33 27 0 
N 83 14 0 
N 68 65 0 
N 44 28 0 
O 55 99 0 
O 81 9 0 
O 55 97 0 
O 54 97 0 
9
Atoms. Timestep: 545
N 87 7 0 
N 32 27 0 
N 83 13 0 
N 68 66 0 
N 45 28 0 
O 55 98 0 
O 81 8 0 
O 54 97 0 
O 54 96 0 
9
Atoms. Timestep: 546
N 87 6 0 
N 31 27 0 
N 83 12 0 
N 68 67 0 
N 46 28 0 
O 54 98 0 
O 81 7 0 
O 53 97 0 
O 54 96 0 
9
Atoms. Timestep: 547
N 87 5 0 
N 30 27 0 
N 83 11 0 
N 68 68 0 
N 47 28 0 
O 54 98 0 
O 81 6 0 
O 53 96 0 
O 54 97 0 
9
Atoms. Timestep: 548
N 87 4 0 
N 29 27 0 
N 83 10 0 
N 68 69 0 
N 48 28 0 
O 54 97 0 
O 81 5 0 
O 53 96 0 
O 53 97 0 
9
Atoms. Timestep: 549
N 87 3 0 
N 28 27 0 
N 83 9 0 
N 68 70 0 
N 49 28 0 
O 54 98 0 
O 81 4 0 
O 53 97 0 
O 53 98 0 
9
Atoms. Timestep: 550
N 87 2 0 
N 27 27 0 
N 83 8 0 
N 68 71 0 
N 50 28 0 
O 54 98 0 
O 81 3 0 
O 53 98 0 
O 53 99 0 
9
Atoms. Timestep: 551
N 87 1 0 
N 26 27 0 
N 83 7 0 
N 68 72 0 
N 51 28 0 
O 54 99 0 
O 81 2 0 
O 53 98 0 
O 53 99 0 
9
Atoms. Timestep: 552
N 87 0 0 
N 25 27 0 
N 83 6 0 
N 68 73 0 
N 52 28 0 
O 54 99 0 
O 81 1 0 
O 53 98 0 
O 53 99 0 
9
Atoms. Timestep: 553
N 87 99 0 
N 24 27 0 
N 83 5 0 
N 68 74 0 
N 53 28 0 
O 54 0 0 
O 81 0 0 
O 53 99 0 
O 53 0 0 
9
Atoms. Timestep: 554
N 87 98 0 
N 23 27 0 
N 83 4 0 
N 68 75 0 
N 53 27 0 
O 54 99 0 
O 81 99 0 
O 53 99 0 
O 53 0 0 
9
Atoms. Timestep: 555
N 87 97 0 
N 22 27 0 
N 83 3 0 
N 68 76 0 
N 53 26 0 
O 54 0 0 
O 81 98 0 
O 53 99 0 
O 53 0 0 
9
Atoms. Timestep: 556
N 87 96 0 
N 21 27 0 
N 83 2 0 
N 68 77 0 
N 53 25 0 
O 54 99 0 
O 81 97 0 
O 53 99 0 
O 53 0 0 
9
Atoms. Timestep: 557
N 87 95 0 
N 20 27 0 
N 83 1 0 
N 68 78 0 
N 53 24 0 
O 54 0 0 
O 81 96 0 
O 53 99 0 
O 53 0 0 
9
Atoms. Timestep: 558
N 87 94 0 
N 19 27 0 
N 83 0 0 
N 68 79 0 
N 53 23 0 
O 54 99 0 
O 81 95 0 
O 53 98 0 
O 53 0 0 
9
Atoms. Timestep: 559
N 87 93 0 
N 18 27 0 
N 83 99 0 
N 68 80 0 
N 53 22 0 
O 54 0 0 
O 81 94 0 
O 53 98 0 
O 53 99 0 
9
Atoms. Timestep: 560
N 87 92 0 
N 17 27 0 
N 83 98 0 
N 68 81 0 
N 53 21 0 
O 54 99 0 
O 81 93 0 
O 53 98 0 
O 53 99 0 
9
Atoms. Timestep: 561
N 87 91 0 
N 16 27 0 
N 83 97 0 
N 69 81 0 
N 53 20 0 
O 54 98 0 
O 81 92 0 
O 53 97 0 
O 53 99 0 
9
Atoms. Timestep: 562
N 87 90 0 
N 15 27 0 
N 83 96 0 
N 70 81 0 
N 53 19 0 
O 54 97 0 
O 81 91 0 
O 53 96 0 
O 53 98 0 
9
Atoms. Timestep: 563
N 87 89 0 
N 14 27 0 
N 83 95 0 
N 71 81 0 
N 53 18 0 
O 54 96 0 
O 81 90 0 
O 53 95 0 
O 53 97 0 
9
Atoms. Timestep: 564
N 87 88 0 
N 13 27 0 
N 83 94 0 
N 72 81 0 
N 53 17 0 
O 54 95 0 
O 81 89 0 
O 53 94 0 
O 53 96 0 
9
Atoms. Timestep: 565
N 87 87 0 
N 12 27 0 
N 83 93 0 
N 73 81 0 
N 53 16 0 
O 54 94 0 
O 81 88 0 
O 53 93 0 
O 53 95 0 
9
Atoms. Timestep: 566
N 87 86 0 
N 11 27 0 
N 83 92 0 
N 74 81 0 
N 53 15 0 
O 54 93 0 
O 81 87 0 
O 53 92 0 
O 53 94 0 
9
Atoms. Timestep: 567
N 87 85 0 
N 10 27 0 
N 83 91 0 
N 75 81 0 
N 53 14 0 
O 54 92 0 
O 81 86 0 
O 53 91 0 
O 53 93 0 
9
Atoms. Timestep: 568
N 87 84 0 
N 10 28 0 
N 83 90 0 
N 76 81 0 
N 53 13 0 
O 54 91 0 
O 81 85 0 
O 53 90 0 
O 53 92 0 
9
Atoms. Timestep: 569
N 87 83 0 
N 9 28 0 
N 83 89 0 
N 77 81 0 
N 53 12 0 
O 54 90 0 
O 81 84 0 
O 53 89 0 
O 53 91 0 
9
Atoms. Timestep: 570
N 87 82 0 
N 9 29 0 
N 83 88 0 
N 78 81 0 
N 53 11 0 
O 54 89 0 
O 81 83 0 
O 53 88 0 
O 53 90 0 
9
Atoms. Timestep: 571
N 87 81 0 
N 8 29 0 
N 83 87 0 
N 79 81 0 
N 53 10 0 
O 54 88 0 
O 81 84 0 
O 53 87 0 
O 53 89 0 
9
Atoms. Timestep: 572
N 87 80 0 
N 8 30 0 
N 83 86 0 
N 79 82 0 
N 53 9 0 
O 54 87 0 
O 80 84 0 
O 53 86 0 
O 53 88 0 
9
Atoms. Timestep: 573
N 87 79 0 
N 7 30 0 
N 82 86 0 
N 79 83 0 
N 53 8 0 
O 54 86 0 
O 80 85 0 
O 53 85 0 
O 53 87 0 
9
Atoms. Timestep: 574
N 87 78 0 
N 7 31 0 
N 81 86 0 
N 79 84 0 
N 53 7 0 
O 54 85 0 
O 79 85 0 
O 53 84 0 
O 53 86 0 
8
Atoms. Timestep: 575
N 87 79 0 
N 7 30 0 
N 82 86 0 
N 79 85 0 
N 53 6 0 
O 54 84 0 
O 53 83 0 
O 53 85 0 
8
Atoms. Timestep: 576
N 87 78 0 
N 7 31 0 
N 83 86 0 
N 78 85 0 
N 53 5 0 
O 54 83 0 
O 53 82 0 
O 53 84 0 
8
Atoms. Timestep: 577
N 87 77 0 
N 7 32 0 
N 84 86 0 
N 77 85 0 
N 53 4 0 
O 54 82 0 
O 53 81 0 
O 53 83 0 
8
Atoms. Timestep: 578
N 87 76 0 
N 7 31 0 
N 85 86 0 
N 76 85 0 
N 53 3 0 
O 54 81 0 
O 53 80 0 
O 53 82 0 
8
Atoms. Timestep: 579
N 87 75 0 
N 7 30 0 
N 85 87 0 
N 75 85 0 
N 53 2 0 
O 54 81 0 
O 52 80 0 
O 53 81 0 
8
Atoms. Timestep: 580
N 87 74 0 
N 7 31 0 
N 86 87 0 
N 74 85 0 
N 53 1 0 
O 53 81 0 
O 52 79 0 
O 53 80 0 
8
Atoms. Timestep: 581
N 87 73 0 
N 7 30 0 
N 86 88 0 
N 73 85 0 
N 53 0 0 
O 53 80 0 
O 51 79 0 
O 52 80 0 
8
Atoms. Timestep: 582
N 87 72 0 
N 7 31 0 
N 87 88 0 
N 72 85 0 
N 53 99 0 
O 52 80 0 
O 51 78 0 
O 52 79 0 
8
Atoms. Timestep: 583
N 87 71 0 
N 7 30 0 
N 87 89 0 
N 71 85 0 
N 53 98 0 
O 52 79 0 
O 51 77 0 
O 51 79 0 
8
Atoms. Timestep: 584
N 87 70 0 
N 7 29 0 
N 88 89 0 
N 70 85 0 
N 53 97 0 
O 51 79 0 
O 50 77 0 
O 51 78 0 
8
Atoms. Timestep: 585
N 87 69 0 
N 7 30 0 
N 88 90 0 
N 69 85 0 
N 53 96 0 
O 51 78 0 
O 50 76 0 
O 51 77 0 
8
Atoms. Timestep: 586
N 87 68 0 
N 7 29 0 
N 89 90 0 
N 70 85 0 
N 53 95 0 
O 51 77 0 
O 50 75 0 
O 51 76 0 
8
Atoms. Timestep: 587
N 87 67 0 
N 7 30 0 
N 90 90 0 
N 69 85 0 
N 53 94 0 
O 51 76 0 
O 50 74 0 
O 51 75 0 
8
Atoms. Timestep: 588
N 87 66 0 
N 7 29 0 
N 91 90 0 
N 70 85 0 
N 52 94 0 
O 51 75 0 
O 50 73 0 
O 51 74 0 
8
Atoms. Timestep: 589
N 87 65 0 
N 7 30 0 
N 92 90 0 
N 71 85 0 
N 52 93 0 
O 51 74 0 
O 50 72 0 
O 51 73 0 
8
Atoms. Timestep: 590
N 87 64 0 
N 7 29 0 
N 93 90 0 
N 72 85 0 
N 52 92 0 
O 51 73 0 
O 50 71 0 
O 51 72 0 
8
Atoms. Timestep: 591
N 87 63 0 
N 7 28 0 
N 94 90 0 
N 73 85 0 
N 52 91 0 
O 51 72 0 
O 50 70 0 
O 51 71 0 
8
Atoms. Timestep: 592
N 87 62 0 
N 7 29 0 
N 95 90 0 
N 72 85 0 
N 52 90 0 
O 51 71 0 
O 50 69 0 
O 51 70 0 
8
Atoms. Timestep: 593
N 87 61 0 
N 7 28 0 
N 96 90 0 
N 73 85 0 
N 52 89 0 
O 51 70 0 
O 50 68 0 
O 51 69 0 
8
Atoms. Timestep: 594
N 87 60 0 
N 7 27 0 
N 97 90 0 
N 74 85 0 
N 52 88 0 
O 51 69 0 
O 50 67 0 
O 51 68 0 
8
Atoms. Timestep: 595
N 87 59 0 
N 7 26 0 
N 98 90 0 
N 75 85 0 
N 52 87 0 
O 51 68 0 
O 50 66 0 
O 51 67 0 
8
Atoms. Timestep: 596
N 87 58 0 
N 7 27 0 
N 99 90 0 
N 74 85 0 
N 52 86 0 
O 51 67 0 
O 50 65 0 
O 51 66 0 
8
Atoms. Timestep: 597
N 87 57 0 
N 7 28 0 
N 0 90 0 
N 75 85 0 
N 52 85 0 
O 51 66 0 
O 50 64 0 
O 51 65 0 
8
Atoms. Timestep: 598
N 87 56 0 
N 7 27 0 
N 1 90 0 
N 76 85 0 
N 52 84 0 
O 51 65 0 
O 50 63 0 
O 51 64 0 
8
Atoms. Timestep: 599
N 87 55 0 
N 7 26 0 
N 2 90 0 
N 77 85 0 
N 52 83 0 
O 51 64 0 
O 50 62 0 
O 51 63 0 
8
Atoms. Timestep: 600
N 87 54 0 
N 7 25 0 
N 2 89 0 
N 76 85 0 
N 52 82 0 
O 51 63 0 
O 50 61 0 
O 51 62 0 
8
Atoms. Timestep: 601
N 87 53 0 
N 7 24 0 
N 3 89 0 
N 77 85 0 
N 52 81 0 
O 51 62 0 
O 50 60 0 
O 51 61 0 
8
Atoms. Timestep: 602
N 87 52 0 
N 7 23 0 
N 4 89 0 
N 78 85 0 
N 52 80 0 
O 51 61 0 
O 50 59 0 
O 51 60 0 
8
Atoms. Timestep: 603
N 87 53 0 
N 7 24 0 
N 5 89 0 
N 77 85 0 
N 52 79 0 
O 51 60 0 
O 50 58 0 
O 51 59 0 
8
Atoms. Timestep: 604
N 87 52 0 
N 7 23 0 
N 6 89 0 
N 78 85 0 
N 52 78 0 
O 51 59 0 
O 50 57 0 
O 51 58 0 
8
Atoms. Timestep: 605
N 87 51 0 
N 7 24 0 
N 7 89 0 
N 79 85 0 
N 52 77 0 
O 51 58 0 
O 50 56 0 
O 51 57 0 
8
Atoms. Timestep: 606
N 87 52 0 
N 7 23 0 
N 8 89 0 
N 78 85 0 
N 52 76 0 
O 51 57 0 
O 50 55 0 
O 51 56 0 
8
Atoms. Timestep: 607
N 87 51 0 
N 7 24 0 
N 9 89 0 
N 79 85 0 
N 52 75 0 
O 51 56 0 
O 50 54 0 
O 51 55 0 
8
Atoms. Timestep: 608
N 87 52 0 
N 7 23 0 
N 10 89 0 
N 80 85 0 
N 52 74 0 
O 51 55 0 
O 50 53 0 
O 51 54 0 
8
Atoms. Timestep: 609
N 87 51 0 
N 7 24 0 
N 11 89 0 
N 79 85 0 
N 52 73 0 
O 51 54 0 
O 50 52 0 
O 51 53 0 
8
Atoms. Timestep: 610
N 87 52 0 
N 7 23 0 
N 12 89 0 
N 80 85 0 
N 52 72 0 
O 51 53 0 
O 50 51 0 
O 51 52 0 
8
Atoms. Timestep: 611
N 87 51 0 
N 7 24 0 
N 13 89 0 
N 81 85 0 
N 52 71 0 
O 51 52 0 
O 50 50 0 
O 51 51 0 
8
Atoms. Timestep: 612
N 87 52 0 
N 7 23 0 
N 14 89 0 
N 80 85 0 
N 52 70 0 
O 51 51 0 
O 50 49 0 
O 51 50 0 
8
Atoms. Timestep: 613
N 87 51 0 
N 7 24 0 
N 15 89 0 
N 81 85 0 
N 52 69 0 
O 51 50 0 
O 50 48 0 
O 51 49 0 
8
Atoms. Timestep: 614
N 87 52 0 
N 7 23 0 
N 16 89 0 
N 82 85 0 
N 52 68 0 
O 51 49 0 
O 50 47 0 
O 51 48 0 
8
Atoms. Timestep: 615
N 87 51 0 
N 7 22 0 
N 17 89 0 
N 82 86 0 
N 53 68 0 
O 51 48 0 
O 50 46 0 
O 51 47 0 
8
Atoms. Timestep: 616
N 87 50 0 
N 7 21 0 
N 17 88 0 
N 83 86 0 
N 53 67 0 
O 51 47 0 
O 50 45 0 
O 51 46 0 
8
Atoms. Timestep: 617
N 87 51 0 
N 6 21 0 
N 17 87 0 
N 82 86 0 
N 53 66 0 
O 51 46 0 
O 50 44 0 
O 51 45 0 
8
Atoms. Timestep: 618
N 87 50 0 
N 6 20 0 
N 17 86 0 
N 82 85 0 
N 53 65 0 
O 51 45 0 
O 50 43 0 
O 51 44 0 
8
Atoms. Timestep: 619
N 87 51 0 
N 6 19 0 
N 17 85 0 
N 82 86 0 
N 53 64 0 
O 51 44 0 
O 50 42 0 
O 51 43 0 
8
Atoms. Timestep: 620
N 87 52 0 
N 6 20 0 
N 17 84 0 
N 82 87 0 
N 53 63 0 
O 51 43 0 
O 50 41 0 
O 51 42 0 
8
Atoms. Timestep: 621
N 88 52 0 
N 6 19 0 
N 18 84 0 
N 82 88 0 
N 53 62 0 
O 51 42 0 
O 50 40 0 
O 51 41 0 
8
Atoms. Timestep: 622
N 89 52 0 
N 6 18 0 
N 19 84 0 
N 82 89 0 
N 53 61 0 
O 51 41 0 
O 50 39 0 
O 51 40 0 
8
Atoms. Timestep: 623
N 90 52 0 
N 6 19 0 
N 19 83 0 
N 82 90 0 
N 53 60 0 
O 51 40 0 
O 50 38 0 
O 51 39 0 
8
Atoms. Timestep: 624
N 90 53 0 
N 6 18 0 
N 20 83 0 
N 82 89 0 
N 53 59 0 
O 51 39 0 
O 50 37 0 
O 51 38 0 
8
Atoms. Timestep: 625
N 90 54 0 
N 6 19 0 
N 20 82 0 
N 82 90 0 
N 53 58 0 
O 51 38 0 
O 50 36 0 
O 51 37 0 
8
Atoms. Timestep: 626
N 90 55 0 
N 6 20 0 
N 20 81 0 
N 82 91 0 
N 53 57 0 
O 51 37 0 
O 50 35 0 
O 51 36 0 
8
Atoms. Timestep: 627
N 90 56 0 
N 6 21 0 
N 21 81 0 
N 82 92 0 
N 53 56 0 
O 51 36 0 
O 50 34 0 
O 51 35 0 
8
Atoms. Timestep: 628
N 90 57 0 
N 6 22 0 
N 22 81 0 
N 82 93 0 
N 53 55 0 
O 51 35 0 
O 50 33 0 
O 51 34 0 
8
Atoms. Timestep: 629
N 90 58 0 
N 6 23 0 
N 23 81 0 
N 82 94 0 
N 53 54 0 
O 51 34 0 
O 50 32 0 
O 51 33 0 
8
Atoms. Timestep: 630
N 90 59 0 
N 6 24 0 
N 24 81 0 
N 82 95 0 
N 53 53 0 
O 51 33 0 
O 50 31 0 
O 51 32 0 
8
Atoms. Timestep: 631
N 90 60 0 
N 6 25 0 
N 25 81 0 
N 82 96 0 
N 53 52 0 
O 51 32 0 
O 50 30 0 
O 51 31 0 
8
Atoms. Timestep: 632
N 90 61 0 
N 6 26 0 
N 26 81 0 
N 82 97 0 
N 53 51 0 
O 51 31 0 
O 50 29 0 
O 51 30 0 
8
Atoms. Timestep: 633
N 90 62 0 
N 6 27 0 
N 27 81 0 
N 82 98 0 
N 53 50 0 
O 51 30 0 
O 50 28 0 
O 51 29 0 
8
Atoms. Timestep: 634
N 90 63 0 
N 6 28 0 
N 28 81 0 
N 82 99 0 
N 53 49 0 
O 51 29 0 
O 50 27 0 
O 51 28 0 
8
Atoms. Timestep: 635
N 90 64 0 
N 6 29 0 
N 28 82 0 
N 82 0 0 
N 53 48 0 
O 51 28 0 
O 50 26 0 
O 51 27 0 
8
Atoms. Timestep: 636
N 90 65 0 
N 6 30 0 
N 29 82 0 
N 82 1 0 
N 53 47 0 
O 51 27 0 
O 50 25 0 
O 51 26 0 
8
Atoms. Timestep: 637
N 90 64 0 
N 6 29 0 
N 30 82 0 
N 81 1 0 
N 53 46 0 
O 51 26 0 
O 50 24 0 
O 51 25 0 
8
Atoms. Timestep: 638
N 90 63 0 
N 6 28 0 
N 31 82 0 
N 81 0 0 
N 53 45 0 
O 51 25 0 
O 50 23 0 
O 51 24 0 
8
Atoms. Timestep: 639
N 90 62 0 
N 6 27 0 
N 31 83 0 
N 81 99 0 
N 53 44 0 
O 51 24 0 
O 50 22 0 
O 51 23 0 
8
Atoms. Timestep: 640
N 90 61 0 
N 6 26 0 
N 31 84 0 
N 81 98 0 
N 53 43 0 
O 51 23 0 
O 50 21 0 
O 51 22 0 
8
Atoms. Timestep: 641
N 90 60 0 
N 6 25 0 
N 31 85 0 
N 81 97 0 
N 53 42 0 
O 51 22 0 
O 50 20 0 
O 51 21 0 
8
Atoms. Timestep: 642
N 90 59 0 
N 6 24 0 
N 31 86 0 
N 81 96 0 
N 53 41 0 
O 51 21 0 
O 50 19 0 
O 51 20 0 
8
Atoms. Timestep: 643
N 90 58 0 
N 6 23 0 
N 31 87 0 
N 81 95 0 
N 53 40 0 
O 51 20 0 
O 50 18 0 
O 51 19 0 
8
Atoms. Timestep: 644
N 90 57 0 
N 6 22 0 
N 31 88 0 
N 81 94 0 
N 53 39 0 
O 51 19 0 
O 50 17 0 
O 51 18 0 
8
Atoms. Timestep: 645
N 90 58 0 
N 6 23 0 
N 31 89 0 
N 82 94 0 
N 53 38 0 
O 51 18 0 
O 50 16 0 
O 51 17 0 
8
Atoms. Timestep: 646
N 90 59 0 
N 6 24 0 
N 31 90 0 
N 82 95 0 
N 53 37 0 
O 51 17 0 
O 50 15 0 
O 51 16 0 
8
Atoms. Timestep: 647
N 90 60 0 
N 6 25 0 
N 31 91 0 
N 82 96 0 
N 53 36 0 
O 51 16 0 
O 50 14 0 
O 51 15 0 
8
Atoms. Timestep: 648
N 90 61 0 
N 6 26 0 
N 31 92 0 
N 82 97 0 
N 53 35 0 
O 51 15 0 
O 50 13 0 
O 51 14 0 
8
Atoms. Timestep: 649
N 89 61 0 
N 6 25 0 
N 31 93 0 
N 81 97 0 
N 53 34 0 
O 51 14 0 
O 50 12 0 
O 51 13 0 
8
Atoms. Timestep: 650
N 89 60 0 
N 6 26 0 
N 32 93 0 
N 80 97 0 
N 53 33 0 
O 51 13 0 
O 50 11 0 
O 51 12 0 
8
Atoms. Timestep: 651
N 89 61 0 
N 6 25 0 
N 33 93 0 
N 79 97 0 
N 53 32 0 
O 51 12 0 
O 50 10 0 
O 51 11 0 
8
Atoms. Timestep: 652
N 89 60 0 
N 6 24 0 
N 33 94 0 
N 78 97 0 
N 53 31 0 
O 51 11 0 
O 50 9 0 
O 51 10 0 
8
Atoms. Timestep: 653
N 89 59 0 
N 6 23 0 
N 34 94 0 
N 77 97 0 
N 53 30 0 
O 51 10 0 
O 50 9 0 
O 51 9 0 
8
Atoms. Timestep: 654
N 89 60 0 
N 6 22 0 
N 35 94 0 
N 76 97 0 
N 53 29 0 
O 51 9 0 
O 50 8 0 
O 51 8 0 
8
Atoms. Timestep: 655
N 89 59 0 
N 7 22 0 
N 36 94 0 
N 75 97 0 
N 53 28 0 
O 51 8 0 
O 50 9 0 
O 52 8 0 
8
Atoms. Timestep: 656
N 89 58 0 
N 7 21 0 
N 37 94 0 
N 74 97 0 
N 53 27 0 
O 52 8 0 
O 50 8 0 
O 52 7 0 
8
Atoms. Timestep: 657
N 89 59 0 
N 6 21 0 
N 37 95 0 
N 73 97 0 
N 53 26 0 
O 52 7 0 
O 50 9 0 
O 53 7 0 
8
Atoms. Timestep: 658
N 89 58 0 
N 6 20 0 
N 38 95 0 
N 72 97 0 
N 53 25 0 
O 53 7 0 
O 50 8 0 
O 53 6 0 
8
Atoms. Timestep: 659
N 89 59 0 
N 5 20 0 
N 38 96 0 
N 71 97 0 
N 53 24 0 
O 53 6 0 
O 50 9 0 
O 54 6 0 
8
Atoms. Timestep: 660
N 89 60 0 
N 4 20 0 
N 38 97 0 
N 70 97 0 
N 53 23 0 
O 54 6 0 
O 50 8 0 
O 54 5 0 
8
Atoms. Timestep: 661
N 89 61 0 
N 3 20 0 
N 39 97 0 
N 69 97 0 
N 53 22 0 
O 54 5 0 
O 50 7 0 
O 55 5 0 
8
Atoms. Timestep: 662
N 89 60 0 
N 4 20 0 
N 40 97 0 
N 68 97 0 
N 53 21 0 
O 54 5 0 
O 51 7 0 
O 55 5 0 
8
Atoms. Timestep: 663
N 89 61 0 
N 4 19 0 
N 41 97 0 
N 67 97 0 
N 53 20 0 
O 54 5 0 
O 51 6 0 
O 55 5 0 
8
Atoms. Timestep: 664
N 89 60 0 
N 3 19 0 
N 42 97 0 
N 66 97 0 
N 53 19 0 
O 54 5 0 
O 51 7 0 
O 55 5 0 
8
Atoms. Timestep: 665
N 89 61 0 
N 4 19 0 
N 42 98 0 
N 67 97 0 
N 53 18 0 
O 55 5 0 
O 51 6 0 
O 55 4 0 
8
Atoms. Timestep: 666
N 89 60 0 
N 5 19 0 
N 43 98 0 
N 66 97 0 
N 53 17 0 
O 55 4 0 
O 52 6 0 
O 56 4 0 
8
Atoms. Timestep: 667
N 89 61 0 
N 5 18 0 
N 44 98 0 
N 65 97 0 
N 53 16 0 
O 55 4 0 
O 52 5 0 
O 56 4 0 
8
Atoms. Timestep: 668
N 89 60 0 
N 4 18 0 
N 45 98 0 
N 64 97 0 
N 53 15 0 
O 55 4 0 
O 53 5 0 
O 56 4 0 
8
Atoms. Timestep: 669
N 89 61 0 
N 4 17 0 
N 46 98 0 
N 63 97 0 
N 53 14 0 
O 56 4 0 
O 54 5 0 
O 56 5 0 
8
Atoms. Timestep: 670
N 89 60 0 
N 5 17 0 
N 47 98 0 
N 63 98 0 
N 53 13 0 
O 55 4 0 
O 54 4 0 
O 56 5 0 
8
Atoms. Timestep: 671
N 89 61 0 
N 5 16 0 
N 48 98 0 
N 63 99 0 
N 53 12 0 
O 55 3 0 
O 54 5 0 
O 56 4 0 
8
Atoms. Timestep: 672
N 89 60 0 
N 6 16 0 
N 49 98 0 
N 62 99 0 
N 53 11 0 
O 56 3 0 
O 54 4 0 
O 55 4 0 
8
Atoms. Timestep: 673
N 89 61 0 
N 5 16 0 
N 49 99 0 
N 61 99 0 
N 53 10 0 
O 56 3 0 
O 54 3 0 
O 55 3 0 
8
Atoms. Timestep: 674
N 89 60 0 
N 5 15 0 
N 50 99 0 
N 60 99 0 
N 53 9 0 
O 56 3 0 
O 54 4 0 
O 55 3 0 
8
Atoms. Timestep: 675
N 89 61 0 
N 5 14 0 
N 50 0 0 
N 59 99 0 
N 53 8 0 
O 56 4 0 
O 54 3 0 
O 55 3 0 
8
Atoms. Timestep: 676
N 89 62 0 
N 4 14 0 
N 51 0 0 
N 59 0 0 
N 53 7 0 
O 57 4 0 
O 55 3 0 
O 55 2 0 
8
Atoms. Timestep: 677
N 89 61 0 
N 5 14 0 
N 52 0 0 
N 59 1 0 
N 53 6 0 
O 57 5 0 
O 55 2 0 
O 56 2 0 
8
Atoms. Timestep: 678
N 89 62 0 
N 6 14 0 
N 53 0 0 
N 58 1 0 
N 54 6 0 
O 58 5 0 
O 55 2 0 
O 56 2 0 
8
Atoms. Timestep: 679
N 89 63 0 
N 5 14 0 
N 53 1 0 
N 57 1 0 
N 55 6 0 
O 59 5 0 
O 55 2 0 
O 56 2 0 
8
Atoms. Timestep: 680
N 89 62 0 
N 4 14 0 
N 54 1 0 
N 56 1 0 
N 56 6 0 
O 60 5 0 
O 56 2 0 
O 56 3 0 
7
Atoms. Timestep: 681
N 89 63 0 
N 3 14 0 
N 53 1 0 
N 56 2 0 
N 56 5 0 
O 61 5 0 
O 56 4 0 
6
Atoms. Timestep: 682
N 89 64 0 
N 2 14 0 
N 52 1 0 
N 56 1 0 
N 56 4 0 
O 62 5 0 
6
Atoms. Timestep: 683
N 89 63 0 
N 1 14 0 
N 51 1 0 
N 57 1 0 
N 56 5 0 
O 63 5 0 
6
Atoms. Timestep: 684
N 89 62 0 
N 0 14 0 
N 50 1 0 
N 57 0 0 
N 56 6 0 
O 64 5 0 
6
Atoms. Timestep: 685
N 89 63 0 
N 99 14 0 
N 49 1 0 
N 58 0 0 
N 56 7 0 
O 65 5 0 
6
Atoms. Timestep: 686
N 89 62 0 
N 98 14 0 
N 48 1 0 
N 58 99 0 
N 56 8 0 
O 66 5 0 
6
Atoms. Timestep: 687
N 89 61 0 
N 97 14 0 
N 47 1 0 
N 59 99 0 
N 56 9 0 
O 67 5 0 
6
Atoms. Timestep: 688
N 89 62 0 
N 96 14 0 
N 46 1 0 
N 60 99 0 
N 56 10 0 
O 68 5 0 
6
Atoms. Timestep: 689
N 89 61 0 
N 95 14 0 
N 46 0 0 
N 61 99 0 
N 56 11 0 
O 69 5 0 
6
Atoms. Timestep: 690
N 89 60 0 
N 94 14 0 
N 46 99 0 
N 62 99 0 
N 56 12 0 
O 70 5 0 
6
Atoms. Timestep: 691
N 89 61 0 
N 93 14 0 
N 45 99 0 
N 63 99 0 
N 56 13 0 
O 71 5 0 
6
Atoms. Timestep: 692
N 89 60 0 
N 92 14 0 
N 45 98 0 
N 64 99 0 
N 56 14 0 
O 72 5 0 
6
Atoms. Timestep: 693
N 89 59 0 
N 91 14 0 
N 44 98 0 
N 65 99 0 
N 56 15 0 
O 73 5 0 
6
Atoms. Timestep: 694
N 89 60 0 
N 90 14 0 
N 44 97 0 
N 66 99 0 
N 56 16 0 
O 74 5 0 
6
Atoms. Timestep: 695
N 89 59 0 
N 89 14 0 
N 43 97 0 
N 67 99 0 
N 56 17 0 
O 75 5 0 
6
Atoms. Timestep: 696
N 89 60 0 
N 88 14 0 
N 43 96 0 
N 68 99 0 
N 56 18 0 
O 76 5 0 
6
Atoms. Timestep: 697
N 89 59 0 
N 87 14 0 
N 42 96 0 
N 69 99 0 
N 56 19 0 
O 77 5 0 
6
Atoms. Timestep: 698
N 89 58 0 
N 86 14 0 
N 42 95 0 
N 70 99 0 
N 56 20 0 
O 78 5 0 
6
Atoms. Timestep: 699
N 89 57 0 
N 86 13 0 
N 41 95 0 
N 71 99 0 
N 56 21 0 
O 79 5 0 
6
Atoms. Timestep: 700
N 89 58 0 
N 86 12 0 
N 41 94 0 
N 72 99 0 
N 56 22 0 
O 78 5 0 
6
Atoms. Timestep: 701
N 89 57 0 
N 85 12 0 
N 40 94 0 
N 73 99 0 
N 57 22 0 
O 78 6 0 
6
Atoms. Timestep: 702
N 89 58 0 
N 84 12 0 
N 39 94 0 
N 73 0 0 
N 58 22 0 
O 78 7 0 
6
Atoms. Timestep: 703
N 89 57 0 
N 83 12 0 
N 38 94 0 
N 73 1 0 
N 59 22 0 
O 77 7 0 
6
Atoms. Timestep: 704
N 90 57 0 
N 82 12 0 
N 37 94 0 
N 73 2 0 
N 60 22 0 
O 77 8 0 
6
Atoms. Timestep: 705
N 90 58 0 
N 81 12 0 
N 37 93 0 
N 73 3 0 
N 61 22 0 
O 76 8 0 
6
Atoms. Timestep: 706
N 90 59 0 
N 81 13 0 
N 36 93 0 
N 73 4 0 
N 62 22 0 
O 76 9 0 
6
Atoms. Timestep: 707
N 90 60 0 
N 80 13 0 
N 35 93 0 
N 73 5 0 
N 63 22 0 
O 75 9 0 
6
Atoms. Timestep: 708
N 90 61 0 
N 79 13 0 
N 35 92 0 
N 73 6 0 
N 63 21 0 
O 75 10 0 
6
Atoms. Timestep: 709
N 90 62 0 
N 78 13 0 
N 34 92 0 
N 73 7 0 
N 64 21 0 
O 75 11 0 
6
Atoms. Timestep: 710
N 90 63 0 
N 77 13 0 
N 33 92 0 
N 73 8 0 
N 65 21 0 
O 74 11 0 
6
Atoms. Timestep: 711
N 90 62 0 
N 76 13 0 
N 32 92 0 
N 73 9 0 
N 65 20 0 
O 74 10 0 
6
Atoms. Timestep: 712
N 90 61 0 
N 76 12 0 
N 31 92 0 
N 73 10 0 
N 64 20 0 
O 75 10 0 
6
Atoms. Timestep: 713
N 90 62 0 
N 77 12 0 
N 30 92 0 
N 74 10 0 
N 64 21 0 
O 76 10 0 
6
Atoms. Timestep: 714
N 90 63 0 
N 78 12 0 
N 29 92 0 
N 75 10 0 
N 64 22 0 
O 77 10 0 
6
Atoms. Timestep: 715
N 89 63 0 
N 78 13 0 
N 28 92 0 
N 76 10 0 
N 64 21 0 
O 78 10 0 
6
Atoms. Timestep: 716
N 88 63 0 
N 78 14 0 
N 27 92 0 
N 77 10 0 
N 63 21 0 
O 79 10 0 
6
Atoms. Timestep: 717
N 87 63 0 
N 78 15 0 
N 26 92 0 
N 78 10 0 
N 62 21 0 
O 80 10 0 
6
Atoms. Timestep: 718
N 87 64 0 
N 78 16 0 
N 25 92 0 
N 79 10 0 
N 61 21 0 
O 81 10 0 
6
Atoms. Timestep: 719
N 87 63 0 
N 78 15 0 
N 24 92 0 
N 79 9 0 
N 60 21 0 
O 82 10 0 
6
Atoms. Timestep: 720
N 86 63 0 
N 78 16 0 
N 23 92 0 
N 80 9 0 
N 59 21 0 
O 83 10 0 
6
Atoms. Timestep: 721
N 86 64 0 
N 78 17 0 
N 22 92 0 
N 81 9 0 
N 58 21 0 
O 84 10 0 
6
Atoms. Timestep: 722
N 85 64 0 
N 78 18 0 
N 21 92 0 
N 82 9 0 
N 57 21 0 
O 85 10 0 
6
Atoms. Timestep: 723
N 84 64 0 
N 78 19 0 
N 20 92 0 
N 83 9 0 
N 56 21 0 
O 86 10 0 
6
Atoms. Timestep: 724
N 84 65 0 
N 78 20 0 
N 19 92 0 
N 84 9 0 
N 55 21 0 
O 87 10 0 
6
Atoms. Timestep: 725
N 83 65 0 
N 78 21 0 
N 18 92 0 
N 85 9 0 
N 54 21 0 
O 88 10 0 
6
Atoms. Timestep: 726
N 83 66 0 
N 78 22 0 
N 17 92 0 
N 86 9 0 
N 53 21 0 
O 89 10 0 
6
Atoms. Timestep: 727
N 82 66 0 
N 78 23 0 
N 16 92 0 
N 87 9 0 
N 52 21 0 
O 90 10 0 
6
Atoms. Timestep: 728
N 82 67 0 
N 78 24 0 
N 15 92 0 
N 88 9 0 
N 51 21 0 
O 91 10 0 
6
Atoms. Timestep: 729
N 81 67 0 
N 78 25 0 
N 14 92 0 
N 89 9 0 
N 50 21 0 
O 92 10 0 
6
Atoms. Timestep: 730
N 80 67 0 
N 78 26 0 
N 13 92 0 
N 90 9 0 
N 49 21 0 
O 93 10 0 
6
Atoms. Timestep: 731
N 80 68 0 
N 78 27 0 
N 12 92 0 
N 91 9 0 
N 48 21 0 
O 94 10 0 
6
Atoms. Timestep: 732
N 79 68 0 
N 78 28 0 
N 11 92 0 
N 92 9 0 
N 47 21 0 
O 95 10 0 
6
Atoms. Timestep: 733
N 79 69 0 
N 78 29 0 
N 12 92 0 
N 93 9 0 
N 46 21 0 
O 96 10 0 
6
Atoms. Timestep: 734
N 79 70 0 
N 78 30 0 
N 13 92 0 
N 94 9 0 
N 45 21 0 
O 97 10 0 
6
Atoms. Timestep: 735
N 79 71 0 
N 78 31 0 
N 14 92 0 
N 95 9 0 
N 44 21 0 
O 98 10 0 
6
Atoms. Timestep: 736
N 79 72 0 
N 78 32 0 
N 15 92 0 
N 96 9 0 
N 43 21 0 
O 99 10 0 
6
Atoms. Timestep: 737
N 79 73 0 
N 78 33 0 
N 16 92 0 
N 97 9 0 
N 42 21 0 
O 0 10 0 
6
Atoms. Timestep: 738
N 79 74 0 
N 78 34 0 
N 17 92 0 
N 98 9 0 
N 41 21 0 
O 1 10 0 
6
Atoms. Timestep: 739
N 79 75 0 
N 78 35 0 
N 18 92 0 
N 99 9 0 
N 41 22 0 
O 2 10 0 
6
Atoms. Timestep: 740
N 79 76 0 
N 78 36 0 
N 19 92 0 
N 0 9 0 
N 41 23 0 
O 3 10 0 
6
Atoms. Timestep: 741
N 79 77 0 
N 78 37 0 
N 20 92 0 
N 1 9 0 
N 41 24 0 
O 4 10 0 
6
Atoms. Timestep: 742
N 79 78 0 
N 78 38 0 
N 21 92 0 
N 2 9 0 
N 41 25 0 
O 5 10 0 
6
Atoms. Timestep: 743
N 79 79 0 
N 78 39 0 
N 22 92 0 
N 3 9 0 
N 41 26 0 
O 6 10 0 
6
Atoms. Timestep: 744
N 79 78 0 
N 79 39 0 
N 23 92 0 
N 4 9 0 
N 41 27 0 
O 7 10 0 
6
Atoms. Timestep: 745
N 79 79 0 
N 79 38 0 
N 24 92 0 
N 5 9 0 
N 40 27 0 
O 8 10 0 
6
Atoms. Timestep: 746
N 79 80 0 
N 79 39 0 
N 25 92 0 
N 6 9 0 
N 39 27 0 
O 9 10 0 
6
Atoms. Timestep: 747
N 79 79 0 
N 79 38 0 
N 26 92 0 
N 7 9 0 
N 38 27 0 
O 10 10 0 
6
Atoms. Timestep: 748
N 79 78 0 
N 79 37 0 
N 27 92 0 
N 8 9 0 
N 37 27 0 
O 11 10 0 
6
Atoms. Timestep: 749
N 79 79 0 
N 79 36 0 
N 28 92 0 
N 9 9 0 
N 36 27 0 
O 12 10 0 
6
Atoms. Timestep: 750
N 79 80 0 
N 78 36 0 
N 29 92 0 
N 10 9 0 
N 35 27 0 
O 13 10 0 
6
Atoms. Timestep: 751
N 78 80 0 
N 77 36 0 
N 30 92 0 
N 11 9 0 
N 34 27 0 
O 14 10 0 
6
Atoms. Timestep: 752
N 77 80 0 
N 77 35 0 
N 31 92 0 
N 12 9 0 
N 33 27 0 
O 15 10 0 
6
Atoms. Timestep: 753
N 77 81 0 
N 76 35 0 
N 32 92 0 
N 13 9 0 
N 32 27 0 
O 16 10 0 
6
Atoms. Timestep: 754
N 78 81 0 
N 77 35 0 
N 33 92 0 
N 14 9 0 
N 32 26 0 
O 17 10 0 
6
Atoms. Timestep: 755
N 79 81 0 
N 77 34 0 
N 34 92 0 
N 15 9 0 
N 32 25 0 
O 18 10 0 
6
Atoms. Timestep: 756
N 80 81 0 
N 76 34 0 
N 35 92 0 
N 16 9 0 
N 32 24 0 
O 19 10 0 
6
Atoms. Timestep: 757
N 81 81 0 
N 77 34 0 
N 36 92 0 
N 17 9 0 
N 32 23 0 
O 20 10 0 
6
Atoms. Timestep: 758
N 82 81 0 
N 78 34 0 
N 37 92 0 
N 18 9 0 
N 32 22 0 
O 21 10 0 
6
Atoms. Timestep: 759
N 83 81 0 
N 78 33 0 
N 38 92 0 
N 19 9 0 
N 32 21 0 
O 22 10 0 
6
Atoms. Timestep: 760
N 84 81 0 
N 79 33 0 
N 39 92 0 
N 20 9 0 
N 32 20 0 
O 23 10 0 
6
Atoms. Timestep: 761
N 85 81 0 
N 79 32 0 
N 40 92 0 
N 21 9 0 
N 32 19 0 
O 24 10 0 
6
Atoms. Timestep: 762
N 86 81 0 
N 78 32 0 
N 41 92 0 
N 22 9 0 
N 32 18 0 
O 25 10 0 
6
Atoms. Timestep: 763
N 87 81 0 
N 79 32 0 
N 42 92 0 
N 23 9 0 
N 32 17 0 
O 26 10 0 
6
Atoms. Timestep: 764
N 88 81 0 
N 79 31 0 
N 43 92 0 
N 24 9 0 
N 32 16 0 
O 27 10 0 
6
Atoms. Timestep: 765
N 89 81 0 
N 80 31 0 
N 44 92 0 
N 25 9 0 
N 32 15 0 
O 28 10 0 
6
Atoms. Timestep: 766
N 90 81 0 
N 79 31 0 
N 45 92 0 
N 26 9 0 
N 32 14 0 
O 29 10 0 
6
Atoms. Timestep: 767
N 91 81 0 
N 80 31 0 
N 46 92 0 
N 27 9 0 
N 32 13 0 
O 30 10 0 
6
Atoms. Timestep: 768
N 92 81 0 
N 81 31 0 
N 47 92 0 
N 28 9 0 
N 32 14 0 
O 31 10 0 
6
Atoms. Timestep: 769
N 93 81 0 
N 80 31 0 
N 48 92 0 
N 29 9 0 
N 32 13 0 
O 32 10 0 
6
Atoms. Timestep: 770
N 94 81 0 
N 80 32 0 
N 49 92 0 
N 30 9 0 
N 32 12 0 
O 33 10 0 
6
Atoms. Timestep: 771
N 95 81 0 
N 80 31 0 
N 50 92 0 
N 30 8 0 
N 32 11 0 
O 34 10 0 
6
Atoms. Timestep: 772
N 94 81 0 
N 80 32 0 
N 50 93 0 
N 30 7 0 
N 33 11 0 
O 35 10 0 
6
Atoms. Timestep: 773
N 93 81 0 
N 80 33 0 
N 50 94 0 
N 29 7 0 
N 34 11 0 
O 35 9 0 
6
Atoms. Timestep: 774
N 92 81 0 
N 80 34 0 
N 50 95 0 
N 28 7 0 
N 34 10 0 
O 36 9 0 
6
Atoms. Timestep: 775
N 91 81 0 
N 80 33 0 
N 50 96 0 
N 27 7 0 
N 35 10 0 
O 37 9 0 
6
Atoms. Timestep: 776
N 90 81 0 
N 80 34 0 
N 50 97 0 
N 26 7 0 
N 36 10 0 
O 37 8 0 
6
Atoms. Timestep: 777
N 89 81 0 
N 80 33 0 
N 49 97 0 
N 25 7 0 
N 36 9 0 
O 38 8 0 
6
Atoms. Timestep: 778
N 88 81 0 
N 80 32 0 
N 48 97 0 
N 24 7 0 
N 37 9 0 
O 39 8 0 
6
Atoms. Timestep: 779
N 89 81 0 
N 80 33 0 
N 48 98 0 
N 23 7 0 
N 38 9 0 
O 40 8 0 
6
Atoms. Timestep: 780
N 88 81 0 
N 80 34 0 
N 48 99 0 
N 22 7 0 
N 37 9 0 
O 41 8 0 
6
Atoms. Timestep: 781
N 87 81 0 
N 80 35 0 
N 48 0 0 
N 21 7 0 
N 38 9 0 
O 42 8 0 
6
Atoms. Timestep: 782
N 86 81 0 
N 80 34 0 
N 48 1 0 
N 20 7 0 
N 39 9 0 
O 43 8 0 
6
Atoms. Timestep: 783
N 85 81 0 
N 81 34 0 
N 48 2 0 
N 19 7 0 
N 40 9 0 
O 44 8 0 
6
Atoms. Timestep: 784
N 84 81 0 
N 82 34 0 
N 48 3 0 
N 18 7 0 
N 41 9 0 
O 45 8 0 
6
Atoms. Timestep: 785
N 85 81 0 
N 81 34 0 
N 48 4 0 
N 17 7 0 
N 42 9 0 
O 46 8 0 
6
Atoms. Timestep: 786
N 84 81 0 
N 82 34 0 
N 48 5 0 
N 16 7 0 
N 43 9 0 
O 46 9 0 
6
Atoms. Timestep: 787
N 83 81 0 
N 81 34 0 
N 48 6 0 
N 15 7 0 
N 44 9 0 
O 47 9 0 
6
Atoms. Timestep: 788
N 82 81 0 
N 82 34 0 
N 48 7 0 
N 14 7 0 
N 45 9 0 
O 47 10 0 
6
Atoms. Timestep: 789
N 81 81 0 
N 81 34 0 
N 48 6 0 
N 13 7 0 
N 46 9 0 
O 47 11 0 
6
Atoms. Timestep: 790
N 82 81 0 
N 80 34 0 
N 48 5 0 
N 12 7 0 
N 46 10 0 
O 48 11 0 
6
Atoms. Timestep: 791
N 81 81 0 
N 79 34 0 
N 48 4 0 
N 11 7 0 
N 47 10 0 
O 49 11 0 
6
Atoms. Timestep: 792
N 80 81 0 
N 78 34 0 
N 48 3 0 
N 10 7 0 
N 48 10 0 
O 50 11 0 
6
Atoms. Timestep: 793
N 81 81 0 
N 77 34 0 
N 48 2 0 
N 9 7 0 
N 49 10 0 
O 50 12 0 
6
Atoms. Timestep: 794
N 82 81 0 
N 76 34 0 
N 48 1 0 
N 10 7 0 
N 49 11 0 
O 51 12 0 
6
Atoms. Timestep: 795
N 83 81 0 
N 75 34 0 
N 48 0 0 
N 11 7 0 
N 50 11 0 
O 51 13 0 
6
Atoms. Timestep: 796
N 82 81 0 
N 74 34 0 
N 48 99 0 
N 10 7 0 
N 50 12 0 
O 52 13 0 
6
Atoms. Timestep: 797
N 83 81 0 
N 73 34 0 
N 48 98 0 
N 11 7 0 
N 51 12 0 
O 52 14 0 
6
Atoms. Timestep: 798
N 84 81 0 
N 72 34 0 
N 48 97 0 
N 12 7 0 
N 51 13 0 
O 52 15 0 
6
Atoms. Timestep: 799
N 83 81 0 
N 71 34 0 
N 48 96 0 
N 11 7 0 
N 51 14 0 
O 53 15 0 
6
Atoms. Timestep: 800
N 84 81 0 
N 71 33 0 
N 48 95 0 
N 12 7 0 
N 52 14 0 
O 53 16 0 
6
Atoms. Timestep: 801
N 83 81 0 
N 70 33 0 
N 48 94 0 
N 11 7 0 
N 52 15 0 
O 54 16 0 
6
Atoms. Timestep: 802
N 84 81 0 
N 70 32 0 
N 48 93 0 
N 12 7 0 
N 53 15 0 
O 54 17 0 
6
Atoms. Timestep: 803
N 85 81 0 
N 69 32 0 
N 48 92 0 
N 13 7 0 
N 53 16 0 
O 55 17 0 
6
Atoms. Timestep: 804
N 86 81 0 
N 69 31 0 
N 48 91 0 
N 14 7 0 
N 54 16 0 
O 55 18 0 
6
Atoms. Timestep: 805
N 85 81 0 
N 68 31 0 
N 48 90 0 
N 13 7 0 
N 54 17 0 
O 55 19 0 
6
Atoms. Timestep: 806
N 86 81 0 
N 67 31 0 
N 48 89 0 
N 14 7 0 
N 54 18 0 
O 55 20 0 
6
Atoms. Timestep: 807
N 87 81 0 
N 66 31 0 
N 48 88 0 
N 15 7 0 
N 54 19 0 
O 55 21 0 
6
Atoms. Timestep: 808
N 86 81 0 
N 65 31 0 
N 48 87 0 
N 16 7 0 
N 54 20 0 
O 56 21 0 
6
Atoms. Timestep: 809
N 87 81 0 
N 65 30 0 
N 48 86 0 
N 15 7 0 
N 55 20 0 
O 56 22 0 
6
Atoms. Timestep: 810
N 86 81 0 
N 64 30 0 
N 48 85 0 
N 16 7 0 
N 55 21 0 
O 56 23 0 
6
Atoms. Timestep: 811
N 87 81 0 
N 63 30 0 
N 48 84 0 
N 15 7 0 
N 55 22 0 
O 56 24 0 
6
Atoms. Timestep: 812
N 86 81 0 
N 62 30 0 
N 47 84 0 
N 16 7 0 
N 55 23 0 
O 57 24 0 
6
Atoms. Timestep: 813
N 85 81 0 
N 62 29 0 
N 46 84 0 
N 15 7 0 
N 56 23 0 
O 58 24 0 
6
Atoms. Timestep: 814
N 84 81 0 
N 62 28 0 
N 45 84 0 
N 14 7 0 
N 57 23 0 
O 58 25 0 
6
Atoms. Timestep: 815
N 83 81 0 
N 61 28 0 
N 44 84 0 
N 13 7 0 
N 57 24 0 
O 59 25 0 
6
Atoms. Timestep: 816
N 82 81 0 
N 61 27 0 
N 43 84 0 
N 12 7 0 
N 58 24 0 
O 60 25 0 
6
Atoms. Timestep: 817
N 81 81 0 
N 61 26 0 
N 42 84 0 
N 11 7 0 
N 59 24 0 
O 59 25 0 
5
Atoms. Timestep: 818
N 80 81 0 
N 62 26 0 
N 41 84 0 
N 10 7 0 
N 59 25 0 
15
Atoms. Timestep: 1
N 49 79 0 
N 51 58 0 
N 15 58 0 
N 2 23 0 
N 55 26 0 
O 92 1 0 
O 96 75 0 
O 23 57 0 
O 62 0 0 
O 38 99 0 
O 29 80 0 
O 29 35 0 
O 48 67 0 
O 66 2 0 
O 64 39 0 
15
Atoms. Timestep: 2
N 49 78 0 
N 51 57 0 
N 16 58 0 
N 2 22 0 
N 55 27 0 
O 92 0 0 
O 95 75 0 
O 24 57 0 
O 62 1 0 
O 38 0 0 
O 28 80 0 
O 29 34 0 
O 48 68 0 
O 66 1 0 
O 64 40 0 
15
Atoms. Timestep: 3
N 49 77 0 
N 51 58 0 
N 17 58 0 
N 2 21 0 
N 55 28 0 
O 92 99 0 
O 94 75 0 
O 25 57 0 
O 62 2 0 
O 38 1 0 
O 27 80 0 
O 29 33 0 
O 48 67 0 
O 66 2 0 
O 64 41 0 
15
Atoms. Timestep: 4
N 49 76 0 
N 51 59 0 
N 18 58 0 
N 2 20 0 
N 55 29 0 
O 92 98 0 
O 93 75 0 
O 26 57 0 
O 62 1 0 
O 38 2 0 
O 26 80 0 
O 28 33 0 
O 48 68 0 
O 66 1 0 
O 64 42 0 
15
Atoms. Timestep: 5
N 49 75 0 
N 51 60 0 
N 19 58 0 
N 2 19 0 
N 55 30 0 
O 92 97 0 
O 92 75 0 
O 27 57 0 
O 62 2 0 
O 38 3 0 
O 25 80 0 
O 28 32 0 
O 48 67 0 
O 66 2 0 
O 64 43 0 
15
Atoms. Timestep: 6
N 49 74 0 
N 51 61 0 
N 20 58 0 
N 2 18 0 
N 55 31 0 
O 92 96 0 
O 91 75 0 
O 28 57 0 
O 62 1 0 
O 38 4 0 
O 25 81 0 
O 28 31 0 
O 48 68 0 
O 66 1 0 
O 64 44 0 
15
Atoms. Timestep: 7
N 49 73 0 
N 51 62 0 
N 21 58 0 
N 2 17 0 
N 55 32 0 
O 92 95 0 
O 90 75 0 
O 29 57 0 
O 62 2 0 
O 38 5 0 
O 25 82 0 
O 28 30 0 
O 48 67 0 
O 66 2 0 
O 64 45 0 
15
Atoms. Timestep: 8
N 49 72 0 
N 51 63 0 
N 22 58 0 
N 2 16 0 
N 55 33 0 
O 92 94 0 
O 89 75 0 
O 30 57 0 
O 62 1 0 
O 38 4 0 
O 25 83 0 
O 27 30 0 
O 48 66 0 
O 66 1 0 
O 64 46 0 
15
Atoms. Timestep: 9
N 49 71 0 
N 51 64 0 
N 23 58 0 
N 2 15 0 
N 54 33 0 
O 92 93 0 
O 88 75 0 
O 31 57 0 
O 62 2 0 
O 38 3 0 
O 25 84 0 
O 26 30 0 
O 47 66 0 
O 66 2 0 
O 64 47 0 
15
Atoms. Timestep: 10
N 49 70 0 
N 50 64 0 
N 24 58 0 
N 2 14 0 
N 54 34 0 
O 92 92 0 
O 89 75 0 
O 32 57 0 
O 62 1 0 
O 38 4 0 
O 25 85 0 
O 26 29 0 
O 46 66 0 
O 66 1 0 
O 64 48 0 
15
Atoms. Timestep: 11
N 49 69 0 
N 49 64 0 
N 25 58 0 
N 2 13 0 
N 54 35 0 
O 92 91 0 
O 88 75 0 
O 33 57 0 
O 62 2 0 
O 38 3 0 
O 25 86 0 
O 27 29 0 
O 45 66 0 
O 66 2 0 
O 64 49 0 
15
Atoms. Timestep: 12
N 49 70 0 
N 48 64 0 
N 26 58 0 
N 2 12 0 
N 54 34 0 
O 92 90 0 
O 89 75 0 
O 34 57 0 
O 62 1 0 
O 38 4 0 
O 24 86 0 
O 26 29 0 
O 44 66 0 
O 66 1 0 
O 64 50 0 
15
Atoms. Timestep: 13
N 49 71 0 
N 47 64 0 
N 27 58 0 
N 2 11 0 
N 54 35 0 
O 92 89 0 
O 89 74 0 
O 35 57 0 
O 62 2 0 
O 38 5 0 
O 24 87 0 
O 25 29 0 
O 43 66 0 
O 66 2 0 
O 64 51 0 
15
Atoms. Timestep: 14
N 49 72 0 
N 46 64 0 
N 28 58 0 
N 2 10 0 
N 54 36 0 
O 92 88 0 
O 89 73 0 
O 36 57 0 
O 62 3 0 
O 38 6 0 
O 23 87 0 
O 25 28 0 
O 42 66 0 
O 66 3 0 
O 64 52 0 
15
Atoms. Timestep: 15
N 49 73 0 
N 45 64 0 
N 29 58 0 
N 2 9 0 
N 54 37 0 
O 92 87 0 
O 89 72 0 
O 37 57 0 
O 62 4 0 
O 38 7 0 
O 22 87 0 
O 26 28 0 
O 41 66 0 
O 66 4 0 
O 64 53 0 
15
Atoms. Timestep: 16
N 49 74 0 
N 44 64 0 
N 30 58 0 
N 2 8 0 
N 54 38 0 
O 92 86 0 
O 89 71 0 
O 38 57 0 
O 62 5 0 
O 38 8 0 
O 21 87 0 
O 25 28 0 
O 40 66 0 
O 66 5 0 
O 64 54 0 
15
Atoms. Timestep: 17
N 49 75 0 
N 43 64 0 
N 31 58 0 
N 2 7 0 
N 54 39 0 
O 92 85 0 
O 89 70 0 
O 39 57 0 
O 62 6 0 
O 38 9 0 
O 21 86 0 
O 25 27 0 
O 39 66 0 
O 66 6 0 
O 64 55 0 
15
Atoms. Timestep: 18
N 49 76 0 
N 42 64 0 
N 32 58 0 
N 2 6 0 
N 54 40 0 
O 92 84 0 
O 89 69 0 
O 39 56 0 
O 62 7 0 
O 38 10 0 
O 21 85 0 
O 25 26 0 
O 38 66 0 
O 66 7 0 
O 64 56 0 
15
Atoms. Timestep: 19
N 49 77 0 
N 41 64 0 
N 33 58 0 
N 2 5 0 
N 54 41 0 
O 92 83 0 
O 89 68 0 
O 40 56 0 
O 62 8 0 
O 38 11 0 
O 21 84 0 
O 26 26 0 
O 37 66 0 
O 66 8 0 
O 64 57 0 
15
Atoms. Timestep: 20
N 49 78 0 
N 40 64 0 
N 34 58 0 
N 2 4 0 
N 54 42 0 
O 92 82 0 
O 89 67 0 
O 41 56 0 
O 62 9 0 
O 38 12 0 
O 21 85 0 
O 26 25 0 
O 36 66 0 
O 66 9 0 
O 64 58 0 
15
Atoms. Timestep: 21
N 49 79 0 
N 39 64 0 
N 35 58 0 
N 2 3 0 
N 54 43 0 
O 92 81 0 
O 89 66 0 
O 42 56 0 
O 62 10 0 
O 38 13 0 
O 22 85 0 
O 27 25 0 
O 35 66 0 
O 66 10 0 
O 64 59 0 
15
Atoms. Timestep: 22
N 49 80 0 
N 38 64 0 
N 35 57 0 
N 2 2 0 
N 54 44 0 
O 92 80 0 
O 89 65 0 
O 43 56 0 
O 62 11 0 
O 38 14 0 
O 22 86 0 
O 27 24 0 
O 34 66 0 
O 66 11 0 
O 64 60 0 
15
Atoms. Timestep: 23
N 49 81 0 
N 37 64 0 
N 35 56 0 
N 2 1 0 
N 54 45 0 
O 92 79 0 
O 89 64 0 
O 44 56 0 
O 62 12 0 
O 38 15 0 
O 23 86 0 
O 27 23 0 
O 33 66 0 
O 66 12 0 
O 64 61 0 
15
Atoms. Timestep: 24
N 49 82 0 
N 36 64 0 
N 35 55 0 
N 2 0 0 
N 54 46 0 
O 92 78 0 
O 89 63 0 
O 45 56 0 
O 62 13 0 
O 38 16 0 
O 23 87 0 
O 27 22 0 
O 32 66 0 
O 66 13 0 
O 64 62 0 
15
Atoms. Timestep: 25
N 49 83 0 
N 35 64 0 
N 35 54 0 
N 2 99 0 
N 54 47 0 
O 92 77 0 
O 89 62 0 
O 46 56 0 
O 62 14 0 
O 38 17 0 
O 24 87 0 
O 27 21 0 
O 31 66 0 
O 66 14 0 
O 64 63 0 
15
Atoms. Timestep: 26
N 49 84 0 
N 34 64 0 
N 35 53 0 
N 2 98 0 
N 54 48 0 
O 92 76 0 
O 90 62 0 
O 47 56 0 
O 62 15 0 
O 38 18 0 
O 25 87 0 
O 27 20 0 
O 30 66 0 
O 66 15 0 
O 64 64 0 
15
Atoms. Timestep: 27
N 48 84 0 
N 33 64 0 
N 35 52 0 
N 2 97 0 
N 54 49 0 
O 92 75 0 
O 90 61 0 
O 47 57 0 
O 62 16 0 
O 38 17 0 
O 24 87 0 
O 27 19 0 
O 29 66 0 
O 66 16 0 
O 64 65 0 
15
Atoms. Timestep: 28
N 47 84 0 
N 32 64 0 
N 35 51 0 
N 2 96 0 
N 54 50 0 
O 92 74 0 
O 90 60 0 
O 46 57 0 
O 62 15 0 
O 38 18 0 
O 23 87 0 
O 27 18 0 
O 28 66 0 
O 66 15 0 
O 64 66 0 
15
Atoms. Timestep: 29
N 46 84 0 
N 31 64 0 
N 36 51 0 
N 3 96 0 
N 53 50 0 
O 92 73 0 
O 90 59 0 
O 46 58 0 
O 62 16 0 
O 38 17 0 
O 24 87 0 
O 28 18 0 
O 27 66 0 
O 66 16 0 
O 64 67 0 
15
Atoms. Timestep: 30
N 45 84 0 
N 30 64 0 
N 37 51 0 
N 4 96 0 
N 53 51 0 
O 92 72 0 
O 91 59 0 
O 46 59 0 
O 62 17 0 
O 38 18 0 
O 23 87 0 
O 29 18 0 
O 26 66 0 
O 66 15 0 
O 64 68 0 
15
Atoms. Timestep: 31
N 44 84 0 
N 30 65 0 
N 38 51 0 
N 5 96 0 
N 53 52 0 
O 92 71 0 
O 92 59 0 
O 45 59 0 
O 62 16 0 
O 38 17 0 
O 24 87 0 
O 30 18 0 
O 25 66 0 
O 66 16 0 
O 64 69 0 
15
Atoms. Timestep: 32
N 43 84 0 
N 29 65 0 
N 38 52 0 
N 6 96 0 
N 52 52 0 
O 92 70 0 
O 91 59 0 
O 45 60 0 
O 62 17 0 
O 38 18 0 
O 23 87 0 
O 31 18 0 
O 24 66 0 
O 66 15 0 
O 64 70 0 
15
Atoms. Timestep: 33
N 42 84 0 
N 28 65 0 
N 38 53 0 
N 7 96 0 
N 52 53 0 
O 92 69 0 
O 90 59 0 
O 45 61 0 
O 62 16 0 
O 38 19 0 
O 24 87 0 
O 32 18 0 
O 23 66 0 
O 66 16 0 
O 64 71 0 
15
Atoms. Timestep: 34
N 41 84 0 
N 27 65 0 
N 38 54 0 
N 8 96 0 
N 52 54 0 
O 92 68 0 
O 89 59 0 
O 45 62 0 
O 62 17 0 
O 38 20 0 
O 23 87 0 
O 33 18 0 
O 22 66 0 
O 66 17 0 
O 64 72 0 
15
Atoms. Timestep: 35
N 40 84 0 
N 26 65 0 
N 38 55 0 
N 9 96 0 
N 52 55 0 
O 92 67 0 
O 88 59 0 
O 45 63 0 
O 62 18 0 
O 38 19 0 
O 24 87 0 
O 34 18 0 
O 21 66 0 
O 66 16 0 
O 64 73 0 
15
Atoms. Timestep: 36
N 39 84 0 
N 25 65 0 
N 38 56 0 
N 10 96 0 
N 52 56 0 
O 91 67 0 
O 89 59 0 
O 46 63 0 
O 62 17 0 
O 38 20 0 
O 23 87 0 
O 35 18 0 
O 20 66 0 
O 66 17 0 
O 64 74 0 
15
Atoms. Timestep: 37
N 38 84 0 
N 26 65 0 
N 39 56 0 
N 11 96 0 
N 52 57 0 
O 90 67 0 
O 88 59 0 
O 45 63 0 
O 62 18 0 
O 38 21 0 
O 22 87 0 
O 36 18 0 
O 19 66 0 
O 66 16 0 
O 64 75 0 
15
Atoms. Timestep: 38
N 37 84 0 
N 25 65 0 
N 39 57 0 
N 12 96 0 
N 51 57 0 
O 89 67 0 
O 87 59 0 
O 46 63 0 
O 62 17 0 
O 38 20 0 
O 23 87 0 
O 37 18 0 
O 18 66 0 
O 66 17 0 
O 64 76 0 
15
Atoms. Timestep: 39
N 36 84 0 
N 24 65 0 
N 40 57 0 
N 13 96 0 
N 51 58 0 
O 88 67 0 
O 88 59 0 
O 45 63 0 
O 62 18 0 
O 39 20 0 
O 22 87 0 
O 38 18 0 
O 17 66 0 
O 66 16 0 
O 64 77 0 
15
Atoms. Timestep: 40
N 35 84 0 
N 23 65 0 
N 40 58 0 
N 13 95 0 
N 50 58 0 
O 87 67 0 
O 87 59 0 
O 46 63 0 
O 62 17 0 
O 39 21 0 
O 23 87 0 
O 39 18 0 
O 16 66 0 
O 66 17 0 
O 64 78 0 
15
Atoms. Timestep: 41
N 34 84 0 
N 22 65 0 
N 41 58 0 
N 14 95 0 
N 50 59 0 
O 86 67 0 
O 86 59 0 
O 46 64 0 
O 62 18 0 
O 39 22 0 
O 22 87 0 
O 40 18 0 
O 15 66 0 
O 66 16 0 
O 64 79 0 
15
Atoms. Timestep: 42
N 33 84 0 
N 21 65 0 
N 41 59 0 
N 14 94 0 
N 50 60 0 
O 85 67 0 
O 85 59 0 
O 45 64 0 
O 62 17 0 
O 39 21 0 
O 23 87 0 
O 40 19 0 
O 14 66 0 
O 67 16 0 
O 64 80 0 
15
Atoms. Timestep: 43
N 32 84 0 
N 20 65 0 
N 41 60 0 
N 15 94 0 
N 49 60 0 
O 84 67 0 
O 84 59 0 
O 45 65 0 
O 62 18 0 
O 39 22 0 
O 22 87 0 
O 40 20 0 
O 13 66 0 
O 68 16 0 
O 64 81 0 
15
Atoms. Timestep: 44
N 31 84 0 
N 19 65 0 
N 41 61 0 
N 16 94 0 
N 49 61 0 
O 83 67 0 
O 83 59 0 
O 46 65 0 
O 62 17 0 
O 39 23 0 
O 21 87 0 
O 40 21 0 
O 12 66 0 
O 69 16 0 
O 64 82 0 
15
Atoms. Timestep: 45
N 30 84 0 
N 18 65 0 
N 42 61 0 
N 16 93 0 
N 49 62 0 
O 84 67 0 
O 84 59 0 
O 45 65 0 
O 62 18 0 
O 39 24 0 
O 21 86 0 
O 40 22 0 
O 11 66 0 
O 70 16 0 
O 64 83 0 
15
Atoms. Timestep: 46
N 29 84 0 
N 17 65 0 
N 42 62 0 
N 16 92 0 
N 48 62 0 
O 83 67 0 
O 83 59 0 
O 46 65 0 
O 62 17 0 
O 39 23 0 
O 21 85 0 
O 40 23 0 
O 10 66 0 
O 70 15 0 
O 64 84 0 
15
Atoms. Timestep: 47
N 28 84 0 
N 16 65 0 
N 43 62 0 
N 16 91 0 
N 48 63 0 
O 82 67 0 
O 82 59 0 
O 45 65 0 
O 63 17 0 
O 39 22 0 
O 20 85 0 
O 40 22 0 
O 9 66 0 
O 69 15 0 
O 64 85 0 
15
Atoms. Timestep: 48
N 27 84 0 
N 15 65 0 
N 43 63 0 
N 16 90 0 
N 47 63 0 
O 81 67 0 
O 81 59 0 
O 46 65 0 
O 64 17 0 
O 39 23 0 
O 20 84 0 
O 40 23 0 
O 8 66 0 
O 70 15 0 
O 64 86 0 
15
Atoms. Timestep: 49
N 26 84 0 
N 14 65 0 
N 44 63 0 
N 16 89 0 
N 47 64 0 
O 80 67 0 
O 80 59 0 
O 45 65 0 
O 64 16 0 
O 39 22 0 
O 19 84 0 
O 40 22 0 
O 7 66 0 
O 69 15 0 
O 64 87 0 
15
Atoms. Timestep: 50
N 25 84 0 
N 13 65 0 
N 43 63 0 
N 16 88 0 
N 46 64 0 
O 79 67 0 
O 79 59 0 
O 44 65 0 
O 65 16 0 
O 39 23 0 
O 19 83 0 
O 40 23 0 
O 6 66 0 
O 70 15 0 
O 64 88 0 
15
Atoms. Timestep: 51
N 24 84 0 
N 12 65 0 
N 42 63 0 
N 16 87 0 
N 45 64 0 
O 78 67 0 
O 78 59 0 
O 43 65 0 
O 66 16 0 
O 39 22 0 
O 18 83 0 
O 40 22 0 
O 5 66 0 
O 69 15 0 
O 64 89 0 
15
Atoms. Timestep: 52
N 23 84 0 
N 11 65 0 
N 41 63 0 
N 16 86 0 
N 44 64 0 
O 77 67 0 
O 77 59 0 
O 43 66 0 
O 66 15 0 
O 39 23 0 
O 18 82 0 
O 40 23 0 
O 4 66 0 
O 70 15 0 
O 64 90 0 
15
Atoms. Timestep: 53
N 22 84 0 
N 10 65 0 
N 40 63 0 
N 16 85 0 
N 44 65 0 
O 76 67 0 
O 76 59 0 
O 42 66 0 
O 67 15 0 
O 39 22 0 
O 18 81 0 
O 40 22 0 
O 3 66 0 
O 69 15 0 
O 64 91 0 
15
Atoms. Timestep: 54
N 21 84 0 
N 9 65 0 
N 39 63 0 
N 16 84 0 
N 43 65 0 
O 75 67 0 
O 75 59 0 
O 42 67 0 
O 68 15 0 
O 39 21 0 
O 18 80 0 
O 40 21 0 
O 2 66 0 
O 69 14 0 
O 64 92 0 
15
Atoms. Timestep: 55
N 22 84 0 
N 8 65 0 
N 38 63 0 
N 17 84 0 
N 43 66 0 
O 76 67 0 
O 76 59 0 
O 41 67 0 
O 68 15 0 
O 39 22 0 
O 18 79 0 
O 40 22 0 
O 1 66 0 
O 69 15 0 
O 64 93 0 
15
Atoms. Timestep: 56
N 23 84 0 
N 7 65 0 
N 37 63 0 
N 16 84 0 
N 42 66 0 
O 75 67 0 
O 75 59 0 
O 40 67 0 
O 69 15 0 
O 39 23 0 
O 18 78 0 
O 40 23 0 
O 0 66 0 
O 70 15 0 
O 64 94 0 
15
Atoms. Timestep: 57
N 24 84 0 
N 6 65 0 
N 36 63 0 
N 16 83 0 
N 41 66 0 
O 74 67 0 
O 74 59 0 
O 39 67 0 
O 70 15 0 
O 39 22 0 
O 18 77 0 
O 40 22 0 
O 99 66 0 
O 71 15 0 
O 64 95 0 
15
Atoms. Timestep: 58
N 25 84 0 
N 5 65 0 
N 35 63 0 
N 16 82 0 
N 40 66 0 
O 73 67 0 
O 73 59 0 
O 39 68 0 
O 71 15 0 
O 39 23 0 
O 18 76 0 
O 40 23 0 
O 98 66 0 
O 72 15 0 
O 64 96 0 
15
Atoms. Timestep: 59
N 26 84 0 
N 4 65 0 
N 34 63 0 
N 16 81 0 
N 40 67 0 
O 72 67 0 
O 72 59 0 
O 38 68 0 
O 72 15 0 
O 39 22 0 
O 18 75 0 
O 40 22 0 
O 97 66 0 
O 73 15 0 
O 64 97 0 
15
Atoms. Timestep: 60
N 27 84 0 
N 3 65 0 
N 33 63 0 
N 16 80 0 
N 39 67 0 
O 71 67 0 
O 71 59 0 
O 38 69 0 
O 73 15 0 
O 39 23 0 
O 18 74 0 
O 40 23 0 
O 96 66 0 
O 74 15 0 
O 65 97 0 
15
Atoms. Timestep: 61
N 28 84 0 
N 2 65 0 
N 32 63 0 
N 16 79 0 
N 39 68 0 
O 70 67 0 
O 70 59 0 
O 38 70 0 
O 74 15 0 
O 39 24 0 
O 18 73 0 
O 40 24 0 
O 95 66 0 
O 75 15 0 
O 65 98 0 
15
Atoms. Timestep: 62
N 29 84 0 
N 1 65 0 
N 31 63 0 
N 16 78 0 
N 39 69 0 
O 69 67 0 
O 69 59 0 
O 37 70 0 
O 75 15 0 
O 39 23 0 
O 18 72 0 
O 40 23 0 
O 94 66 0 
O 76 15 0 
O 66 98 0 
15
Atoms. Timestep: 63
N 30 84 0 
N 0 65 0 
N 30 63 0 
N 16 77 0 
N 38 69 0 
O 68 67 0 
O 68 59 0 
O 36 70 0 
O 76 15 0 
O 39 24 0 
O 18 71 0 
O 40 24 0 
O 93 66 0 
O 77 15 0 
O 67 98 0 
15
Atoms. Timestep: 64
N 30 83 0 
N 99 65 0 
N 29 63 0 
N 16 76 0 
N 37 69 0 
O 67 67 0 
O 67 59 0 
O 35 70 0 
O 75 15 0 
O 39 23 0 
O 18 70 0 
O 40 23 0 
O 92 66 0 
O 77 15 0 
O 68 98 0 
15
Atoms. Timestep: 65
N 30 82 0 
N 98 65 0 
N 28 63 0 
N 16 75 0 
N 36 69 0 
O 66 67 0 
O 66 59 0 
O 35 71 0 
O 75 15 0 
O 39 24 0 
O 18 69 0 
O 40 22 0 
O 91 66 0 
O 76 15 0 
O 69 98 0 
15
Atoms. Timestep: 66
N 30 81 0 
N 97 65 0 
N 27 63 0 
N 16 74 0 
N 36 70 0 
O 67 67 0 
O 65 59 0 
O 34 71 0 
O 74 15 0 
O 39 23 0 
O 18 68 0 
O 40 23 0 
O 90 66 0 
O 76 15 0 
O 70 98 0 
15
Atoms. Timestep: 67
N 30 80 0 
N 96 65 0 
N 26 63 0 
N 16 73 0 
N 35 70 0 
O 66 67 0 
O 64 59 0 
O 34 72 0 
O 73 15 0 
O 39 22 0 
O 18 67 0 
O 40 22 0 
O 89 66 0 
O 75 15 0 
O 70 99 0 
15
Atoms. Timestep: 68
N 30 79 0 
N 95 65 0 
N 25 63 0 
N 16 72 0 
N 35 71 0 
O 65 67 0 
O 63 59 0 
O 33 72 0 
O 72 15 0 
O 39 23 0 
O 18 66 0 
O 40 21 0 
O 88 66 0 
O 74 15 0 
O 70 0 0 
15
Atoms. Timestep: 69
N 30 78 0 
N 94 65 0 
N 24 63 0 
N 16 71 0 
N 34 71 0 
O 64 67 0 
O 62 59 0 
O 32 72 0 
O 71 15 0 
O 39 22 0 
O 18 65 0 
O 40 22 0 
O 87 66 0 
O 73 15 0 
O 70 1 0 
15
Atoms. Timestep: 70
N 30 77 0 
N 93 65 0 
N 23 63 0 
N 16 70 0 
N 33 71 0 
O 63 67 0 
O 61 59 0 
O 32 73 0 
O 70 15 0 
O 39 21 0 
O 17 65 0 
O 40 21 0 
O 86 66 0 
O 72 15 0 
O 70 2 0 
15
Atoms. Timestep: 71
N 30 76 0 
N 92 65 0 
N 22 63 0 
N 16 69 0 
N 33 72 0 
O 62 67 0 
O 62 59 0 
O 31 73 0 
O 69 15 0 
O 39 22 0 
O 17 64 0 
O 40 20 0 
O 85 66 0 
O 71 15 0 
O 70 3 0 
15
Atoms. Timestep: 72
N 30 75 0 
N 91 65 0 
N 21 63 0 
N 16 68 0 
N 32 72 0 
O 61 67 0 
O 61 59 0 
O 31 74 0 
O 68 15 0 
O 39 21 0 
O 16 64 0 
O 40 21 0 
O 84 66 0 
O 70 15 0 
O 70 4 0 
15
Atoms. Timestep: 73
N 31 75 0 
N 90 65 0 
N 20 63 0 
N 16 67 0 
N 32 73 0 
O 60 67 0 
O 60 59 0 
O 31 73 0 
O 68 16 0 
O 39 22 0 
O 16 63 0 
O 40 22 0 
O 83 66 0 
O 69 15 0 
O 70 5 0 
14
Atoms. Timestep: 74
N 31 76 0 
N 89 65 0 
N 19 63 0 
N 16 66 0 
N 31 73 0 
O 59 67 0 
O 59 59 0 
O 68 16 0 
O 39 21 0 
O 15 63 0 
O 40 23 0 
O 82 66 0 
O 68 15 0 
O 70 6 0 
14
Atoms. Timestep: 75
N 31 77 0 
N 88 65 0 
N 20 63 0 
N 16 65 0 
N 31 72 0 
O 60 67 0 
O 58 59 0 
O 68 16 0 
O 39 22 0 
O 15 62 0 
O 40 22 0 
O 81 66 0 
O 68 15 0 
O 70 7 0 
14
Atoms. Timestep: 76
N 31 78 0 
N 87 65 0 
N 21 63 0 
N 16 64 0 
N 31 71 0 
O 59 67 0 
O 57 59 0 
O 68 15 0 
O 39 23 0 
O 15 61 0 
O 40 23 0 
O 80 66 0 
O 69 15 0 
O 70 8 0 
14
Atoms. Timestep: 77
N 31 79 0 
N 86 65 0 
N 22 63 0 
N 16 63 0 
N 31 70 0 
O 58 67 0 
O 58 59 0 
O 69 15 0 
O 39 22 0 
O 15 60 0 
O 40 22 0 
O 79 66 0 
O 70 15 0 
O 70 9 0 
14
Atoms. Timestep: 78
N 31 80 0 
N 85 65 0 
N 23 63 0 
N 16 62 0 
N 31 69 0 
O 57 67 0 
O 57 59 0 
O 70 15 0 
O 39 23 0 
O 15 59 0 
O 40 23 0 
O 78 66 0 
O 71 15 0 
O 70 10 0 
14
Atoms. Timestep: 79
N 31 81 0 
N 84 65 0 
N 24 63 0 
N 16 61 0 
N 32 69 0 
O 58 67 0 
O 58 59 0 
O 70 15 0 
O 39 24 0 
O 15 58 0 
O 40 24 0 
O 77 66 0 
O 71 15 0 
O 70 11 0 
14
Atoms. Timestep: 80
N 31 82 0 
N 83 65 0 
N 25 63 0 
N 16 60 0 
N 33 69 0 
O 57 67 0 
O 57 59 0 
O 71 15 0 
O 39 23 0 
O 15 57 0 
O 40 23 0 
O 76 66 0 
O 72 15 0 
O 70 12 0 
14
Atoms. Timestep: 81
N 31 83 0 
N 82 65 0 
N 26 63 0 
N 16 59 0 
N 34 69 0 
O 58 67 0 
O 56 59 0 
O 71 15 0 
O 39 24 0 
O 15 56 0 
O 40 24 0 
O 75 66 0 
O 72 15 0 
O 71 12 0 
14
Atoms. Timestep: 82
N 31 84 0 
N 81 65 0 
N 25 63 0 
N 16 58 0 
N 35 69 0 
O 57 67 0 
O 57 59 0 
O 71 15 0 
O 39 25 0 
O 15 55 0 
O 40 25 0 
O 74 66 0 
O 72 15 0 
O 72 12 0 
14
Atoms. Timestep: 83
N 31 85 0 
N 80 65 0 
N 26 63 0 
N 16 57 0 
N 36 69 0 
O 58 67 0 
O 56 59 0 
O 72 15 0 
O 39 24 0 
O 15 54 0 
O 40 24 0 
O 73 66 0 
O 73 15 0 
O 72 13 0 
14
Atoms. Timestep: 84
N 31 86 0 
N 79 65 0 
N 27 63 0 
N 16 56 0 
N 37 69 0 
O 57 67 0 
O 57 59 0 
O 72 15 0 
O 39 25 0 
O 15 53 0 
O 40 25 0 
O 72 66 0 
O 73 15 0 
O 72 14 0 
14
Atoms. Timestep: 85
N 31 87 0 
N 78 65 0 
N 26 63 0 
N 16 55 0 
N 38 69 0 
O 58 67 0 
O 56 59 0 
O 73 15 0 
O 39 24 0 
O 15 52 0 
O 40 24 0 
O 71 66 0 
O 74 15 0 
O 73 14 0 
14
Atoms. Timestep: 86
N 31 88 0 
N 77 65 0 
N 27 63 0 
N 16 54 0 
N 39 69 0 
O 57 67 0 
O 57 59 0 
O 74 15 0 
O 39 25 0 
O 15 51 0 
O 40 25 0 
O 70 66 0 
O 75 15 0 
O 74 14 0 
14
Atoms. Timestep: 87
N 31 89 0 
N 76 65 0 
N 28 63 0 
N 16 53 0 
N 40 69 0 
O 58 67 0 
O 56 59 0 
O 74 15 0 
O 39 26 0 
O 15 50 0 
O 40 24 0 
O 69 66 0 
O 75 15 0 
O 75 14 0 
14
Atoms. Timestep: 88
N 31 90 0 
N 75 65 0 
N 27 63 0 
N 16 52 0 
N 40 70 0 
O 57 67 0 
O 55 59 0 
O 75 15 0 
O 39 25 0 
O 15 49 0 
O 40 25 0 
O 68 66 0 
O 76 15 0 
O 75 14 0 
14
Atoms. Timestep: 89
N 31 91 0 
N 74 65 0 
N 26 63 0 
N 16 51 0 
N 41 70 0 
O 58 67 0 
O 56 59 0 
O 76 15 0 
O 39 26 0 
O 15 48 0 
O 40 26 0 
O 67 66 0 
O 77 15 0 
O 76 14 0 
14
Atoms. Timestep: 90
N 31 92 0 
N 73 65 0 
N 26 64 0 
N 17 51 0 
N 42 70 0 
O 57 67 0 
O 57 59 0 
O 77 15 0 
O 39 25 0 
O 15 47 0 
O 40 25 0 
O 66 66 0 
O 78 15 0 
O 76 14 0 
14
Atoms. Timestep: 91
N 31 93 0 
N 72 65 0 
N 26 63 0 
N 17 50 0 
N 43 70 0 
O 58 67 0 
O 56 59 0 
O 78 15 0 
O 39 26 0 
O 15 46 0 
O 40 26 0 
O 65 66 0 
O 79 15 0 
O 77 14 0 
14
Atoms. Timestep: 92
N 31 94 0 
N 71 65 0 
N 26 64 0 
N 17 49 0 
N 44 70 0 
O 57 67 0 
O 55 59 0 
O 79 15 0 
O 39 25 0 
O 15 45 0 
O 40 25 0 
O 64 66 0 
O 80 15 0 
O 77 15 0 
14
Atoms. Timestep: 93
N 31 95 0 
N 70 65 0 
N 26 65 0 
N 17 48 0 
N 45 70 0 
O 58 67 0 
O 55 58 0 
O 79 15 0 
O 39 26 0 
O 15 44 0 
O 40 26 0 
O 63 66 0 
O 80 15 0 
O 78 15 0 
14
Atoms. Timestep: 94
N 31 96 0 
N 69 65 0 
N 26 66 0 
N 17 47 0 
N 46 70 0 
O 57 67 0 
O 54 58 0 
O 79 15 0 
O 40 26 0 
O 15 43 0 
O 40 27 0 
O 62 66 0 
O 80 15 0 
O 78 15 0 
14
Atoms. Timestep: 95
N 31 97 0 
N 68 65 0 
N 26 67 0 
N 17 46 0 
N 47 70 0 
O 58 67 0 
O 54 57 0 
O 78 15 0 
O 40 27 0 
O 15 42 0 
O 41 27 0 
O 61 66 0 
O 80 15 0 
O 77 15 0 
14
Atoms. Timestep: 96
N 31 98 0 
N 67 65 0 
N 25 67 0 
N 17 45 0 
N 48 70 0 
O 57 67 0 
O 54 56 0 
O 78 15 0 
O 41 27 0 
O 15 41 0 
O 41 28 0 
O 60 66 0 
O 79 15 0 
O 77 15 0 
14
Atoms. Timestep: 97
N 31 99 0 
N 66 65 0 
N 25 68 0 
N 17 44 0 
N 49 70 0 
O 58 67 0 
O 54 55 0 
O 78 15 0 
O 41 28 0 
O 15 40 0 
O 42 28 0 
O 59 66 0 
O 79 15 0 
O 77 15 0 
14
Atoms. Timestep: 98
N 31 0 0 
N 65 65 0 
N 24 68 0 
N 17 43 0 
N 50 70 0 
O 57 67 0 
O 53 55 0 
O 78 15 0 
O 42 28 0 
O 15 39 0 
O 43 28 0 
O 58 66 0 
O 79 15 0 
O 77 15 0 
14
Atoms. Timestep: 99
N 31 1 0 
N 64 65 0 
N 24 69 0 
N 17 42 0 
N 51 70 0 
O 58 67 0 
O 52 55 0 
O 78 15 0 
O 43 28 0 
O 15 38 0 
O 43 29 0 
O 57 66 0 
O 79 15 0 
O 77 15 0 
14
Atoms. Timestep: 100
N 31 2 0 
N 63 65 0 
N 24 70 0 
N 17 41 0 
N 52 70 0 
O 57 67 0 
O 51 55 0 
O 78 15 0 
O 43 29 0 
O 15 37 0 
O 44 29 0 
O 56 66 0 
O 79 15 0 
O 77 15 0 
14
Atoms. Timestep: 101
N 31 3 0 
N 62 65 0 
N 23 70 0 
N 17 40 0 
N 53 70 0 
O 56 67 0 
O 50 55 0 
O 78 15 0 
O 43 30 0 
O 15 36 0 
O 44 30 0 
O 56 65 0 
O 79 15 0 
O 77 15 0 
14
Atoms. Timestep: 102
N 31 4 0 
N 61 65 0 
N 22 70 0 
N 17 39 0 
N 53 69 0 
O 57 67 0 
O 49 55 0 
O 77 15 0 
O 44 30 0 
O 15 35 0 
O 45 30 0 
O 55 65 0 
O 79 15 0 
O 76 15 0 
14
Atoms. Timestep: 103
N 31 5 0 
N 60 65 0 
N 23 70 0 
N 17 38 0 
N 54 69 0 
O 56 67 0 
O 48 55 0 
O 77 15 0 
O 44 31 0 
O 15 34 0 
O 45 31 0 
O 55 64 0 
O 78 15 0 
O 76 15 0 
14
Atoms. Timestep: 104
N 31 6 0 
N 59 65 0 
N 24 70 0 
N 17 37 0 
N 55 69 0 
O 56 66 0 
O 47 55 0 
O 77 15 0 
O 45 31 0 
O 15 33 0 
O 45 32 0 
O 54 64 0 
O 78 15 0 
O 76 15 0 
14
Atoms. Timestep: 105
N 31 7 0 
N 58 65 0 
N 25 70 0 
N 17 36 0 
N 55 68 0 
O 55 66 0 
O 46 55 0 
O 77 15 0 
O 45 32 0 
O 15 32 0 
O 45 33 0 
O 53 64 0 
O 78 15 0 
O 76 15 0 
14
Atoms. Timestep: 106
N 31 8 0 
N 59 65 0 
N 26 70 0 
N 17 35 0 
N 55 67 0 
O 55 65 0 
O 46 54 0 
O 77 15 0 
O 45 33 0 
O 15 31 0 
O 45 34 0 
O 53 63 0 
O 78 15 0 
O 76 15 0 
14
Atoms. Timestep: 107
N 31 9 0 
N 60 65 0 
N 27 70 0 
N 17 34 0 
N 55 66 0 
O 55 64 0 
O 46 53 0 
O 77 15 0 
O 45 34 0 
O 15 30 0 
O 45 35 0 
O 53 62 0 
O 78 15 0 
O 76 15 0 
14
Atoms. Timestep: 108
N 31 10 0 
N 61 65 0 
N 28 70 0 
N 17 33 0 
N 55 65 0 
O 55 63 0 
O 46 52 0 
O 76 15 0 
O 45 35 0 
O 15 29 0 
O 45 36 0 
O 53 61 0 
O 78 15 0 
O 75 15 0 
14
Atoms. Timestep: 109
N 31 11 0 
N 62 65 0 
N 28 69 0 
N 17 32 0 
N 55 64 0 
O 55 62 0 
O 46 51 0 
O 76 15 0 
O 45 36 0 
O 15 28 0 
O 45 37 0 
O 53 60 0 
O 77 15 0 
O 75 15 0 
14
Atoms. Timestep: 110
N 31 12 0 
N 63 65 0 
N 28 68 0 
N 17 31 0 
N 55 63 0 
O 55 61 0 
O 46 50 0 
O 76 15 0 
O 45 36 0 
O 15 27 0 
O 45 37 0 
O 53 59 0 
O 77 15 0 
O 75 15 0 
14
Atoms. Timestep: 111
N 30 12 0 
N 64 65 0 
N 28 67 0 
N 17 30 0 
N 55 62 0 
O 55 60 0 
O 46 49 0 
O 75 15 0 
O 45 35 0 
O 15 26 0 
O 45 37 0 
O 53 58 0 
O 77 15 0 
O 74 15 0 
14
Atoms. Timestep: 112
N 29 12 0 
N 65 65 0 
N 29 67 0 
N 17 29 0 
N 55 61 0 
O 55 59 0 
O 46 48 0 
O 75 15 0 
O 45 34 0 
O 15 25 0 
O 45 36 0 
O 53 57 0 
O 76 15 0 
O 74 15 0 
14
Atoms. Timestep: 113
N 28 12 0 
N 66 65 0 
N 29 66 0 
N 17 28 0 
N 55 60 0 
O 55 58 0 
O 46 47 0 
O 74 15 0 
O 45 34 0 
O 15 24 0 
O 45 35 0 
O 53 56 0 
O 76 15 0 
O 73 15 0 
14
Atoms. Timestep: 114
N 27 12 0 
N 67 65 0 
N 29 65 0 
N 17 27 0 
N 55 59 0 
O 55 57 0 
O 46 46 0 
O 73 15 0 
O 45 33 0 
O 15 23 0 
O 45 35 0 
O 53 55 0 
O 75 15 0 
O 72 15 0 
14
Atoms. Timestep: 115
N 26 12 0 
N 68 65 0 
N 29 64 0 
N 17 26 0 
N 55 58 0 
O 55 56 0 
O 46 45 0 
O 73 15 0 
O 45 32 0 
O 15 22 0 
O 45 34 0 
O 53 54 0 
O 74 15 0 
O 72 15 0 
14
Atoms. Timestep: 116
N 25 12 0 
N 69 65 0 
N 29 63 0 
N 17 25 0 
N 55 57 0 
O 55 55 0 
O 46 44 0 
O 72 15 0 
O 45 31 0 
O 15 21 0 
O 45 33 0 
O 53 53 0 
O 74 15 0 
O 72 14 0 
14
Atoms. Timestep: 117
N 24 12 0 
N 70 65 0 
N 29 62 0 
N 17 24 0 
N 55 56 0 
O 55 54 0 
O 46 43 0 
O 72 14 0 
O 45 30 0 
O 15 20 0 
O 45 32 0 
O 53 52 0 
O 73 15 0 
O 72 13 0 
14
Atoms. Timestep: 118
N 23 12 0 
N 71 65 0 
N 29 61 0 
N 17 23 0 
N 55 55 0 
O 55 53 0 
O 46 42 0 
O 72 13 0 
O 45 29 0 
O 15 19 0 
O 45 31 0 
O 53 51 0 
O 73 14 0 
O 72 12 0 
14
Atoms. Timestep: 119
N 22 12 0 
N 72 65 0 
N 29 60 0 
N 17 22 0 
N 55 54 0 
O 55 52 0 
O 46 41 0 
O 72 12 0 
O 45 28 0 
O 15 18 0 
O 45 30 0 
O 53 50 0 
O 73 13 0 
O 72 11 0 
14
Atoms. Timestep: 120
N 21 12 0 
N 73 65 0 
N 29 59 0 
N 17 21 0 
N 55 53 0 
O 55 51 0 
O 46 40 0 
O 72 11 0 
O 45 27 0 
O 15 17 0 
O 45 29 0 
O 53 49 0 
O 73 12 0 
O 72 10 0 
14
Atoms. Timestep: 121
N 20 12 0 
N 74 65 0 
N 29 58 0 
N 17 20 0 
N 55 52 0 
O 55 50 0 
O 46 39 0 
O 72 11 0 
O 45 26 0 
O 15 16 0 
O 45 28 0 
O 53 48 0 
O 73 11 0 
O 72 10 0 
14
Atoms. Timestep: 122
N 19 12 0 
N 75 65 0 
N 29 57 0 
N 17 19 0 
N 55 51 0 
O 55 49 0 
O 46 38 0 
O 72 10 0 
O 45 25 0 
O 15 15 0 
O 45 27 0 
O 53 47 0 
O 73 10 0 
O 72 9 0 
14
Atoms. Timestep: 123
N 18 12 0 
N 76 65 0 
N 29 56 0 
N 17 18 0 
N 55 50 0 
O 55 48 0 
O 46 37 0 
O 72 10 0 
O 45 24 0 
O 15 14 0 
O 45 26 0 
O 53 46 0 
O 73 9 0 
O 72 9 0 
14
Atoms. Timestep: 124
N 17 12 0 
N 77 65 0 
N 29 55 0 
N 17 17 0 
N 55 49 0 
O 55 47 0 
O 46 36 0 
O 72 9 0 
O 45 23 0 
O 15 15 0 
O 45 25 0 
O 53 45 0 
O 73 8 0 
O 72 8 0 
14
Atoms. Timestep: 125
N 17 13 0 
N 78 65 0 
N 29 54 0 
N 17 16 0 
N 55 48 0 
O 55 46 0 
O 46 35 0 
O 72 9 0 
O 45 22 0 
O 15 16 0 
O 45 24 0 
O 53 44 0 
O 73 9 0 
O 72 8 0 
14
Atoms. Timestep: 126
N 17 12 0 
N 79 65 0 
N 29 53 0 
N 16 16 0 
N 55 47 0 
O 55 45 0 
O 46 34 0 
O 72 8 0 
O 45 21 0 
O 14 16 0 
O 45 23 0 
O 53 43 0 
O 73 8 0 
O 72 7 0 
14
Atoms. Timestep: 127
N 17 11 0 
N 80 65 0 
N 29 52 0 
N 15 16 0 
N 55 46 0 
O 55 44 0 
O 46 33 0 
O 72 8 0 
O 45 20 0 
O 13 16 0 
O 45 22 0 
O 53 42 0 
O 73 8 0 
O 72 7 0 
14
Atoms. Timestep: 128
N 17 10 0 
N 81 65 0 
N 29 51 0 
N 14 16 0 
N 55 45 0 
O 55 43 0 
O 46 32 0 
O 72 7 0 
O 45 19 0 
O 12 16 0 
O 45 21 0 
O 53 41 0 
O 73 8 0 
O 72 6 0 
14
Atoms. Timestep: 129
N 17 9 0 
N 82 65 0 
N 29 50 0 
N 13 16 0 
N 55 44 0 
O 55 42 0 
O 46 31 0 
O 72 6 0 
O 45 18 0 
O 11 16 0 
O 45 20 0 
O 53 40 0 
O 72 8 0 
O 72 5 0 
14
Atoms. Timestep: 130
N 17 8 0 
N 83 65 0 
N 29 49 0 
N 12 16 0 
N 55 43 0 
O 55 41 0 
O 46 30 0 
O 72 6 0 
O 45 17 0 
O 10 16 0 
O 45 19 0 
O 53 39 0 
O 72 7 0 
O 72 5 0 
14
Atoms. Timestep: 131
N 17 7 0 
N 84 65 0 
N 29 48 0 
N 11 16 0 
N 55 42 0 
O 55 40 0 
O 46 29 0 
O 72 5 0 
O 45 16 0 
O 9 16 0 
O 45 18 0 
O 53 38 0 
O 72 7 0 
O 71 5 0 
14
Atoms. Timestep: 132
N 17 6 0 
N 85 65 0 
N 29 47 0 
N 10 16 0 
N 55 41 0 
O 55 39 0 
O 46 28 0 
O 71 5 0 
O 45 15 0 
O 8 16 0 
O 45 17 0 
O 53 37 0 
O 72 6 0 
O 71 4 0 
14
Atoms. Timestep: 133
N 17 5 0 
N 86 65 0 
N 29 46 0 
N 9 16 0 
N 55 40 0 
O 55 38 0 
O 46 27 0 
O 71 4 0 
O 45 14 0 
O 7 16 0 
O 45 16 0 
O 53 36 0 
O 71 6 0 
O 70 4 0 
14
Atoms. Timestep: 134
N 17 4 0 
N 87 65 0 
N 29 45 0 
N 8 16 0 
N 55 39 0 
O 55 37 0 
O 46 26 0 
O 70 4 0 
O 45 13 0 
O 6 16 0 
O 45 15 0 
O 53 35 0 
O 71 5 0 
O 70 3 0 
14
Atoms. Timestep: 135
N 17 3 0 
N 88 65 0 
N 29 44 0 
N 7 16 0 
N 55 38 0 
O 55 36 0 
O 46 25 0 
O 70 3 0 
O 45 12 0 
O 5 16 0 
O 45 14 0 
O 53 34 0 
O 71 4 0 
O 70 2 0 
14
Atoms. Timestep: 136
N 17 2 0 
N 88 66 0 
N 29 43 0 
N 6 16 0 
N 55 37 0 
O 55 35 0 
O 46 24 0 
O 70 2 0 
O 45 11 0 
O 4 16 0 
O 45 13 0 
O 53 33 0 
O 71 3 0 
O 69 2 0 
14
Atoms. Timestep: 137
N 17 1 0 
N 88 67 0 
N 29 42 0 
N 5 16 0 
N 55 36 0 
O 55 34 0 
O 46 23 0 
O 69 2 0 
O 45 10 0 
O 3 16 0 
O 45 12 0 
O 53 32 0 
O 70 3 0 
O 69 1 0 
14
Atoms. Timestep: 138
N 17 0 0 
N 88 68 0 
N 29 41 0 
N 4 16 0 
N 55 35 0 
O 55 33 0 
O 46 22 0 
O 69 1 0 
O 45 9 0 
O 2 16 0 
O 45 11 0 
O 53 31 0 
O 70 2 0 
O 69 0 0 
14
Atoms. Timestep: 139
N 17 99 0 
N 88 69 0 
N 29 40 0 
N 3 16 0 
N 55 34 0 
O 55 32 0 
O 46 21 0 
O 69 1 0 
O 45 8 0 
O 1 16 0 
O 45 10 0 
O 53 30 0 
O 69 2 0 
O 69 0 0 
14
Atoms. Timestep: 140
N 17 98 0 
N 88 70 0 
N 29 39 0 
N 2 16 0 
N 55 33 0 
O 55 31 0 
O 46 20 0 
O 69 1 0 
O 45 7 0 
O 0 16 0 
O 45 9 0 
O 53 29 0 
O 69 2 0 
O 69 0 0 
14
Atoms. Timestep: 141
N 17 97 0 
N 88 71 0 
N 29 38 0 
N 1 16 0 
N 55 32 0 
O 55 30 0 
O 46 19 0 
O 69 1 0 
O 45 6 0 
O 99 16 0 
O 45 8 0 
O 53 28 0 
O 69 2 0 
O 69 0 0 
14
Atoms. Timestep: 142
N 17 96 0 
N 88 72 0 
N 29 37 0 
N 0 16 0 
N 55 31 0 
O 55 29 0 
O 46 18 0 
O 69 1 0 
O 45 5 0 
O 98 16 0 
O 45 7 0 
O 53 27 0 
O 69 2 0 
O 69 0 0 
14
Atoms. Timestep: 143
N 17 95 0 
N 88 73 0 
N 29 36 0 
N 99 16 0 
N 55 30 0 
O 55 28 0 
O 46 17 0 
O 69 1 0 
O 45 4 0 
O 97 16 0 
O 45 6 0 
O 53 26 0 
O 69 2 0 
O 69 0 0 
14
Atoms. Timestep: 144
N 17 94 0 
N 88 74 0 
N 29 35 0 
N 98 16 0 
N 55 29 0 
O 55 27 0 
O 46 16 0 
O 69 1 0 
O 45 3 0 
O 96 16 0 
O 45 5 0 
O 53 25 0 
O 69 2 0 
O 69 0 0 
14
Atoms. Timestep: 145
N 17 93 0 
N 88 75 0 
N 29 34 0 
N 97 16 0 
N 55 28 0 
O 55 26 0 
O 46 15 0 
O 69 1 0 
O 45 2 0 
O 95 16 0 
O 45 4 0 
O 53 24 0 
O 69 2 0 
O 69 0 0 
14
Atoms. Timestep: 146
N 18 93 0 
N 88 76 0 
N 29 33 0 
N 96 16 0 
N 55 27 0 
O 55 25 0 
O 46 14 0 
O 69 1 0 
O 45 1 0 
O 94 16 0 
O 45 3 0 
O 53 23 0 
O 69 2 0 
O 69 0 0 
14
Atoms. Timestep: 147
N 19 93 0 
N 88 77 0 
N 29 32 0 
N 95 16 0 
N 55 26 0 
O 55 24 0 
O 46 13 0 
O 69 1 0 
O 45 0 0 
O 93 16 0 
O 45 2 0 
O 53 22 0 
O 69 2 0 
O 69 0 0 
14
Atoms. Timestep: 148
N 20 93 0 
N 88 78 0 
N 29 31 0 
N 94 16 0 
N 55 25 0 
O 55 23 0 
O 46 12 0 
O 69 0 0 
O 46 0 0 
O 92 16 0 
O 45 1 0 
O 53 21 0 
O 69 2 0 
O 69 99 0 
14
Atoms. Timestep: 149
N 21 93 0 
N 88 79 0 
N 29 30 0 
N 93 16 0 
N 55 24 0 
O 55 22 0 
O 46 11 0 
O 69 0 0 
O 47 0 0 
O 91 16 0 
O 46 1 0 
O 53 20 0 
O 69 1 0 
O 69 99 0 
14
Atoms. Timestep: 150
N 22 93 0 
N 88 80 0 
N 29 29 0 
N 92 16 0 
N 55 23 0 
O 55 21 0 
O 46 10 0 
O 69 0 0 
O 47 99 0 
O 90 16 0 
O 46 0 0 
O 53 19 0 
O 69 1 0 
O 69 99 0 
14
Atoms. Timestep: 151
N 23 93 0 
N 87 80 0 
N 29 28 0 
N 91 16 0 
N 55 22 0 
O 55 20 0 
O 46 9 0 
O 69 0 0 
O 48 99 0 
O 89 16 0 
O 46 99 0 
O 53 18 0 
O 69 1 0 
O 69 99 0 
14
Atoms. Timestep: 152
N 24 93 0 
N 87 81 0 
N 29 27 0 
N 90 16 0 
N 55 21 0 
O 55 19 0 
O 46 8 0 
O 69 0 0 
O 48 98 0 
O 88 16 0 
O 47 99 0 
O 53 17 0 
O 69 1 0 
O 69 99 0 
14
Atoms. Timestep: 153
N 25 93 0 
N 87 82 0 
N 29 26 0 
N 89 16 0 
N 55 20 0 
O 55 18 0 
O 46 7 0 
O 69 99 0 
O 49 98 0 
O 87 16 0 
O 48 99 0 
O 53 16 0 
O 69 1 0 
O 68 99 0 
14
Atoms. Timestep: 154
N 26 93 0 
N 86 82 0 
N 29 25 0 
N 88 16 0 
N 55 19 0 
O 55 17 0 
O 46 6 0 
O 68 99 0 
O 49 97 0 
O 86 16 0 
O 48 98 0 
O 53 15 0 
O 69 0 0 
O 68 98 0 
14
Atoms. Timestep: 155
N 27 93 0 
N 85 82 0 
N 29 24 0 
N 87 16 0 
N 55 18 0 
O 55 16 0 
O 46 5 0 
O 68 98 0 
O 49 96 0 
O 85 16 0 
O 49 98 0 
O 53 14 0 
O 69 99 0 
O 67 98 0 
14
Atoms. Timestep: 156
N 28 93 0 
N 84 82 0 
N 29 23 0 
N 86 16 0 
N 55 17 0 
O 55 15 0 
O 46 4 0 
O 67 98 0 
O 50 96 0 
O 84 16 0 
O 49 97 0 
O 53 13 0 
O 69 0 0 
O 67 97 0 
14
Atoms. Timestep: 157
N 29 93 0 
N 83 82 0 
N 29 22 0 
N 85 16 0 
N 55 16 0 
O 55 14 0 
O 46 3 0 
O 67 97 0 
O 50 95 0 
O 83 16 0 
O 49 96 0 
O 53 12 0 
O 69 99 0 
O 66 97 0 
14
Atoms. Timestep: 158
N 30 93 0 
N 82 82 0 
N 29 21 0 
N 84 16 0 
N 55 15 0 
O 55 13 0 
O 46 2 0 
O 66 97 0 
O 51 95 0 
O 82 16 0 
O 50 96 0 
O 53 11 0 
O 69 0 0 
O 65 97 0 
14
Atoms. Timestep: 159
N 31 93 0 
N 81 82 0 
N 29 20 0 
N 83 16 0 
N 55 14 0 
O 55 12 0 
O 46 1 0 
O 66 96 0 
O 51 94 0 
O 81 16 0 
O 50 95 0 
O 53 10 0 
O 69 99 0 
O 65 96 0 
14
Atoms. Timestep: 160
N 32 93 0 
N 80 82 0 
N 29 19 0 
N 82 16 0 
N 55 13 0 
O 55 11 0 
O 46 0 0 
O 65 96 0 
O 52 94 0 
O 80 16 0 
O 51 95 0 
O 53 9 0 
O 70 99 0 
O 65 95 0 
14
Atoms. Timestep: 161
N 33 93 0 
N 80 83 0 
N 29 18 0 
N 81 16 0 
N 55 12 0 
O 55 10 0 
O 47 0 0 
O 65 95 0 
O 52 93 0 
O 79 16 0 
O 51 94 0 
O 53 8 0 
O 70 0 0 
O 64 95 0 
14
Atoms. Timestep: 162
N 34 93 0 
N 79 83 0 
N 29 19 0 
N 80 16 0 
N 55 11 0 
O 55 9 0 
O 47 99 0 
O 64 95 0 
O 53 93 0 
O 78 16 0 
O 52 94 0 
O 53 7 0 
O 70 99 0 
O 64 94 0 
14
Atoms. Timestep: 163
N 35 93 0 
N 79 84 0 
N 29 20 0 
N 79 16 0 
N 55 10 0 
O 55 8 0 
O 48 99 0 
O 64 94 0 
O 53 92 0 
O 77 16 0 
O 52 93 0 
O 53 6 0 
O 70 0 0 
O 63 94 0 
14
Atoms. Timestep: 164
N 36 93 0 
N 78 84 0 
N 29 21 0 
N 78 16 0 
N 55 9 0 
O 55 7 0 
O 48 98 0 
O 63 94 0 
O 54 92 0 
O 76 16 0 
O 53 93 0 
O 53 5 0 
O 70 1 0 
O 63 93 0 
14
Atoms. Timestep: 165
N 37 93 0 
N 77 84 0 
N 29 22 0 
N 77 16 0 
N 55 8 0 
O 55 6 0 
O 49 98 0 
O 63 93 0 
O 54 91 0 
O 75 16 0 
O 53 92 0 
O 53 4 0 
O 70 0 0 
O 62 93 0 
14
Atoms. Timestep: 166
N 38 93 0 
N 76 84 0 
N 29 23 0 
N 76 16 0 
N 55 7 0 
O 55 5 0 
O 49 97 0 
O 62 93 0 
O 55 91 0 
O 74 16 0 
O 54 92 0 
O 53 3 0 
O 71 0 0 
O 62 92 0 
14
Atoms. Timestep: 167
N 39 93 0 
N 75 84 0 
N 29 24 0 
N 75 16 0 
N 55 6 0 
O 55 4 0 
O 50 97 0 
O 62 92 0 
O 55 90 0 
O 73 16 0 
O 54 91 0 
O 53 2 0 
O 71 1 0 
O 61 92 0 
14
Atoms. Timestep: 168
N 40 93 0 
N 74 84 0 
N 29 25 0 
N 74 16 0 
N 55 5 0 
O 55 3 0 
O 50 96 0 
O 61 92 0 
O 56 90 0 
O 72 16 0 
O 55 91 0 
O 53 1 0 
O 71 0 0 
O 61 91 0 
14
Atoms. Timestep: 169
N 41 93 0 
N 73 84 0 
N 29 26 0 
N 73 16 0 
N 55 4 0 
O 55 2 0 
O 51 96 0 
O 61 91 0 
O 56 89 0 
O 71 16 0 
O 55 90 0 
O 53 0 0 
O 71 1 0 
O 60 91 0 
14
Atoms. Timestep: 170
N 42 93 0 
N 72 84 0 
N 28 26 0 
N 72 16 0 
N 55 3 0 
O 55 1 0 
O 51 95 0 
O 60 91 0 
O 57 89 0 
O 70 16 0 
O 56 90 0 
O 53 99 0 
O 71 0 0 
O 59 91 0 
14
Atoms. Timestep: 171
N 43 93 0 
N 71 84 0 
N 28 27 0 
N 71 16 0 
N 55 2 0 
O 55 0 0 
O 52 95 0 
O 60 90 0 
O 57 88 0 
O 69 16 0 
O 56 89 0 
O 53 98 0 
O 71 1 0 
O 59 90 0 
14
Atoms. Timestep: 172
N 44 93 0 
N 70 84 0 
N 28 28 0 
N 70 16 0 
N 55 1 0 
O 55 99 0 
O 52 94 0 
O 59 90 0 
O 58 88 0 
O 68 16 0 
O 57 89 0 
O 53 97 0 
O 71 0 0 
O 59 89 0 
14
Atoms. Timestep: 173
N 45 93 0 
N 69 84 0 
N 28 29 0 
N 69 16 0 
N 55 0 0 
O 55 98 0 
O 52 93 0 
O 59 89 0 
O 58 88 0 
O 67 16 0 
O 57 88 0 
O 53 96 0 
O 71 1 0 
O 58 89 0 
14
Atoms. Timestep: 174
N 46 93 0 
N 68 84 0 
N 28 30 0 
N 68 16 0 
N 55 99 0 
O 55 97 0 
O 53 93 0 
O 59 89 0 
O 57 88 0 
O 66 16 0 
O 56 88 0 
O 53 95 0 
O 71 0 0 
O 58 89 0 
14
Atoms. Timestep: 175
N 47 93 0 
N 67 84 0 
N 28 29 0 
N 67 16 0 
N 55 98 0 
O 55 96 0 
O 53 92 0 
O 58 89 0 
O 57 88 0 
O 65 16 0 
O 56 88 0 
O 53 94 0 
O 71 1 0 
O 58 88 0 
14
Atoms. Timestep: 176
N 48 93 0 
N 66 84 0 
N 29 29 0 
N 66 16 0 
N 55 97 0 
O 55 95 0 
O 54 92 0 
O 58 89 0 
O 57 88 0 
O 64 16 0 
O 56 88 0 
O 53 93 0 
O 71 0 0 
O 58 88 0 
14
Atoms. Timestep: 177
N 49 93 0 
N 65 84 0 
N 30 29 0 
N 65 16 0 
N 55 96 0 
O 55 94 0 
O 54 91 0 
O 58 89 0 
O 57 88 0 
O 63 16 0 
O 56 88 0 
O 53 92 0 
O 72 0 0 
O 58 88 0 
14
Atoms. Timestep: 178
N 50 93 0 
N 64 84 0 
N 31 29 0 
N 64 16 0 
N 55 95 0 
O 55 93 0 
O 55 91 0 
O 58 89 0 
O 57 87 0 
O 62 16 0 
O 56 88 0 
O 54 92 0 
O 72 1 0 
O 58 88 0 
14
Atoms. Timestep: 179
N 51 93 0 
N 63 84 0 
N 32 29 0 
N 63 16 0 
N 55 94 0 
O 55 92 0 
O 55 90 0 
O 58 88 0 
O 57 87 0 
O 61 16 0 
O 56 87 0 
O 54 91 0 
O 72 0 0 
O 57 88 0 
14
Atoms. Timestep: 180
N 52 93 0 
N 62 84 0 
N 33 29 0 
N 62 16 0 
N 55 93 0 
O 55 92 0 
O 55 89 0 
O 58 89 0 
O 56 87 0 
O 60 16 0 
O 55 87 0 
O 55 91 0 
O 72 1 0 
O 57 88 0 
13
Atoms. Timestep: 181
N 51 93 0 
N 62 85 0 
N 34 29 0 
N 61 16 0 
N 55 92 0 
O 55 88 0 
O 58 88 0 
O 56 86 0 
O 59 16 0 
O 55 86 0 
O 55 90 0 
O 72 2 0 
O 57 87 0 
13
Atoms. Timestep: 182
N 50 93 0 
N 61 85 0 
N 35 29 0 
N 60 16 0 
N 55 91 0 
O 55 87 0 
O 58 89 0 
O 55 86 0 
O 58 16 0 
O 55 85 0 
O 55 89 0 
O 72 1 0 
O 56 87 0 
13
Atoms. Timestep: 183
N 49 93 0 
N 61 86 0 
N 36 29 0 
N 59 16 0 
N 55 90 0 
O 55 86 0 
O 59 89 0 
O 55 85 0 
O 57 16 0 
O 55 84 0 
O 55 88 0 
O 72 2 0 
O 56 86 0 
13
Atoms. Timestep: 184
N 48 93 0 
N 61 87 0 
N 37 29 0 
N 58 16 0 
N 55 89 0 
O 55 85 0 
O 58 89 0 
O 55 84 0 
O 56 16 0 
O 55 83 0 
O 55 87 0 
O 72 3 0 
O 56 85 0 
13
Atoms. Timestep: 185
N 47 93 0 
N 60 87 0 
N 36 29 0 
N 57 16 0 
N 55 88 0 
O 55 84 0 
O 58 90 0 
O 55 83 0 
O 55 16 0 
O 55 82 0 
O 55 86 0 
O 73 3 0 
O 56 84 0 
13
Atoms. Timestep: 186
N 46 93 0 
N 60 88 0 
N 35 29 0 
N 56 16 0 
N 55 87 0 
O 55 83 0 
O 58 91 0 
O 55 82 0 
O 54 16 0 
O 55 81 0 
O 55 85 0 
O 73 4 0 
O 56 83 0 
13
Atoms. Timestep: 187
N 45 93 0 
N 60 89 0 
N 34 29 0 
N 55 16 0 
N 55 86 0 
O 55 82 0 
O 58 92 0 
O 55 81 0 
O 53 16 0 
O 55 80 0 
O 55 84 0 
O 73 5 0 
O 56 82 0 
13
Atoms. Timestep: 188
N 44 93 0 
N 60 90 0 
N 34 30 0 
N 54 16 0 
N 55 85 0 
O 55 81 0 
O 57 92 0 
O 55 80 0 
O 52 16 0 
O 55 79 0 
O 55 83 0 
O 73 6 0 
O 56 81 0 
13
Atoms. Timestep: 189
N 45 93 0 
N 59 90 0 
N 35 30 0 
N 53 16 0 
N 55 84 0 
O 55 80 0 
O 56 92 0 
O 55 79 0 
O 51 16 0 
O 55 78 0 
O 55 82 0 
O 73 7 0 
O 56 80 0 
13
Atoms. Timestep: 190
N 46 93 0 
N 58 90 0 
N 36 30 0 
N 52 16 0 
N 55 83 0 
O 55 79 0 
O 56 93 0 
O 55 78 0 
O 50 16 0 
O 55 77 0 
O 55 81 0 
O 73 8 0 
O 56 79 0 
13
Atoms. Timestep: 191
N 47 93 0 
N 58 91 0 
N 37 30 0 
N 51 16 0 
N 55 82 0 
O 55 78 0 
O 56 94 0 
O 55 77 0 
O 49 16 0 
O 55 76 0 
O 55 80 0 
O 73 9 0 
O 56 78 0 
13
Atoms. Timestep: 192
N 48 93 0 
N 58 92 0 
N 37 29 0 
N 50 16 0 
N 55 81 0 
O 55 77 0 
O 55 94 0 
O 55 76 0 
O 48 16 0 
O 55 75 0 
O 55 79 0 
O 73 10 0 
O 56 77 0 
13
Atoms. Timestep: 193
N 49 93 0 
N 57 92 0 
N 37 30 0 
N 49 16 0 
N 55 80 0 
O 55 76 0 
O 55 95 0 
O 55 75 0 
O 47 16 0 
O 55 74 0 
O 55 78 0 
O 73 11 0 
O 56 76 0 
13
Atoms. Timestep: 194
N 50 93 0 
N 57 93 0 
N 37 31 0 
N 48 16 0 
N 55 79 0 
O 55 75 0 
O 54 95 0 
O 55 74 0 
O 46 16 0 
O 55 73 0 
O 55 77 0 
O 73 12 0 
O 56 75 0 
13
Atoms. Timestep: 195
N 51 93 0 
N 56 93 0 
N 37 30 0 
N 47 16 0 
N 55 78 0 
O 55 74 0 
O 54 96 0 
O 55 73 0 
O 45 16 0 
O 55 72 0 
O 55 76 0 
O 73 13 0 
O 56 74 0 
13
Atoms. Timestep: 196
N 51 94 0 
N 56 94 0 
N 37 31 0 
N 46 16 0 
N 55 77 0 
O 55 73 0 
O 54 97 0 
O 55 72 0 
O 44 16 0 
O 55 71 0 
O 55 75 0 
O 73 14 0 
O 56 73 0 
13
Atoms. Timestep: 197
N 51 95 0 
N 56 95 0 
N 37 32 0 
N 45 16 0 
N 55 76 0 
O 55 72 0 
O 53 97 0 
O 55 71 0 
O 43 16 0 
O 55 70 0 
O 55 74 0 
O 73 15 0 
O 56 72 0 
13
Atoms. Timestep: 198
N 51 96 0 
N 55 95 0 
N 37 33 0 
N 44 16 0 
N 55 75 0 
O 55 71 0 
O 54 97 0 
O 55 70 0 
O 42 16 0 
O 55 69 0 
O 55 73 0 
O 73 16 0 
O 56 71 0 
13
Atoms. Timestep: 199
N 52 96 0 
N 55 96 0 
N 37 32 0 
N 43 16 0 
N 55 74 0 
O 55 70 0 
O 53 97 0 
O 55 69 0 
O 41 16 0 
O 55 68 0 
O 55 72 0 
O 73 17 0 
O 56 70 0 
13
Atoms. Timestep: 200
N 52 97 0 
N 54 96 0 
N 37 33 0 
N 42 16 0 
N 55 73 0 
O 55 69 0 
O 54 97 0 
O 55 68 0 
O 40 16 0 
O 55 67 0 
O 55 71 0 
O 73 18 0 
O 56 69 0 
12
Atoms. Timestep: 201
N 51 97 0 
N 54 97 0 
N 37 34 0 
N 41 16 0 
N 55 72 0 
O 55 68 0 
O 55 67 0 
O 39 16 0 
O 55 66 0 
O 55 70 0 
O 73 19 0 
O 56 68 0 
12
Atoms. Timestep: 202
N 50 97 0 
N 55 97 0 
N 37 35 0 
N 40 16 0 
N 55 71 0 
O 55 67 0 
O 55 66 0 
O 38 16 0 
O 55 65 0 
O 55 69 0 
O 73 20 0 
O 56 67 0 
12
Atoms. Timestep: 203
N 49 97 0 
N 56 97 0 
N 37 36 0 
N 39 16 0 
N 55 70 0 
O 55 66 0 
O 55 65 0 
O 37 16 0 
O 55 64 0 
O 55 68 0 
O 73 21 0 
O 56 66 0 
12
Atoms. Timestep: 204
N 48 97 0 
N 57 97 0 
N 37 37 0 
N 38 16 0 
N 54 70 0 
O 55 65 0 
O 55 64 0 
O 36 16 0 
O 55 63 0 
O 55 67 0 
O 73 22 0 
O 56 65 0 
12
Atoms. Timestep: 205
N 47 97 0 
N 58 97 0 
N 37 38 0 
N 37 16 0 
N 54 69 0 
O 55 64 0 
O 55 63 0 
O 35 16 0 
O 55 62 0 
O 55 66 0 
O 73 23 0 
O 56 64 0 
12
Atoms. Timestep: 206
N 46 97 0 
N 59 97 0 
N 37 39 0 
N 36 16 0 
N 54 68 0 
O 55 63 0 
O 55 62 0 
O 34 16 0 
O 55 61 0 
O 55 65 0 
O 73 24 0 
O 56 63 0 
12
Atoms. Timestep: 207
N 45 97 0 
N 60 97 0 
N 37 40 0 
N 35 16 0 
N 54 67 0 
O 55 62 0 
O 55 61 0 
O 33 16 0 
O 55 60 0 
O 55 64 0 
O 73 25 0 
O 56 62 0 
12
Atoms. Timestep: 208
N 44 97 0 
N 61 97 0 
N 37 41 0 
N 34 16 0 
N 54 66 0 
O 55 61 0 
O 55 60 0 
O 32 16 0 
O 55 59 0 
O 55 63 0 
O 73 26 0 
O 56 61 0 
12
Atoms. Timestep: 209
N 43 97 0 
N 62 97 0 
N 37 42 0 
N 33 16 0 
N 54 65 0 
O 55 60 0 
O 55 59 0 
O 31 16 0 
O 55 58 0 
O 55 62 0 
O 73 27 0 
O 56 60 0 
12
Atoms. Timestep: 210
N 43 98 0 
N 63 97 0 
N 38 42 0 
N 32 16 0 
N 54 64 0 
O 55 59 0 
O 55 58 0 
O 30 16 0 
O 55 57 0 
O 55 61 0 
O 73 28 0 
O 56 59 0 
12
Atoms. Timestep: 211
N 42 98 0 
N 64 97 0 
N 39 42 0 
N 31 16 0 
N 54 63 0 
O 55 58 0 
O 55 57 0 
O 29 16 0 
O 55 56 0 
O 55 60 0 
O 73 29 0 
O 56 58 0 
12
Atoms. Timestep: 212
N 42 97 0 
N 65 97 0 
N 40 42 0 
N 30 16 0 
N 54 62 0 
O 55 57 0 
O 55 56 0 
O 28 16 0 
O 55 55 0 
O 55 59 0 
O 73 30 0 
O 56 57 0 
12
Atoms. Timestep: 213
N 42 96 0 
N 66 97 0 
N 41 42 0 
N 29 16 0 
N 54 61 0 
O 55 56 0 
O 55 55 0 
O 27 16 0 
O 55 54 0 
O 55 58 0 
O 73 31 0 
O 56 56 0 
12
Atoms. Timestep: 214
N 42 95 0 
N 67 97 0 
N 42 42 0 
N 28 16 0 
N 54 60 0 
O 55 55 0 
O 55 54 0 
O 26 16 0 
O 55 53 0 
O 55 57 0 
O 74 31 0 
O 56 55 0 
12
Atoms. Timestep: 215
N 42 94 0 
N 68 97 0 
N 43 42 0 
N 27 16 0 
N 54 59 0 
O 55 54 0 
O 55 53 0 
O 25 16 0 
O 55 52 0 
O 55 56 0 
O 75 31 0 
O 56 54 0 
12
Atoms. Timestep: 216
N 41 94 0 
N 69 97 0 
N 44 42 0 
N 26 16 0 
N 54 58 0 
O 55 53 0 
O 55 52 0 
O 24 16 0 
O 55 51 0 
O 55 55 0 
O 76 31 0 
O 56 53 0 
12
Atoms. Timestep: 217
N 41 93 0 
N 70 97 0 
N 45 42 0 
N 25 16 0 
N 54 57 0 
O 55 52 0 
O 55 51 0 
O 23 16 0 
O 55 50 0 
O 55 54 0 
O 77 31 0 
O 56 52 0 
12
Atoms. Timestep: 218
N 41 92 0 
N 71 97 0 
N 46 42 0 
N 24 16 0 
N 54 56 0 
O 55 51 0 
O 55 50 0 
O 22 16 0 
O 55 49 0 
O 55 53 0 
O 78 31 0 
O 56 51 0 
12
Atoms. Timestep: 219
N 41 91 0 
N 72 97 0 
N 47 42 0 
N 23 16 0 
N 54 55 0 
O 55 50 0 
O 55 49 0 
O 21 16 0 
O 55 48 0 
O 55 52 0 
O 79 31 0 
O 56 50 0 
12
Atoms. Timestep: 220
N 41 90 0 
N 73 97 0 
N 48 42 0 
N 22 16 0 
N 54 54 0 
O 55 49 0 
O 55 48 0 
O 20 16 0 
O 55 47 0 
O 55 51 0 
O 80 31 0 
O 56 49 0 
12
Atoms. Timestep: 221
N 41 89 0 
N 74 97 0 
N 49 42 0 
N 21 16 0 
N 54 53 0 
O 55 48 0 
O 55 47 0 
O 19 16 0 
O 55 46 0 
O 55 50 0 
O 81 31 0 
O 56 48 0 
12
Atoms. Timestep: 222
N 40 89 0 
N 75 97 0 
N 50 42 0 
N 20 16 0 
N 54 52 0 
O 55 47 0 
O 55 46 0 
O 18 16 0 
O 56 46 0 
O 55 49 0 
O 82 31 0 
O 56 47 0 
12
Atoms. Timestep: 223
N 40 88 0 
N 75 98 0 
N 51 42 0 
N 19 16 0 
N 54 51 0 
O 55 47 0 
O 55 46 0 
O 17 16 0 
O 56 45 0 
O 55 48 0 
O 83 31 0 
O 56 47 0 
12
Atoms. Timestep: 224
N 40 87 0 
N 75 99 0 
N 52 42 0 
N 18 16 0 
N 54 50 0 
O 55 46 0 
O 55 45 0 
O 16 16 0 
O 57 45 0 
O 55 48 0 
O 83 32 0 
O 56 46 0 
12
Atoms. Timestep: 225
N 39 87 0 
N 75 0 0 
N 53 42 0 
N 17 16 0 
N 54 49 0 
O 55 46 0 
O 55 45 0 
O 15 16 0 
O 58 45 0 
O 56 48 0 
O 84 32 0 
O 56 45 0 
12
Atoms. Timestep: 226
N 39 86 0 
N 75 1 0 
N 53 43 0 
N 16 16 0 
N 55 49 0 
O 55 47 0 
O 56 45 0 
O 14 16 0 
O 59 45 0 
O 57 48 0 
O 84 33 0 
O 57 45 0 
12
Atoms. Timestep: 227
N 38 86 0 
N 74 1 0 
N 54 43 0 
N 15 16 0 
N 55 48 0 
O 55 46 0 
O 56 46 0 
O 13 16 0 
O 60 45 0 
O 58 48 0 
O 85 33 0 
O 58 45 0 
12
Atoms. Timestep: 228
N 38 85 0 
N 74 2 0 
N 54 44 0 
N 14 16 0 
N 55 47 0 
O 55 45 0 
O 57 46 0 
O 12 16 0 
O 61 45 0 
O 59 48 0 
O 85 34 0 
O 59 45 0 
12
Atoms. Timestep: 229
N 38 84 0 
N 74 3 0 
N 55 44 0 
N 13 16 0 
N 55 46 0 
O 55 45 0 
O 57 47 0 
O 11 16 0 
O 62 45 0 
O 60 48 0 
O 86 34 0 
O 60 45 0 
11
Atoms. Timestep: 230
N 37 84 0 
N 74 4 0 
N 55 43 0 
N 12 16 0 
N 55 45 0 
O 57 48 0 
O 10 16 0 
O 63 45 0 
O 61 48 0 
O 85 34 0 
O 61 45 0 
11
Atoms. Timestep: 231
N 37 83 0 
N 74 5 0 
N 55 44 0 
N 11 16 0 
N 55 46 0 
O 58 48 0 
O 9 16 0 
O 64 45 0 
O 62 48 0 
O 85 35 0 
O 62 45 0 
11
Atoms. Timestep: 232
N 37 84 0 
N 74 6 0 
N 55 43 0 
N 10 16 0 
N 55 47 0 
O 59 48 0 
O 8 16 0 
O 65 45 0 
O 63 48 0 
O 85 36 0 
O 63 45 0 
11
Atoms. Timestep: 233
N 37 85 0 
N 74 7 0 
N 55 42 0 
N 9 16 0 
N 55 48 0 
O 60 48 0 
O 7 16 0 
O 66 45 0 
O 64 48 0 
O 86 36 0 
O 64 45 0 
11
Atoms. Timestep: 234
N 37 86 0 
N 74 8 0 
N 55 41 0 
N 8 16 0 
N 56 48 0 
O 61 48 0 
O 6 16 0 
O 67 45 0 
O 65 48 0 
O 85 36 0 
O 65 45 0 
11
Atoms. Timestep: 235
N 37 85 0 
N 74 9 0 
N 55 40 0 
N 7 16 0 
N 57 48 0 
O 62 48 0 
O 5 16 0 
O 68 45 0 
O 66 48 0 
O 85 37 0 
O 66 45 0 
11
Atoms. Timestep: 236
N 37 86 0 
N 74 10 0 
N 55 39 0 
N 6 16 0 
N 58 48 0 
O 63 48 0 
O 4 16 0 
O 69 45 0 
O 67 48 0 
O 85 38 0 
O 67 45 0 
11
Atoms. Timestep: 237
N 38 86 0 
N 75 10 0 
N 55 38 0 
N 5 16 0 
N 59 48 0 
O 64 48 0 
O 3 16 0 
O 70 45 0 
O 68 48 0 
O 86 38 0 
O 68 45 0 
11
Atoms. Timestep: 238
N 38 87 0 
N 76 10 0 
N 55 37 0 
N 4 16 0 
N 60 48 0 
O 65 48 0 
O 2 16 0 
O 71 45 0 
O 69 48 0 
O 87 38 0 
O 69 45 0 
11
Atoms. Timestep: 239
N 37 87 0 
N 77 10 0 
N 55 36 0 
N 3 16 0 
N 61 48 0 
O 66 48 0 
O 1 16 0 
O 72 45 0 
O 70 48 0 
O 87 39 0 
O 70 45 0 
11
Atoms. Timestep: 240
N 38 87 0 
N 78 10 0 
N 55 35 0 
N 2 16 0 
N 62 48 0 
O 67 48 0 
O 0 16 0 
O 73 45 0 
O 71 48 0 
O 88 39 0 
O 71 45 0 
11
Atoms. Timestep: 241
N 38 88 0 
N 79 10 0 
N 55 34 0 
N 1 16 0 
N 63 48 0 
O 68 48 0 
O 99 16 0 
O 74 45 0 
O 72 48 0 
O 88 40 0 
O 72 45 0 
11
Atoms. Timestep: 242
N 37 88 0 
N 80 10 0 
N 55 33 0 
N 0 16 0 
N 64 48 0 
O 69 48 0 
O 98 16 0 
O 75 45 0 
O 73 48 0 
O 89 40 0 
O 73 45 0 
11
Atoms. Timestep: 243
N 37 87 0 
N 81 10 0 
N 55 32 0 
N 99 16 0 
N 65 48 0 
O 70 48 0 
O 97 16 0 
O 76 45 0 
O 74 48 0 
O 90 40 0 
O 74 45 0 
11
Atoms. Timestep: 244
N 38 87 0 
N 82 10 0 
N 55 31 0 
N 98 16 0 
N 66 48 0 
O 71 48 0 
O 96 16 0 
O 77 45 0 
O 75 48 0 
O 90 41 0 
O 75 45 0 
11
Atoms. Timestep: 245
N 38 86 0 
N 83 10 0 
N 55 30 0 
N 97 16 0 
N 67 48 0 
O 72 48 0 
O 95 16 0 
O 78 45 0 
O 76 48 0 
O 91 41 0 
O 76 45 0 
11
Atoms. Timestep: 246
N 38 85 0 
N 84 10 0 
N 55 29 0 
N 96 16 0 
N 68 48 0 
O 73 48 0 
O 94 16 0 
O 79 45 0 
O 77 48 0 
O 92 41 0 
O 77 45 0 
11
Atoms. Timestep: 247
N 38 84 0 
N 85 10 0 
N 55 28 0 
N 95 16 0 
N 69 48 0 
O 74 48 0 
O 93 16 0 
O 80 45 0 
O 78 48 0 
O 93 41 0 
O 78 45 0 
11
Atoms. Timestep: 248
N 38 83 0 
N 84 10 0 
N 55 27 0 
N 94 16 0 
N 70 48 0 
O 75 48 0 
O 92 16 0 
O 81 45 0 
O 79 48 0 
O 94 41 0 
O 79 45 0 
11
Atoms. Timestep: 249
N 38 82 0 
N 83 10 0 
N 55 26 0 
N 93 16 0 
N 71 48 0 
O 76 48 0 
O 91 16 0 
O 82 45 0 
O 80 48 0 
O 95 41 0 
O 80 45 0 
11
Atoms. Timestep: 250
N 38 81 0 
N 82 10 0 
N 55 25 0 
N 92 16 0 
N 72 48 0 
O 77 48 0 
O 90 16 0 
O 83 45 0 
O 81 48 0 
O 96 41 0 
O 81 45 0 
11
Atoms. Timestep: 251
N 38 80 0 
N 81 10 0 
N 55 24 0 
N 91 16 0 
N 73 48 0 
O 78 48 0 
O 89 16 0 
O 84 45 0 
O 82 48 0 
O 97 41 0 
O 82 45 0 
11
Atoms. Timestep: 252
N 38 79 0 
N 80 10 0 
N 54 24 0 
N 90 16 0 
N 74 48 0 
O 79 48 0 
O 88 16 0 
O 85 45 0 
O 83 48 0 
O 98 41 0 
O 83 45 0 
11
Atoms. Timestep: 253
N 38 78 0 
N 79 10 0 
N 53 24 0 
N 89 16 0 
N 75 48 0 
O 80 48 0 
O 87 16 0 
O 86 45 0 
O 84 48 0 
O 99 41 0 
O 84 45 0 
11
Atoms. Timestep: 254
N 38 77 0 
N 78 10 0 
N 52 24 0 
N 88 16 0 
N 76 48 0 
O 81 48 0 
O 86 16 0 
O 87 45 0 
O 85 48 0 
O 0 41 0 
O 85 45 0 
11
Atoms. Timestep: 255
N 38 76 0 
N 77 10 0 
N 51 24 0 
N 87 16 0 
N 77 48 0 
O 82 48 0 
O 85 16 0 
O 88 45 0 
O 86 48 0 
O 1 41 0 
O 86 45 0 
11
Atoms. Timestep: 256
N 37 76 0 
N 76 10 0 
N 50 24 0 
N 86 16 0 
N 78 48 0 
O 83 48 0 
O 84 16 0 
O 89 45 0 
O 87 48 0 
O 2 41 0 
O 87 45 0 
11
Atoms. Timestep: 257
N 37 75 0 
N 75 10 0 
N 49 24 0 
N 85 16 0 
N 79 48 0 
O 84 48 0 
O 83 16 0 
O 90 45 0 
O 88 48 0 
O 3 41 0 
O 88 45 0 
11
Atoms. Timestep: 258
N 37 74 0 
N 74 10 0 
N 48 24 0 
N 84 16 0 
N 80 48 0 
O 85 48 0 
O 82 16 0 
O 91 45 0 
O 89 48 0 
O 4 41 0 
O 89 45 0 
11
Atoms. Timestep: 259
N 36 74 0 
N 73 10 0 
N 47 24 0 
N 83 16 0 
N 81 48 0 
O 86 48 0 
O 81 16 0 
O 92 45 0 
O 90 48 0 
O 5 41 0 
O 90 45 0 
11
Atoms. Timestep: 260
N 36 73 0 
N 72 10 0 
N 46 24 0 
N 82 16 0 
N 82 48 0 
O 87 48 0 
O 80 16 0 
O 93 45 0 
O 91 48 0 
O 6 41 0 
O 91 45 0 
11
Atoms. Timestep: 261
N 36 72 0 
N 71 10 0 
N 45 24 0 
N 81 16 0 
N 83 48 0 
O 88 48 0 
O 79 16 0 
O 94 45 0 
O 92 48 0 
O 7 41 0 
O 92 45 0 
11
Atoms. Timestep: 262
N 36 71 0 
N 70 10 0 
N 44 24 0 
N 80 16 0 
N 84 48 0 
O 89 48 0 
O 78 16 0 
O 95 45 0 
O 93 48 0 
O 8 41 0 
O 93 45 0 
11
Atoms. Timestep: 263
N 36 70 0 
N 69 10 0 
N 43 24 0 
N 79 16 0 
N 85 48 0 
O 90 48 0 
O 77 16 0 
O 96 45 0 
O 94 48 0 
O 9 41 0 
O 94 45 0 
11
Atoms. Timestep: 264
N 36 69 0 
N 68 10 0 
N 42 24 0 
N 78 16 0 
N 86 48 0 
O 91 48 0 
O 76 16 0 
O 97 45 0 
O 95 48 0 
O 10 41 0 
O 95 45 0 
11
Atoms. Timestep: 265
N 36 68 0 
N 67 10 0 
N 41 24 0 
N 77 16 0 
N 87 48 0 
O 92 48 0 
O 75 16 0 
O 98 45 0 
O 96 48 0 
O 11 41 0 
O 96 45 0 
11
Atoms. Timestep: 266
N 36 67 0 
N 66 10 0 
N 40 24 0 
N 76 16 0 
N 88 48 0 
O 93 48 0 
O 74 16 0 
O 99 45 0 
O 97 48 0 
O 12 41 0 
O 97 45 0 
11
Atoms. Timestep: 267
N 36 66 0 
N 65 10 0 
N 39 24 0 
N 75 16 0 
N 89 48 0 
O 94 48 0 
O 73 16 0 
O 0 45 0 
O 98 48 0 
O 13 41 0 
O 98 45 0 
11
Atoms. Timestep: 268
N 36 65 0 
N 64 10 0 
N 38 24 0 
N 74 16 0 
N 90 48 0 
O 95 48 0 
O 72 16 0 
O 1 45 0 
O 99 48 0 
O 14 41 0 
O 99 45 0 
11
Atoms. Timestep: 269
N 36 64 0 
N 63 10 0 
N 37 24 0 
N 73 16 0 
N 91 48 0 
O 96 48 0 
O 71 16 0 
O 2 45 0 
O 0 48 0 
O 15 41 0 
O 0 45 0 
11
Atoms. Timestep: 270
N 36 63 0 
N 62 10 0 
N 36 24 0 
N 72 16 0 
N 92 48 0 
O 97 48 0 
O 70 16 0 
O 3 45 0 
O 1 48 0 
O 16 41 0 
O 1 45 0 
11
Atoms. Timestep: 271
N 36 62 0 
N 61 10 0 
N 35 24 0 
N 71 16 0 
N 93 48 0 
O 98 48 0 
O 69 16 0 
O 4 45 0 
O 2 48 0 
O 17 41 0 
O 2 45 0 
11
Atoms. Timestep: 272
N 36 61 0 
N 60 10 0 
N 34 24 0 
N 70 16 0 
N 94 48 0 
O 99 48 0 
O 68 16 0 
O 5 45 0 
O 3 48 0 
O 17 42 0 
O 3 45 0 
11
Atoms. Timestep: 273
N 35 61 0 
N 59 10 0 
N 34 25 0 
N 69 16 0 
N 95 48 0 
O 0 48 0 
O 67 16 0 
O 6 45 0 
O 4 48 0 
O 18 42 0 
O 4 45 0 
11
Atoms. Timestep: 274
N 35 60 0 
N 58 10 0 
N 34 26 0 
N 68 16 0 
N 96 48 0 
O 1 48 0 
O 66 16 0 
O 7 45 0 
O 5 48 0 
O 17 42 0 
O 5 45 0 
11
Atoms. Timestep: 275
N 34 60 0 
N 57 10 0 
N 33 26 0 
N 67 16 0 
N 97 48 0 
O 2 48 0 
O 65 16 0 
O 8 45 0 
O 6 48 0 
O 18 42 0 
O 6 45 0 
11
Atoms. Timestep: 276
N 34 59 0 
N 56 10 0 
N 33 27 0 
N 66 16 0 
N 98 48 0 
O 3 48 0 
O 64 16 0 
O 9 45 0 
O 7 48 0 
O 19 42 0 
O 7 45 0 
11
Atoms. Timestep: 277
N 34 58 0 
N 55 10 0 
N 33 28 0 
N 65 16 0 
N 99 48 0 
O 4 48 0 
O 63 16 0 
O 10 45 0 
O 8 48 0 
O 19 43 0 
O 8 45 0 
11
Atoms. Timestep: 278
N 34 57 0 
N 54 10 0 
N 33 29 0 
N 64 16 0 
N 0 48 0 
O 5 48 0 
O 62 16 0 
O 11 45 0 
O 9 48 0 
O 18 43 0 
O 9 45 0 
11
Atoms. Timestep: 279
N 33 57 0 
N 53 10 0 
N 32 29 0 
N 63 16 0 
N 1 48 0 
O 6 48 0 
O 61 16 0 
O 12 45 0 
O 10 48 0 
O 19 43 0 
O 10 45 0 
11
Atoms. Timestep: 280
N 33 56 0 
N 52 10 0 
N 32 30 0 
N 62 16 0 
N 2 48 0 
O 7 48 0 
O 60 16 0 
O 13 45 0 
O 11 48 0 
O 20 43 0 
O 11 45 0 
11
Atoms. Timestep: 281
N 32 56 0 
N 51 10 0 
N 32 31 0 
N 61 16 0 
N 3 48 0 
O 8 48 0 
O 59 16 0 
O 14 45 0 
O 12 48 0 
O 20 44 0 
O 12 45 0 
11
Atoms. Timestep: 282
N 32 55 0 
N 50 10 0 
N 32 32 0 
N 60 16 0 
N 4 48 0 
O 9 48 0 
O 58 16 0 
O 15 45 0 
O 13 48 0 
O 19 44 0 
O 13 45 0 
11
Atoms. Timestep: 283
N 31 55 0 
N 49 10 0 
N 31 32 0 
N 59 16 0 
N 5 48 0 
O 10 48 0 
O 57 16 0 
O 16 45 0 
O 14 48 0 
O 20 44 0 
O 14 45 0 
11
Atoms. Timestep: 284
N 31 54 0 
N 48 10 0 
N 31 33 0 
N 58 16 0 
N 6 48 0 
O 11 48 0 
O 56 16 0 
O 17 45 0 
O 15 48 0 
O 19 44 0 
O 15 45 0 
11
Atoms. Timestep: 285
N 30 54 0 
N 47 10 0 
N 30 33 0 
N 57 16 0 
N 7 48 0 
O 12 48 0 
O 55 16 0 
O 18 45 0 
O 16 48 0 
O 20 44 0 
O 16 45 0 
11
Atoms. Timestep: 286
N 29 54 0 
N 46 10 0 
N 30 34 0 
N 56 16 0 
N 8 48 0 
O 13 48 0 
O 54 16 0 
O 19 45 0 
O 17 48 0 
O 21 44 0 
O 17 45 0 
11
Atoms. Timestep: 287
N 29 53 0 
N 45 10 0 
N 30 35 0 
N 55 16 0 
N 9 48 0 
O 14 48 0 
O 53 16 0 
O 20 45 0 
O 18 48 0 
O 21 43 0 
O 18 45 0 
11
Atoms. Timestep: 288
N 28 53 0 
N 44 10 0 
N 29 35 0 
N 54 16 0 
N 10 48 0 
O 15 48 0 
O 52 16 0 
O 21 45 0 
O 19 48 0 
O 20 43 0 
O 19 45 0 
11
Atoms. Timestep: 289
N 28 52 0 
N 43 10 0 
N 29 36 0 
N 53 16 0 
N 11 48 0 
O 16 48 0 
O 51 16 0 
O 21 45 0 
O 20 48 0 
O 21 43 0 
O 20 45 0 
11
Atoms. Timestep: 290
N 27 52 0 
N 42 10 0 
N 28 36 0 
N 52 16 0 
N 12 48 0 
O 17 48 0 
O 50 16 0 
O 21 45 0 
O 19 48 0 
O 21 44 0 
O 20 45 0 
11
Atoms. Timestep: 291
N 26 52 0 
N 41 10 0 
N 28 37 0 
N 51 16 0 
N 13 48 0 
O 18 48 0 
O 49 16 0 
O 21 44 0 
O 20 48 0 
O 22 44 0 
O 20 45 0 
11
Atoms. Timestep: 292
N 25 52 0 
N 40 10 0 
N 28 38 0 
N 50 16 0 
N 14 48 0 
O 18 48 0 
O 48 16 0 
O 21 43 0 
O 19 48 0 
O 22 43 0 
O 21 45 0 
11
Atoms. Timestep: 293
N 24 52 0 
N 39 10 0 
N 27 38 0 
N 49 16 0 
N 15 48 0 
O 19 48 0 
O 47 16 0 
O 20 43 0 
O 20 48 0 
O 22 44 0 
O 22 45 0 
11
Atoms. Timestep: 294
N 23 52 0 
N 38 10 0 
N 27 39 0 
N 48 16 0 
N 16 48 0 
O 20 48 0 
O 46 16 0 
O 20 42 0 
O 21 48 0 
O 21 44 0 
O 23 45 0 
11
Atoms. Timestep: 295
N 23 51 0 
N 37 10 0 
N 26 39 0 
N 47 16 0 
N 17 48 0 
O 21 48 0 
O 45 16 0 
O 19 42 0 
O 21 47 0 
O 22 44 0 
O 23 44 0 
11
Atoms. Timestep: 296
N 23 50 0 
N 36 10 0 
N 26 40 0 
N 46 16 0 
N 18 48 0 
O 20 48 0 
O 44 16 0 
O 19 41 0 
O 21 46 0 
O 21 44 0 
O 23 45 0 
11
Atoms. Timestep: 297
N 22 50 0 
N 35 10 0 
N 26 41 0 
N 45 16 0 
N 19 48 0 
O 21 48 0 
O 43 16 0 
O 18 41 0 
O 22 46 0 
O 21 43 0 
O 23 44 0 
11
Atoms. Timestep: 298
N 22 51 0 
N 34 10 0 
N 25 41 0 
N 44 16 0 
N 20 48 0 
O 22 48 0 
O 42 16 0 
O 17 41 0 
O 23 46 0 
O 20 43 0 
O 23 45 0 
11
Atoms. Timestep: 299
N 22 52 0 
N 33 10 0 
N 25 42 0 
N 43 16 0 
N 21 48 0 
O 23 48 0 
O 41 16 0 
O 16 41 0 
O 24 46 0 
O 19 43 0 
O 23 45 0 
11
Atoms. Timestep: 300
N 22 53 0 
N 32 10 0 
N 25 43 0 
N 42 16 0 
N 22 48 0 
O 24 48 0 
O 40 16 0 
O 15 41 0 
O 25 46 0 
O 19 42 0 
O 22 45 0 
11
Atoms. Timestep: 301
N 22 54 0 
N 31 10 0 
N 25 44 0 
N 41 16 0 
N 23 48 0 
O 25 48 0 
O 39 16 0 
O 14 41 0 
O 25 47 0 
O 18 42 0 
O 21 45 0 
11
Atoms. Timestep: 302
N 22 55 0 
N 30 10 0 
N 25 45 0 
N 40 16 0 
N 24 48 0 
O 26 48 0 
O 38 16 0 
O 13 41 0 
O 25 46 0 
O 17 42 0 
O 20 45 0 
10
Atoms. Timestep: 303
N 22 56 0 
N 29 10 0 
N 25 46 0 
N 39 16 0 
N 25 48 0 
O 27 48 0 
O 37 16 0 
O 12 41 0 
O 16 42 0 
O 19 45 0 
10
Atoms. Timestep: 304
N 22 57 0 
N 28 10 0 
N 25 47 0 
N 38 16 0 
N 25 49 0 
O 28 48 0 
O 36 16 0 
O 11 41 0 
O 15 42 0 
O 18 45 0 
10
Atoms. Timestep: 305
N 22 58 0 
N 27 10 0 
N 25 46 0 
N 37 16 0 
N 25 50 0 
O 29 48 0 
O 35 16 0 
O 10 41 0 
O 14 42 0 
O 17 45 0 
10
Atoms. Timestep: 306
N 22 59 0 
N 26 10 0 
N 26 46 0 
N 36 16 0 
N 25 51 0 
O 30 48 0 
O 34 16 0 
O 9 41 0 
O 13 42 0 
O 16 45 0 
10
Atoms. Timestep: 307
N 22 60 0 
N 25 10 0 
N 27 46 0 
N 35 16 0 
N 25 52 0 
O 31 48 0 
O 33 16 0 
O 8 41 0 
O 12 42 0 
O 15 45 0 
10
Atoms. Timestep: 308
N 22 61 0 
N 24 10 0 
N 28 46 0 
N 34 16 0 
N 25 53 0 
O 32 48 0 
O 32 16 0 
O 7 41 0 
O 11 42 0 
O 14 45 0 
10
Atoms. Timestep: 309
N 22 62 0 
N 23 10 0 
N 29 46 0 
N 33 16 0 
N 25 54 0 
O 33 48 0 
O 31 16 0 
O 6 41 0 
O 10 42 0 
O 13 45 0 
10
Atoms. Timestep: 310
N 22 63 0 
N 22 10 0 
N 30 46 0 
N 32 16 0 
N 25 53 0 
O 34 48 0 
O 30 16 0 
O 5 41 0 
O 9 42 0 
O 12 45 0 
10
Atoms. Timestep: 311
N 22 64 0 
N 21 10 0 
N 31 46 0 
N 31 16 0 
N 25 54 0 
O 35 48 0 
O 29 16 0 
O 4 41 0 
O 8 42 0 
O 11 45 0 
10
Atoms. Timestep: 312
N 22 65 0 
N 20 10 0 
N 32 46 0 
N 30 16 0 
N 25 53 0 
O 36 48 0 
O 28 16 0 
O 3 41 0 
O 7 42 0 
O 10 45 0 
10
Atoms. Timestep: 313
N 22 66 0 
N 19 10 0 
N 33 46 0 
N 29 16 0 
N 24 53 0 
O 37 48 0 
O 27 16 0 
O 2 41 0 
O 6 42 0 
O 9 45 0 
10
Atoms. Timestep: 314
N 22 67 0 
N 18 10 0 
N 34 46 0 
N 28 16 0 
N 23 53 0 
O 38 48 0 
O 26 16 0 
O 1 41 0 
O 5 42 0 
O 8 45 0 
10
Atoms. Timestep: 315
N 22 68 0 
N 17 10 0 
N 35 46 0 
N 27 16 0 
N 22 53 0 
O 39 48 0 
O 25 16 0 
O 0 41 0 
O 4 42 0 
O 7 45 0 
10
Atoms. Timestep: 316
N 22 69 0 
N 16 10 0 
N 36 46 0 
N 26 16 0 
N 21 53 0 
O 40 48 0 
O 24 16 0 
O 99 41 0 
O 3 42 0 
O 6 45 0 
10
Atoms. Timestep: 317
N 22 70 0 
N 15 10 0 
N 37 46 0 
N 25 16 0 
N 21 52 0 
O 41 48 0 
O 23 16 0 
O 98 41 0 
O 2 42 0 
O 5 45 0 
10
Atoms. Timestep: 318
N 22 71 0 
N 14 10 0 
N 38 46 0 
N 24 16 0 
N 20 52 0 
O 42 48 0 
O 22 16 0 
O 97 41 0 
O 1 42 0 
O 4 45 0 
10
Atoms. Timestep: 319
N 22 72 0 
N 13 10 0 
N 39 46 0 
N 23 16 0 
N 19 52 0 
O 43 48 0 
O 21 16 0 
O 96 41 0 
O 0 42 0 
O 3 45 0 
10
Atoms. Timestep: 320
N 22 73 0 
N 12 10 0 
N 40 46 0 
N 22 16 0 
N 18 52 0 
O 44 48 0 
O 20 16 0 
O 95 41 0 
O 99 42 0 
O 2 45 0 
10
Atoms. Timestep: 321
N 22 74 0 
N 13 10 0 
N 41 46 0 
N 22 17 0 
N 17 52 0 
O 45 48 0 
O 19 16 0 
O 94 41 0 
O 98 42 0 
O 1 45 0 
10
Atoms. Timestep: 322
N 22 75 0 
N 14 10 0 
N 42 46 0 
N 21 17 0 
N 16 52 0 
O 46 48 0 
O 18 16 0 
O 93 41 0 
O 97 42 0 
O 0 45 0 
10
Atoms. Timestep: 323
N 22 76 0 
N 14 11 0 
N 43 46 0 
N 20 17 0 
N 15 52 0 
O 47 48 0 
O 17 16 0 
O 92 41 0 
O 96 42 0 
O 99 45 0 
10
Atoms. Timestep: 324
N 22 77 0 
N 14 12 0 
N 44 46 0 
N 19 17 0 
N 14 52 0 
O 48 48 0 
O 16 16 0 
O 91 41 0 
O 95 42 0 
O 98 45 0 
10
Atoms. Timestep: 325
N 22 78 0 
N 14 13 0 
N 45 46 0 
N 18 17 0 
N 13 52 0 
O 49 48 0 
O 15 16 0 
O 90 41 0 
O 94 42 0 
O 97 45 0 
10
Atoms. Timestep: 326
N 22 79 0 
N 14 14 0 
N 46 46 0 
N 17 17 0 
N 12 52 0 
O 50 48 0 
O 15 17 0 
O 89 41 0 
O 93 42 0 
O 96 45 0 
10
Atoms. Timestep: 327
N 22 80 0 
N 14 13 0 
N 47 46 0 
N 16 17 0 
N 11 52 0 
O 51 48 0 
O 14 17 0 
O 88 41 0 
O 92 42 0 
O 95 45 0 
10
Atoms. Timestep: 328
N 22 81 0 
N 14 12 0 
N 48 46 0 
N 15 17 0 
N 10 52 0 
O 52 48 0 
O 13 17 0 
O 87 41 0 
O 91 42 0 
O 94 45 0 
10
Atoms. Timestep: 329
N 22 80 0 
N 14 11 0 
N 49 46 0 
N 14 17 0 
N 9 52 0 
O 53 48 0 
O 12 17 0 
O 86 41 0 
O 90 42 0 
O 93 45 0 
10
Atoms. Timestep: 330
N 22 79 0 
N 14 10 0 
N 50 46 0 
N 13 17 0 
N 8 52 0 
O 54 48 0 
O 11 17 0 
O 85 41 0 
O 89 42 0 
O 92 45 0 
10
Atoms. Timestep: 331
N 22 80 0 
N 14 9 0 
N 51 46 0 
N 12 17 0 
N 7 52 0 
O 55 48 0 
O 10 17 0 
O 84 41 0 
O 88 42 0 
O 91 45 0 
10
Atoms. Timestep: 332
N 22 79 0 
N 14 8 0 
N 52 46 0 
N 11 17 0 
N 6 52 0 
O 56 48 0 
O 9 17 0 
O 83 41 0 
O 87 42 0 
O 90 45 0 
10
Atoms. Timestep: 333
N 22 78 0 
N 14 7 0 
N 53 46 0 
N 10 17 0 
N 5 52 0 
O 57 48 0 
O 8 17 0 
O 82 41 0 
O 86 42 0 
O 89 45 0 
10
Atoms. Timestep: 334
N 22 77 0 
N 14 6 0 
N 54 46 0 
N 9 17 0 
N 4 52 0 
O 58 48 0 
O 7 17 0 
O 81 41 0 
O 85 42 0 
O 88 45 0 
10
Atoms. Timestep: 335
N 22 76 0 
N 14 5 0 
N 55 46 0 
N 8 17 0 
N 3 52 0 
O 59 48 0 
O 6 17 0 
O 80 41 0 
O 84 42 0 
O 87 45 0 
10
Atoms. Timestep: 336
N 22 75 0 
N 14 4 0 
N 56 46 0 
N 7 17 0 
N 2 52 0 
O 60 48 0 
O 5 17 0 
O 81 41 0 
O 83 42 0 
O 86 45 0 
10
Atoms. Timestep: 337
N 22 74 0 
N 14 3 0 
N 57 46 0 
N 6 17 0 
N 1 52 0 
O 61 48 0 
O 4 17 0 
O 80 41 0 
O 82 42 0 
O 85 45 0 
10
Atoms. Timestep: 338
N 22 73 0 
N 14 2 0 
N 58 46 0 
N 5 17 0 
N 0 52 0 
O 62 48 0 
O 3 17 0 
O 81 41 0 
O 81 42 0 
O 84 45 0 
10
Atoms. Timestep: 339
N 22 72 0 
N 14 1 0 
N 59 46 0 
N 5 16 0 
N 99 52 0 
O 63 48 0 
O 2 17 0 
O 80 41 0 
O 80 42 0 
O 83 45 0 
10
Atoms. Timestep: 340
N 22 71 0 
N 14 0 0 
N 60 46 0 
N 4 16 0 
N 98 52 0 
O 64 48 0 
O 1 17 0 
O 81 41 0 
O 81 42 0 
O 82 45 0 
10
Atoms. Timestep: 341
N 22 70 0 
N 14 99 0 
N 61 46 0 
N 3 16 0 
N 97 52 0 
O 65 48 0 
O 0 17 0 
O 80 41 0 
O 80 42 0 
O 81 45 0 
10
Atoms. Timestep: 342
N 22 69 0 
N 14 98 0 
N 62 46 0 
N 2 16 0 
N 96 52 0 
O 66 48 0 
O 99 17 0 
O 81 41 0 
O 81 42 0 
O 80 45 0 
10
Atoms. Timestep: 343
N 22 68 0 
N 14 97 0 
N 63 46 0 
N 1 16 0 
N 95 52 0 
O 67 48 0 
O 98 17 0 
O 80 41 0 
O 80 42 0 
O 79 45 0 
10
Atoms. Timestep: 344
N 22 67 0 
N 14 96 0 
N 64 46 0 
N 0 16 0 
N 94 52 0 
O 68 48 0 
O 97 17 0 
O 81 41 0 
O 81 42 0 
O 80 45 0 
10
Atoms. Timestep: 345
N 22 66 0 
N 14 95 0 
N 65 46 0 
N 99 16 0 
N 93 52 0 
O 69 48 0 
O 96 17 0 
O 82 41 0 
O 80 42 0 
O 79 45 0 
10
Atoms. Timestep: 346
N 22 65 0 
N 14 94 0 
N 66 46 0 
N 98 16 0 
N 93 51 0 
O 70 48 0 
O 95 17 0 
O 81 41 0 
O 81 42 0 
O 80 45 0 
10
Atoms. Timestep: 347
N 22 64 0 
N 14 93 0 
N 67 46 0 
N 97 16 0 
N 92 51 0 
O 71 48 0 
O 94 17 0 
O 82 41 0 
O 82 42 0 
O 81 45 0 
10
Atoms. Timestep: 348
N 22 63 0 
N 14 92 0 
N 68 46 0 
N 96 16 0 
N 91 51 0 
O 72 48 0 
O 93 17 0 
O 82 40 0 
O 81 42 0 
O 80 45 0 
10
Atoms. Timestep: 349
N 22 62 0 
N 14 93 0 
N 69 46 0 
N 95 16 0 
N 90 51 0 
O 73 48 0 
O 92 17 0 
O 82 39 0 
O 82 42 0 
O 81 45 0 
10
Atoms. Timestep: 350
N 22 61 0 
N 14 92 0 
N 70 46 0 
N 94 16 0 
N 89 51 0 
O 74 48 0 
O 91 17 0 
O 83 39 0 
O 82 41 0 
O 80 45 0 
10
Atoms. Timestep: 351
N 22 60 0 
N 14 91 0 
N 71 46 0 
N 93 16 0 
N 88 51 0 
O 75 48 0 
O 90 17 0 
O 84 39 0 
O 82 40 0 
O 81 45 0 
10
Atoms. Timestep: 352
N 22 59 0 
N 14 92 0 
N 72 46 0 
N 92 16 0 
N 87 51 0 
O 76 48 0 
O 89 17 0 
O 84 38 0 
O 83 40 0 
O 80 45 0 
10
Atoms. Timestep: 353
N 22 58 0 
N 14 93 0 
N 73 46 0 
N 91 16 0 
N 86 51 0 
O 77 48 0 
O 88 17 0 
O 85 38 0 
O 84 40 0 
O 81 45 0 
10
Atoms. Timestep: 354
N 22 57 0 
N 15 93 0 
N 74 46 0 
N 90 16 0 
N 86 50 0 
O 78 48 0 
O 87 17 0 
O 85 37 0 
O 84 39 0 
O 82 45 0 
10
Atoms. Timestep: 355
N 22 56 0 
N 16 93 0 
N 75 46 0 
N 89 16 0 
N 86 49 0 
O 79 48 0 
O 86 17 0 
O 85 36 0 
O 84 38 0 
O 81 45 0 
10
Atoms. Timestep: 356
N 22 55 0 
N 17 93 0 
N 76 46 0 
N 88 16 0 
N 85 49 0 
O 80 48 0 
O 85 17 0 
O 85 35 0 
O 84 37 0 
O 82 45 0 
10
Atoms. Timestep: 357
N 22 54 0 
N 18 93 0 
N 77 46 0 
N 87 16 0 
N 84 49 0 
O 81 48 0 
O 84 17 0 
O 85 34 0 
O 84 36 0 
O 82 44 0 
10
Atoms. Timestep: 358
N 23 54 0 
N 18 94 0 
N 78 46 0 
N 86 16 0 
N 83 49 0 
O 80 48 0 
O 83 17 0 
O 85 33 0 
O 84 35 0 
O 83 44 0 
10
Atoms. Timestep: 359
N 23 53 0 
N 19 94 0 
N 78 47 0 
N 85 16 0 
N 82 49 0 
O 81 48 0 
O 82 17 0 
O 85 32 0 
O 84 34 0 
O 84 44 0 
10
Atoms. Timestep: 360
N 22 53 0 
N 19 95 0 
N 77 47 0 
N 84 16 0 
N 81 49 0 
O 81 47 0 
O 81 17 0 
O 85 33 0 
O 84 33 0 
O 84 43 0 
10
Atoms. Timestep: 361
N 21 53 0 
N 20 95 0 
N 76 47 0 
N 83 16 0 
N 81 48 0 
O 81 46 0 
O 80 17 0 
O 85 32 0 
O 84 32 0 
O 84 42 0 
10
Atoms. Timestep: 362
N 20 53 0 
N 20 96 0 
N 75 47 0 
N 82 16 0 
N 81 47 0 
O 81 45 0 
O 79 17 0 
O 85 31 0 
O 84 31 0 
O 84 41 0 
10
Atoms. Timestep: 363
N 19 53 0 
N 20 97 0 
N 74 47 0 
N 81 16 0 
N 81 46 0 
O 81 44 0 
O 78 17 0 
O 85 32 0 
O 84 32 0 
O 84 40 0 
10
Atoms. Timestep: 364
N 18 53 0 
N 20 98 0 
N 73 47 0 
N 80 16 0 
N 81 45 0 
O 81 43 0 
O 77 17 0 
O 85 31 0 
O 84 31 0 
O 84 39 0 
10
Atoms. Timestep: 365
N 17 53 0 
N 21 98 0 
N 72 47 0 
N 79 16 0 
N 81 44 0 
O 81 42 0 
O 76 17 0 
O 85 30 0 
O 84 30 0 
O 84 38 0 
10
Atoms. Timestep: 366
N 16 53 0 
N 21 99 0 
N 71 47 0 
N 78 16 0 
N 81 43 0 
O 81 41 0 
O 75 17 0 
O 85 29 0 
O 84 29 0 
O 84 37 0 
10
Atoms. Timestep: 367
N 15 53 0 
N 21 0 0 
N 70 47 0 
N 77 16 0 
N 81 42 0 
O 81 40 0 
O 74 17 0 
O 85 28 0 
O 84 28 0 
O 84 36 0 
10
Atoms. Timestep: 368
N 14 53 0 
N 20 0 0 
N 69 47 0 
N 76 16 0 
N 81 41 0 
O 81 39 0 
O 73 17 0 
O 85 27 0 
O 84 27 0 
O 84 35 0 
10
Atoms. Timestep: 369
N 13 53 0 
N 19 0 0 
N 68 47 0 
N 75 16 0 
N 81 40 0 
O 81 38 0 
O 72 17 0 
O 85 26 0 
O 84 26 0 
O 84 34 0 
10
Atoms. Timestep: 370
N 14 53 0 
N 18 0 0 
N 68 48 0 
N 74 16 0 
N 81 39 0 
O 81 37 0 
O 71 17 0 
O 85 25 0 
O 84 25 0 
O 84 33 0 
10
Atoms. Timestep: 371
N 15 53 0 
N 17 0 0 
N 67 48 0 
N 73 16 0 
N 81 38 0 
O 81 36 0 
O 70 17 0 
O 85 24 0 
O 84 24 0 
O 84 32 0 
10
Atoms. Timestep: 372
N 16 53 0 
N 16 0 0 
N 66 48 0 
N 72 16 0 
N 81 37 0 
O 81 35 0 
O 69 17 0 
O 85 23 0 
O 84 23 0 
O 84 31 0 
10
Atoms. Timestep: 373
N 17 53 0 
N 15 0 0 
N 65 48 0 
N 71 16 0 
N 81 36 0 
O 81 34 0 
O 68 17 0 
O 85 22 0 
O 84 22 0 
O 84 30 0 
10
Atoms. Timestep: 374
N 18 53 0 
N 14 0 0 
N 64 48 0 
N 70 16 0 
N 81 35 0 
O 81 33 0 
O 67 17 0 
O 85 21 0 
O 84 21 0 
O 84 29 0 
10
Atoms. Timestep: 375
N 19 53 0 
N 13 0 0 
N 63 48 0 
N 69 16 0 
N 81 34 0 
O 81 32 0 
O 66 17 0 
O 85 20 0 
O 84 20 0 
O 84 28 0 
10
Atoms. Timestep: 376
N 20 53 0 
N 12 0 0 
N 62 48 0 
N 68 16 0 
N 81 33 0 
O 81 31 0 
O 65 17 0 
O 85 19 0 
O 84 19 0 
O 84 27 0 
10
Atoms. Timestep: 377
N 19 53 0 
N 11 0 0 
N 61 48 0 
N 67 16 0 
N 81 32 0 
O 81 30 0 
O 64 17 0 
O 85 18 0 
O 84 18 0 
O 84 26 0 
10
Atoms. Timestep: 378
N 18 53 0 
N 10 0 0 
N 60 48 0 
N 66 16 0 
N 81 31 0 
O 81 29 0 
O 63 17 0 
O 85 17 0 
O 84 17 0 
O 84 25 0 
10
Atoms. Timestep: 379
N 17 53 0 
N 9 0 0 
N 59 48 0 
N 65 16 0 
N 81 30 0 
O 81 28 0 
O 62 17 0 
O 85 16 0 
O 84 16 0 
O 84 24 0 
10
Atoms. Timestep: 380
N 16 53 0 
N 8 0 0 
N 58 48 0 
N 64 16 0 
N 81 29 0 
O 81 27 0 
O 61 17 0 
O 85 15 0 
O 84 15 0 
O 84 23 0 
10
Atoms. Timestep: 381
N 15 53 0 
N 7 0 0 
N 57 48 0 
N 63 16 0 
N 81 28 0 
O 81 26 0 
O 60 17 0 
O 85 14 0 
O 84 14 0 
O 84 22 0 
10
Atoms. Timestep: 382
N 14 53 0 
N 6 0 0 
N 56 48 0 
N 62 16 0 
N 81 27 0 
O 81 25 0 
O 59 17 0 
O 85 13 0 
O 84 13 0 
O 84 21 0 
10
Atoms. Timestep: 383
N 13 53 0 
N 5 0 0 
N 56 47 0 
N 61 16 0 
N 81 26 0 
O 81 24 0 
O 58 17 0 
O 85 12 0 
O 84 12 0 
O 84 20 0 
10
Atoms. Timestep: 384
N 14 53 0 
N 4 0 0 
N 56 46 0 
N 60 16 0 
N 81 25 0 
O 81 23 0 
O 57 17 0 
O 85 11 0 
O 84 11 0 
O 84 19 0 
10
Atoms. Timestep: 385
N 13 53 0 
N 3 0 0 
N 56 45 0 
N 59 16 0 
N 81 24 0 
O 81 22 0 
O 56 17 0 
O 85 10 0 
O 84 10 0 
O 84 18 0 
10
Atoms. Timestep: 386
N 12 53 0 
N 2 0 0 
N 56 44 0 
N 58 16 0 
N 81 23 0 
O 81 21 0 
O 55 17 0 
O 85 9 0 
O 84 9 0 
O 84 17 0 
10
Atoms. Timestep: 387
N 13 53 0 
N 1 0 0 
N 56 43 0 
N 57 16 0 
N 81 22 0 
O 81 20 0 
O 54 17 0 
O 85 8 0 
O 84 8 0 
O 84 16 0 
10
Atoms. Timestep: 388
N 12 53 0 
N 0 0 0 
N 56 42 0 
N 56 16 0 
N 81 21 0 
O 81 19 0 
O 53 17 0 
O 85 7 0 
O 84 7 0 
O 84 15 0 
10
Atoms. Timestep: 389
N 11 53 0 
N 99 0 0 
N 56 41 0 
N 55 16 0 
N 81 20 0 
O 81 18 0 
O 52 17 0 
O 85 6 0 
O 84 6 0 
O 84 14 0 
10
Atoms. Timestep: 390
N 11 54 0 
N 98 0 0 
N 56 40 0 
N 54 16 0 
N 81 19 0 
O 81 17 0 
O 51 17 0 
O 85 5 0 
O 84 5 0 
O 84 13 0 
10
Atoms. Timestep: 391
N 11 55 0 
N 97 0 0 
N 56 39 0 
N 53 16 0 
N 81 18 0 
O 81 16 0 
O 50 17 0 
O 84 5 0 
O 83 5 0 
O 84 12 0 
10
Atoms. Timestep: 392
N 11 54 0 
N 96 0 0 
N 56 38 0 
N 52 16 0 
N 81 17 0 
O 81 15 0 
O 49 17 0 
O 84 4 0 
O 83 4 0 
O 84 11 0 
10
Atoms. Timestep: 393
N 10 54 0 
N 95 0 0 
N 56 39 0 
N 51 16 0 
N 81 16 0 
O 81 14 0 
O 48 17 0 
O 83 4 0 
O 82 4 0 
O 84 10 0 
10
Atoms. Timestep: 394
N 10 53 0 
N 94 0 0 
N 56 40 0 
N 50 16 0 
N 81 15 0 
O 81 13 0 
O 47 17 0 
O 82 4 0 
O 82 3 0 
O 84 9 0 
10
Atoms. Timestep: 395
N 9 53 0 
N 93 0 0 
N 56 39 0 
N 49 16 0 
N 81 14 0 
O 81 12 0 
O 46 17 0 
O 82 3 0 
O 81 3 0 
O 84 8 0 
10
Atoms. Timestep: 396
N 8 53 0 
N 92 0 0 
N 56 40 0 
N 48 16 0 
N 81 13 0 
O 81 11 0 
O 45 17 0 
O 81 3 0 
O 81 2 0 
O 84 7 0 
10
Atoms. Timestep: 397
N 8 52 0 
N 91 0 0 
N 56 41 0 
N 47 16 0 
N 81 12 0 
O 81 10 0 
O 44 17 0 
O 81 2 0 
O 80 2 0 
O 84 6 0 
10
Atoms. Timestep: 398
N 7 52 0 
N 90 0 0 
N 56 42 0 
N 46 16 0 
N 81 11 0 
O 81 9 0 
O 43 17 0 
O 80 2 0 
O 80 1 0 
O 84 5 0 
10
Atoms. Timestep: 399
N 6 52 0 
N 89 0 0 
N 56 43 0 
N 45 16 0 
N 81 10 0 
O 81 8 0 
O 42 17 0 
O 80 1 0 
O 79 1 0 
O 84 4 0 
10
Atoms. Timestep: 400
N 6 53 0 
N 88 0 0 
N 56 44 0 
N 44 16 0 
N 81 9 0 
O 81 7 0 
O 41 17 0 
O 79 1 0 
O 79 0 0 
O 84 5 0 
10
Atoms. Timestep: 401
N 6 54 0 
N 88 1 0 
N 56 45 0 
N 43 16 0 
N 81 8 0 
O 81 6 0 
O 40 17 0 
O 79 0 0 
O 79 99 0 
O 85 5 0 
10
Atoms. Timestep: 402
N 6 55 0 
N 88 2 0 
N 56 46 0 
N 42 16 0 
N 81 7 0 
O 81 5 0 
O 39 17 0 
O 79 99 0 
O 79 98 0 
O 85 6 0 
10
Atoms. Timestep: 403
N 6 56 0 
N 88 3 0 
N 56 47 0 
N 41 16 0 
N 81 6 0 
O 81 4 0 
O 38 17 0 
O 79 98 0 
O 79 97 0 
O 84 6 0 
10
Atoms. Timestep: 404
N 6 57 0 
N 87 3 0 
N 56 48 0 
N 40 16 0 
N 81 5 0 
O 81 3 0 
O 37 17 0 
O 79 97 0 
O 79 96 0 
O 85 6 0 
10
Atoms. Timestep: 405
N 6 58 0 
N 87 4 0 
N 56 49 0 
N 39 16 0 
N 81 4 0 
O 81 2 0 
O 36 17 0 
O 79 96 0 
O 79 95 0 
O 85 7 0 
10
Atoms. Timestep: 406
N 6 59 0 
N 87 5 0 
N 56 50 0 
N 38 16 0 
N 81 3 0 
O 81 1 0 
O 35 17 0 
O 79 95 0 
O 79 94 0 
O 85 8 0 
10
Atoms. Timestep: 407
N 6 60 0 
N 87 6 0 
N 56 51 0 
N 37 16 0 
N 81 2 0 
O 81 0 0 
O 34 17 0 
O 79 94 0 
O 79 93 0 
O 84 8 0 
10
Atoms. Timestep: 408
N 6 61 0 
N 86 6 0 
N 56 52 0 
N 36 16 0 
N 81 1 0 
O 81 99 0 
O 33 17 0 
O 79 93 0 
O 79 92 0 
O 84 9 0 
10
Atoms. Timestep: 409
N 6 62 0 
N 86 7 0 
N 56 53 0 
N 35 16 0 
N 81 0 0 
O 81 98 0 
O 32 17 0 
O 79 92 0 
O 79 91 0 
O 83 9 0 
10
Atoms. Timestep: 410
N 6 63 0 
N 85 7 0 
N 56 54 0 
N 34 16 0 
N 81 99 0 
O 81 97 0 
O 31 17 0 
O 79 91 0 
O 79 90 0 
O 82 9 0 
10
Atoms. Timestep: 411
N 6 64 0 
N 84 7 0 
N 56 55 0 
N 33 16 0 
N 81 98 0 
O 81 96 0 
O 30 17 0 
O 79 90 0 
O 79 89 0 
O 82 10 0 
10
Atoms. Timestep: 412
N 5 64 0 
N 84 8 0 
N 56 56 0 
N 32 16 0 
N 81 97 0 
O 81 95 0 
O 29 17 0 
O 79 89 0 
O 79 88 0 
O 81 10 0 
10
Atoms. Timestep: 413
N 4 64 0 
N 83 8 0 
N 56 57 0 
N 31 16 0 
N 81 96 0 
O 81 94 0 
O 28 17 0 
O 79 88 0 
O 79 87 0 
O 80 10 0 
10
Atoms. Timestep: 414
N 3 64 0 
N 82 8 0 
N 56 58 0 
N 30 16 0 
N 81 95 0 
O 81 93 0 
O 27 17 0 
O 79 87 0 
O 79 86 0 
O 79 10 0 
10
Atoms. Timestep: 415
N 2 64 0 
N 81 8 0 
N 56 59 0 
N 29 16 0 
N 81 94 0 
O 81 92 0 
O 26 17 0 
O 79 86 0 
O 79 85 0 
O 79 11 0 
10
Atoms. Timestep: 416
N 1 64 0 
N 81 9 0 
N 56 60 0 
N 28 16 0 
N 81 93 0 
O 81 91 0 
O 25 17 0 
O 79 85 0 
O 79 84 0 
O 78 11 0 
10
Atoms. Timestep: 417
N 0 64 0 
N 80 9 0 
N 56 61 0 
N 27 16 0 
N 81 92 0 
O 81 90 0 
O 24 17 0 
O 79 84 0 
O 79 83 0 
O 78 12 0 
10
Atoms. Timestep: 418
N 99 64 0 
N 80 10 0 
N 57 61 0 
N 26 16 0 
N 81 91 0 
O 81 89 0 
O 23 17 0 
O 79 83 0 
O 79 82 0 
O 78 13 0 
10
Atoms. Timestep: 419
N 98 64 0 
N 80 11 0 
N 58 61 0 
N 25 16 0 
N 81 90 0 
O 81 88 0 
O 22 17 0 
O 79 82 0 
O 79 81 0 
O 78 14 0 
10
Atoms. Timestep: 420
N 97 64 0 
N 80 12 0 
N 59 61 0 
N 24 16 0 
N 81 89 0 
O 81 87 0 
O 21 17 0 
O 79 81 0 
O 79 80 0 
O 77 14 0 
10
Atoms. Timestep: 421
N 96 64 0 
N 79 12 0 
N 60 61 0 
N 23 16 0 
N 81 88 0 
O 81 86 0 
O 20 17 0 
O 79 80 0 
O 79 79 0 
O 76 14 0 
10
Atoms. Timestep: 422
N 95 64 0 
N 78 12 0 
N 60 62 0 
N 22 16 0 
N 81 87 0 
O 81 85 0 
O 19 17 0 
O 79 79 0 
O 79 78 0 
O 76 15 0 
10
Atoms. Timestep: 423
N 94 64 0 
N 78 13 0 
N 61 62 0 
N 21 16 0 
N 81 86 0 
O 81 84 0 
O 18 17 0 
O 79 78 0 
O 79 77 0 
O 76 16 0 
10
Atoms. Timestep: 424
N 93 64 0 
N 78 14 0 
N 62 62 0 
N 20 16 0 
N 81 85 0 
O 81 83 0 
O 17 17 0 
O 79 77 0 
O 79 76 0 
O 76 17 0 
10
Atoms. Timestep: 425
N 92 64 0 
N 78 15 0 
N 63 62 0 
N 19 16 0 
N 81 84 0 
O 81 82 0 
O 16 17 0 
O 79 76 0 
O 79 75 0 
O 75 17 0 
10
Atoms. Timestep: 426
N 91 64 0 
N 77 15 0 
N 64 62 0 
N 18 16 0 
N 81 83 0 
O 81 81 0 
O 15 17 0 
O 79 75 0 
O 79 74 0 
O 74 17 0 
10
Atoms. Timestep: 427
N 90 64 0 
N 76 15 0 
N 65 62 0 
N 17 16 0 
N 81 82 0 
O 81 80 0 
O 14 17 0 
O 79 74 0 
O 79 73 0 
O 74 18 0 
10
Atoms. Timestep: 428
N 89 64 0 
N 76 16 0 
N 66 62 0 
N 16 16 0 
N 81 81 0 
O 81 79 0 
O 13 17 0 
O 79 73 0 
O 79 72 0 
O 74 19 0 
10
Atoms. Timestep: 429
N 88 64 0 
N 76 17 0 
N 67 62 0 
N 15 16 0 
N 81 80 0 
O 81 78 0 
O 12 17 0 
O 79 72 0 
O 79 71 0 
O 74 20 0 
10
Atoms. Timestep: 430
N 87 64 0 
N 76 18 0 
N 68 62 0 
N 14 16 0 
N 81 79 0 
O 81 77 0 
O 11 17 0 
O 79 71 0 
O 79 70 0 
O 74 21 0 
10
Atoms. Timestep: 431
N 86 64 0 
N 76 19 0 
N 69 62 0 
N 13 16 0 
N 81 78 0 
O 81 76 0 
O 10 17 0 
O 79 70 0 
O 79 69 0 
O 73 21 0 
10
Atoms. Timestep: 432
N 85 64 0 
N 75 19 0 
N 70 62 0 
N 12 16 0 
N 81 77 0 
O 81 75 0 
O 9 17 0 
O 79 69 0 
O 78 69 0 
O 73 22 0 
10
Atoms. Timestep: 433
N 84 64 0 
N 75 20 0 
N 71 62 0 
N 11 16 0 
N 81 76 0 
O 81 74 0 
O 8 17 0 
O 79 70 0 
O 77 69 0 
O 73 23 0 
10
Atoms. Timestep: 434
N 84 65 0 
N 75 21 0 
N 71 63 0 
N 10 16 0 
N 81 75 0 
O 81 73 0 
O 7 17 0 
O 79 69 0 
O 77 68 0 
O 72 23 0 
10
Atoms. Timestep: 435
N 83 65 0 
N 74 21 0 
N 72 63 0 
N 9 16 0 
N 81 74 0 
O 81 72 0 
O 6 17 0 
O 78 69 0 
O 76 68 0 
O 72 24 0 
10
Atoms. Timestep: 436
N 82 65 0 
N 74 22 0 
N 72 64 0 
N 8 16 0 
N 81 73 0 
O 81 71 0 
O 5 17 0 
O 77 69 0 
O 76 69 0 
O 72 25 0 
10
Atoms. Timestep: 437
N 82 66 0 
N 74 23 0 
N 72 65 0 
N 7 16 0 
N 81 72 0 
O 81 70 0 
O 4 17 0 
O 77 69 0 
O 76 69 0 
O 72 26 0 
10
Atoms. Timestep: 438
N 82 67 0 
N 74 24 0 
N 73 65 0 
N 6 16 0 
N 81 71 0 
O 81 69 0 
O 3 17 0 
O 76 69 0 
O 76 70 0 
O 72 27 0 
10
Atoms. Timestep: 439
N 82 68 0 
N 74 25 0 
N 73 66 0 
N 5 16 0 
N 81 70 0 
O 81 69 0 
O 2 17 0 
O 76 70 0 
O 76 71 0 
O 71 27 0 
9
Atoms. Timestep: 440
N 83 68 0 
N 73 25 0 
N 73 67 0 
N 4 16 0 
N 81 69 0 
O 1 17 0 
O 77 70 0 
O 76 72 0 
O 71 28 0 
9
Atoms. Timestep: 441
N 84 68 0 
N 73 26 0 
N 74 67 0 
N 3 16 0 
N 80 69 0 
O 0 17 0 
O 76 70 0 
O 76 73 0 
O 70 28 0 
9
Atoms. Timestep: 442
N 85 68 0 
N 72 26 0 
N 74 68 0 
N 2 16 0 
N 79 69 0 
O 99 17 0 
O 77 70 0 
O 76 74 0 
O 69 28 0 
9
Atoms. Timestep: 443
N 86 68 0 
N 71 26 0 
N 75 68 0 
N 1 16 0 
N 78 69 0 
O 98 17 0 
O 77 71 0 
O 76 75 0 
O 69 29 0 
9
Atoms. Timestep: 444
N 87 68 0 
N 71 27 0 
N 75 69 0 
N 0 16 0 
N 79 69 0 
O 97 17 0 
O 78 71 0 
O 76 76 0 
O 68 29 0 
9
Atoms. Timestep: 445
N 88 68 0 
N 70 27 0 
N 76 69 0 
N 99 16 0 
N 79 70 0 
O 96 17 0 
O 77 71 0 
O 76 77 0 
O 68 30 0 
9
Atoms. Timestep: 446
N 89 68 0 
N 70 28 0 
N 75 69 0 
N 98 16 0 
N 78 70 0 
O 95 17 0 
O 76 71 0 
O 76 78 0 
O 68 31 0 
9
Atoms. Timestep: 447
N 90 68 0 
N 70 29 0 
N 74 69 0 
N 97 16 0 
N 77 70 0 
O 94 17 0 
O 75 71 0 
O 76 79 0 
O 68 32 0 
9
Atoms. Timestep: 448
N 91 68 0 
N 70 30 0 
N 73 69 0 
N 96 16 0 
N 76 70 0 
O 93 17 0 
O 75 72 0 
O 76 80 0 
O 68 33 0 
9
Atoms. Timestep: 449
N 92 68 0 
N 70 31 0 
N 72 69 0 
N 95 16 0 
N 76 71 0 
O 92 17 0 
O 75 73 0 
O 76 81 0 
O 67 33 0 
9
Atoms. Timestep: 450
N 93 68 0 
N 69 31 0 
N 71 69 0 
N 94 16 0 
N 76 72 0 
O 91 17 0 
O 75 74 0 
O 76 82 0 
O 67 34 0 
9
Atoms. Timestep: 451
N 94 68 0 
N 69 32 0 
N 70 69 0 
N 93 16 0 
N 76 73 0 
O 90 17 0 
O 74 74 0 
O 76 83 0 
O 67 35 0 
9
Atoms. Timestep: 452
N 95 68 0 
N 69 33 0 
N 69 69 0 
N 92 16 0 
N 75 73 0 
O 89 17 0 
O 73 74 0 
O 76 84 0 
O 66 35 0 
9
Atoms. Timestep: 453
N 96 68 0 
N 68 33 0 
N 68 69 0 
N 91 16 0 
N 74 73 0 
O 88 17 0 
O 73 75 0 
O 76 85 0 
O 66 36 0 
9
Atoms. Timestep: 454
N 97 68 0 
N 68 34 0 
N 67 69 0 
N 90 16 0 
N 74 74 0 
O 87 17 0 
O 73 76 0 
O 76 86 0 
O 65 36 0 
9
Atoms. Timestep: 455
N 98 68 0 
N 67 34 0 
N 66 69 0 
N 89 16 0 
N 74 75 0 
O 86 17 0 
O 73 77 0 
O 76 87 0 
O 65 37 0 
9
Atoms. Timestep: 456
N 99 68 0 
N 67 35 0 
N 65 69 0 
N 88 16 0 
N 74 76 0 
O 85 17 0 
O 73 78 0 
O 76 88 0 
O 65 38 0 
9
Atoms. Timestep: 457
N 0 68 0 
N 67 36 0 
N 64 69 0 
N 87 16 0 
N 74 77 0 
O 84 17 0 
O 73 79 0 
O 76 89 0 
O 65 39 0 
9
Atoms. Timestep: 458
N 1 68 0 
N 67 37 0 
N 63 69 0 
N 86 16 0 
N 74 78 0 
O 83 17 0 
O 72 79 0 
O 76 90 0 
O 64 39 0 
9
Atoms. Timestep: 459
N 2 68 0 
N 66 37 0 
N 62 69 0 
N 85 16 0 
N 73 78 0 
O 82 17 0 
O 72 80 0 
O 76 91 0 
O 64 40 0 
9
Atoms. Timestep: 460
N 3 68 0 
N 66 38 0 
N 61 69 0 
N 84 16 0 
N 73 79 0 
O 81 17 0 
O 71 80 0 
O 76 92 0 
O 64 41 0 
9
Atoms. Timestep: 461
N 4 68 0 
N 66 39 0 
N 60 69 0 
N 83 16 0 
N 72 79 0 
O 80 17 0 
O 71 81 0 
O 76 93 0 
O 63 41 0 
9
Atoms. Timestep: 462
N 5 68 0 
N 65 39 0 
N 59 69 0 
N 82 16 0 
N 72 80 0 
O 79 17 0 
O 70 81 0 
O 76 94 0 
O 62 41 0 
9
Atoms. Timestep: 463
N 6 68 0 
N 64 39 0 
N 58 69 0 
N 81 16 0 
N 71 80 0 
O 78 17 0 
O 70 82 0 
O 76 95 0 
O 62 42 0 
9
Atoms. Timestep: 464
N 7 68 0 
N 64 38 0 
N 57 69 0 
N 80 16 0 
N 71 81 0 
O 77 17 0 
O 69 82 0 
O 76 96 0 
O 62 43 0 
9
Atoms. Timestep: 465
N 8 68 0 
N 64 39 0 
N 56 69 0 
N 79 16 0 
N 70 81 0 
O 76 17 0 
O 68 82 0 
O 76 97 0 
O 62 44 0 
9
Atoms. Timestep: 466
N 9 68 0 
N 64 40 0 
N 55 69 0 
N 78 16 0 
N 69 81 0 
O 75 17 0 
O 68 83 0 
O 76 98 0 
O 62 45 0 
9
Atoms. Timestep: 467
N 10 68 0 
N 64 41 0 
N 54 69 0 
N 77 16 0 
N 69 82 0 
O 74 17 0 
O 67 83 0 
O 76 99 0 
O 62 46 0 
9
Atoms. Timestep: 468
N 9 68 0 
N 64 42 0 
N 53 69 0 
N 76 16 0 
N 68 82 0 
O 73 17 0 
O 66 83 0 
O 76 98 0 
O 62 47 0 
9
Atoms. Timestep: 469
N 8 68 0 
N 64 43 0 
N 52 69 0 
N 75 16 0 
N 67 82 0 
O 72 17 0 
O 66 84 0 
O 76 97 0 
O 62 48 0 
9
Atoms. Timestep: 470
N 7 68 0 
N 64 44 0 
N 51 69 0 
N 74 16 0 
N 67 83 0 
O 71 17 0 
O 66 85 0 
O 76 98 0 
O 62 49 0 
9
Atoms. Timestep: 471
N 6 68 0 
N 64 45 0 
N 50 69 0 
N 73 16 0 
N 67 84 0 
O 70 17 0 
O 66 86 0 
O 76 99 0 
O 62 50 0 
9
Atoms. Timestep: 472
N 7 68 0 
N 64 46 0 
N 50 68 0 
N 72 16 0 
N 67 85 0 
O 69 17 0 
O 66 87 0 
O 76 0 0 
O 62 51 0 
9
Atoms. Timestep: 473
N 6 68 0 
N 64 47 0 
N 50 67 0 
N 71 16 0 
N 67 86 0 
O 68 17 0 
O 66 88 0 
O 76 99 0 
O 62 52 0 
9
Atoms. Timestep: 474
N 7 68 0 
N 64 48 0 
N 50 66 0 
N 70 16 0 
N 67 87 0 
O 67 17 0 
O 65 88 0 
O 76 0 0 
O 62 53 0 
9
Atoms. Timestep: 475
N 6 68 0 
N 64 49 0 
N 50 65 0 
N 69 16 0 
N 66 87 0 
O 66 17 0 
O 65 89 0 
O 76 1 0 
O 62 54 0 
9
Atoms. Timestep: 476
N 7 68 0 
N 64 50 0 
N 51 65 0 
N 68 16 0 
N 66 88 0 
O 65 17 0 
O 65 90 0 
O 76 2 0 
O 62 55 0 
9
Atoms. Timestep: 477
N 6 68 0 
N 64 51 0 
N 52 65 0 
N 67 16 0 
N 66 89 0 
O 64 17 0 
O 64 90 0 
O 76 1 0 
O 62 56 0 
9
Atoms. Timestep: 478
N 7 68 0 
N 64 52 0 
N 53 65 0 
N 66 16 0 
N 65 89 0 
O 63 17 0 
O 64 91 0 
O 76 2 0 
O 62 57 0 
9
Atoms. Timestep: 479
N 8 68 0 
N 64 53 0 
N 54 65 0 
N 65 16 0 
N 65 90 0 
O 62 17 0 
O 64 92 0 
O 76 3 0 
O 62 58 0 
9
Atoms. Timestep: 480
N 9 68 0 
N 64 54 0 
N 55 65 0 
N 64 16 0 
N 65 91 0 
O 61 17 0 
O 63 92 0 
O 76 4 0 
O 62 59 0 
9
Atoms. Timestep: 481
N 10 68 0 
N 64 55 0 
N 56 65 0 
N 63 16 0 
N 64 91 0 
O 60 17 0 
O 63 93 0 
O 77 4 0 
O 62 60 0 
9
Atoms. Timestep: 482
N 11 68 0 
N 64 56 0 
N 57 65 0 
N 62 16 0 
N 64 92 0 
O 59 17 0 
O 62 93 0 
O 78 4 0 
O 62 61 0 
9
Atoms. Timestep: 483
N 10 68 0 
N 64 57 0 
N 58 65 0 
N 61 16 0 
N 63 92 0 
O 58 17 0 
O 61 93 0 
O 79 4 0 
O 62 62 0 
9
Atoms. Timestep: 484
N 11 68 0 
N 64 58 0 
N 59 65 0 
N 60 16 0 
N 62 92 0 
O 57 17 0 
O 61 94 0 
O 80 4 0 
O 62 63 0 
9
Atoms. Timestep: 485
N 12 68 0 
N 64 59 0 
N 60 65 0 
N 59 16 0 
N 62 93 0 
O 56 17 0 
O 60 94 0 
O 81 4 0 
O 62 62 0 
9
Atoms. Timestep: 486
N 12 69 0 
N 64 60 0 
N 60 64 0 
N 58 16 0 
N 61 93 0 
O 55 17 0 
O 60 95 0 
O 82 4 0 
O 62 63 0 
9
Atoms. Timestep: 487
N 12 70 0 
N 64 61 0 
N 61 64 0 
N 57 16 0 
N 61 94 0 
O 54 17 0 
O 60 96 0 
O 83 4 0 
O 62 62 0 
9
Atoms. Timestep: 488
N 12 71 0 
N 63 61 0 
N 61 63 0 
N 56 16 0 
N 61 95 0 
O 53 17 0 
O 60 97 0 
O 84 4 0 
O 61 62 0 
8
Atoms. Timestep: 489
N 12 72 0 
N 64 61 0 
N 61 62 0 
N 55 16 0 
N 61 96 0 
O 52 17 0 
O 60 98 0 
O 85 4 0 
8
Atoms. Timestep: 490
N 12 73 0 
N 65 61 0 
N 60 62 0 
N 54 16 0 
N 61 97 0 
O 51 17 0 
O 60 99 0 
O 86 4 0 
8
Atoms. Timestep: 491
N 12 74 0 
N 66 61 0 
N 59 62 0 
N 53 16 0 
N 61 98 0 
O 50 17 0 
O 60 0 0 
O 87 4 0 
8
Atoms. Timestep: 492
N 12 75 0 
N 67 61 0 
N 58 62 0 
N 52 16 0 
N 61 99 0 
O 49 17 0 
O 59 0 0 
O 88 4 0 
8
Atoms. Timestep: 493
N 12 76 0 
N 68 61 0 
N 57 62 0 
N 51 16 0 
N 60 99 0 
O 48 17 0 
O 58 0 0 
O 89 4 0 
8
Atoms. Timestep: 494
N 12 77 0 
N 69 61 0 
N 56 62 0 
N 50 16 0 
N 59 99 0 
O 47 17 0 
O 57 0 0 
O 90 4 0 
8
Atoms. Timestep: 495
N 12 78 0 
N 70 61 0 
N 55 62 0 
N 49 16 0 
N 58 99 0 
O 46 17 0 
O 57 1 0 
O 91 4 0 
8
Atoms. Timestep: 496
N 12 79 0 
N 71 61 0 
N 54 62 0 
N 48 16 0 
N 58 0 0 
O 45 17 0 
O 56 1 0 
O 91 5 0 
8
Atoms. Timestep: 497
N 12 80 0 
N 72 61 0 
N 53 62 0 
N 47 16 0 
N 57 0 0 
O 44 17 0 
O 55 1 0 
O 91 6 0 
8
Atoms. Timestep: 498
N 12 81 0 
N 73 61 0 
N 52 62 0 
N 46 16 0 
N 56 0 0 
O 43 17 0 
O 55 2 0 
O 91 7 0 
8
Atoms. Timestep: 499
N 12 82 0 
N 74 61 0 
N 51 62 0 
N 45 16 0 
N 56 1 0 
O 42 17 0 
O 55 3 0 
O 91 8 0 
8
Atoms. Timestep: 500
N 12 83 0 
N 75 61 0 
N 50 62 0 
N 44 16 0 
N 56 2 0 
O 41 17 0 
O 54 3 0 
O 91 9 0 
8
Atoms. Timestep: 501
N 12 84 0 
N 76 61 0 
N 49 62 0 
N 43 16 0 
N 55 2 0 
O 40 17 0 
O 53 3 0 
O 91 10 0 
8
Atoms. Timestep: 502
N 12 85 0 
N 77 61 0 
N 48 62 0 
N 42 16 0 
N 54 2 0 
O 39 17 0 
O 53 4 0 
O 91 11 0 
8
Atoms. Timestep: 503
N 12 86 0 
N 78 61 0 
N 47 62 0 
N 41 16 0 
N 54 3 0 
O 38 17 0 
O 53 5 0 
O 91 12 0 
8
Atoms. Timestep: 504
N 12 87 0 
N 79 61 0 
N 46 62 0 
N 40 16 0 
N 54 4 0 
O 37 17 0 
O 53 6 0 
O 91 13 0 
8
Atoms. Timestep: 505
N 12 88 0 
N 80 61 0 
N 45 62 0 
N 39 16 0 
N 54 5 0 
O 36 17 0 
O 53 7 0 
O 91 14 0 
8
Atoms. Timestep: 506
N 12 89 0 
N 81 61 0 
N 44 62 0 
N 38 16 0 
N 54 6 0 
O 35 17 0 
O 52 7 0 
O 91 15 0 
8
Atoms. Timestep: 507
N 12 90 0 
N 82 61 0 
N 43 62 0 
N 37 16 0 
N 53 6 0 
O 34 17 0 
O 51 7 0 
O 91 16 0 
8
Atoms. Timestep: 508
N 12 91 0 
N 83 61 0 
N 42 62 0 
N 36 16 0 
N 52 6 0 
O 33 17 0 
O 50 7 0 
O 91 17 0 
8
Atoms. Timestep: 509
N 12 90 0 
N 84 61 0 
N 43 62 0 
N 35 16 0 
N 51 6 0 
O 32 17 0 
O 49 7 0 
O 91 18 0 
8
Atoms. Timestep: 510
N 12 91 0 
N 84 60 0 
N 44 62 0 
N 34 16 0 
N 50 6 0 
O 31 17 0 
O 48 7 0 
O 91 19 0 
8
Atoms. Timestep: 511
N 12 90 0 
N 84 59 0 
N 43 62 0 
N 33 16 0 
N 49 6 0 
O 30 17 0 
O 48 8 0 
O 91 20 0 
8
Atoms. Timestep: 512
N 12 89 0 
N 84 58 0 
N 44 62 0 
N 32 16 0 
N 49 7 0 
O 29 17 0 
O 48 9 0 
O 91 21 0 
8
Atoms. Timestep: 513
N 12 90 0 
N 84 57 0 
N 43 62 0 
N 31 16 0 
N 49 8 0 
O 28 17 0 
O 47 9 0 
O 91 20 0 
8
Atoms. Timestep: 514
N 12 89 0 
N 84 56 0 
N 44 62 0 
N 30 16 0 
N 48 8 0 
O 27 17 0 
O 47 10 0 
O 91 19 0 
8
Atoms. Timestep: 515
N 12 88 0 
N 84 55 0 
N 43 62 0 
N 29 16 0 
N 48 9 0 
O 26 17 0 
O 46 10 0 
O 91 18 0 
8
Atoms. Timestep: 516
N 12 87 0 
N 84 54 0 
N 44 62 0 
N 28 16 0 
N 47 9 0 
O 25 17 0 
O 46 11 0 
O 91 17 0 
8
Atoms. Timestep: 517
N 12 86 0 
N 84 53 0 
N 45 62 0 
N 27 16 0 
N 47 10 0 
O 24 17 0 
O 45 11 0 
O 91 16 0 
8
Atoms. Timestep: 518
N 11 86 0 
N 84 52 0 
N 46 62 0 
N 26 16 0 
N 46 10 0 
O 23 17 0 
O 45 12 0 
O 90 16 0 
8
Atoms. Timestep: 519
N 11 85 0 
N 84 51 0 
N 45 62 0 
N 25 16 0 
N 46 11 0 
O 22 17 0 
O 44 12 0 
O 90 15 0 
8
Atoms. Timestep: 520
N 11 84 0 
N 84 50 0 
N 44 62 0 
N 24 16 0 
N 45 11 0 
O 21 17 0 
O 44 13 0 
O 89 15 0 
8
Atoms. Timestep: 521
N 11 83 0 
N 84 49 0 
N 45 62 0 
N 23 16 0 
N 45 12 0 
O 20 17 0 
O 44 14 0 
O 89 14 0 
8
Atoms. Timestep: 522
N 11 82 0 
N 84 48 0 
N 46 62 0 
N 22 16 0 
N 45 13 0 
O 19 17 0 
O 43 14 0 
O 88 14 0 
8
Atoms. Timestep: 523
N 11 81 0 
N 84 47 0 
N 47 62 0 
N 21 16 0 
N 44 13 0 
O 18 17 0 
O 43 15 0 
O 88 13 0 
8
Atoms. Timestep: 524
N 11 80 0 
N 84 46 0 
N 46 62 0 
N 20 16 0 
N 44 14 0 
O 17 17 0 
O 43 16 0 
O 87 13 0 
8
Atoms. Timestep: 525
N 11 79 0 
N 84 45 0 
N 47 62 0 
N 19 16 0 
N 44 15 0 
O 16 17 0 
O 43 17 0 
O 87 12 0 
8
Atoms. Timestep: 526
N 11 78 0 
N 84 44 0 
N 48 62 0 
N 18 16 0 
N 44 16 0 
O 15 17 0 
O 43 18 0 
O 86 12 0 
8
Atoms. Timestep: 527
N 11 77 0 
N 84 43 0 
N 49 62 0 
N 17 16 0 
N 44 17 0 
O 14 17 0 
O 42 18 0 
O 86 11 0 
8
Atoms. Timestep: 528
N 10 77 0 
N 84 42 0 
N 48 62 0 
N 16 16 0 
N 43 17 0 
O 13 17 0 
O 41 18 0 
O 85 11 0 
8
Atoms. Timestep: 529
N 10 76 0 
N 84 41 0 
N 49 62 0 
N 15 16 0 
N 42 17 0 
O 12 17 0 
O 41 19 0 
O 85 10 0 
8
Atoms. Timestep: 530
N 9 76 0 
N 84 40 0 
N 48 62 0 
N 14 16 0 
N 42 18 0 
O 11 17 0 
O 40 19 0 
O 84 10 0 
8
Atoms. Timestep: 531
N 9 75 0 
N 84 39 0 
N 49 62 0 
N 13 16 0 
N 41 18 0 
O 10 17 0 
O 40 20 0 
O 84 9 0 
8
Atoms. Timestep: 532
N 8 75 0 
N 84 38 0 
N 48 62 0 
N 12 16 0 
N 41 19 0 
O 9 17 0 
O 39 20 0 
O 83 9 0 
8
Atoms. Timestep: 533
N 8 74 0 
N 84 37 0 
N 49 62 0 
N 11 16 0 
N 40 19 0 
O 8 17 0 
O 38 20 0 
O 83 8 0 
8
Atoms. Timestep: 534
N 8 73 0 
N 84 36 0 
N 50 62 0 
N 10 16 0 
N 39 19 0 
O 7 17 0 
O 37 20 0 
O 83 7 0 
8
Atoms. Timestep: 535
N 7 73 0 
N 85 36 0 
N 49 62 0 
N 9 16 0 
N 38 19 0 
O 6 17 0 
O 37 21 0 
O 82 7 0 
8
Atoms. Timestep: 536
N 7 74 0 
N 86 36 0 
N 49 61 0 
N 8 16 0 
N 38 20 0 
O 5 17 0 
O 36 21 0 
O 81 7 0 
8
Atoms. Timestep: 537
N 7 73 0 
N 86 35 0 
N 49 62 0 
N 7 16 0 
N 37 20 0 
O 4 17 0 
O 36 22 0 
O 80 7 0 
8
Atoms. Timestep: 538
N 6 73 0 
N 86 34 0 
N 49 63 0 
N 6 16 0 
N 37 21 0 
O 3 17 0 
O 35 22 0 
O 80 6 0 
8
Atoms. Timestep: 539
N 6 74 0 
N 86 33 0 
N 49 64 0 
N 5 16 0 
N 36 21 0 
O 2 17 0 
O 34 22 0 
O 79 6 0 
8
Atoms. Timestep: 540
N 6 75 0 
N 87 33 0 
N 50 64 0 
N 4 16 0 
N 35 21 0 
O 1 17 0 
O 33 22 0 
O 78 6 0 
8
Atoms. Timestep: 541
N 6 74 0 
N 87 32 0 
N 51 64 0 
N 3 16 0 
N 34 21 0 
O 0 17 0 
O 33 23 0 
O 77 6 0 
8
Atoms. Timestep: 542
N 6 73 0 
N 87 31 0 
N 51 63 0 
N 2 16 0 
N 34 22 0 
O 99 17 0 
O 33 24 0 
O 77 5 0 
8
Atoms. Timestep: 543
N 6 72 0 
N 87 30 0 
N 51 62 0 
N 1 16 0 
N 34 23 0 
O 98 17 0 
O 33 25 0 
O 77 4 0 
8
Atoms. Timestep: 544
N 6 73 0 
N 87 29 0 
N 51 63 0 
N 0 16 0 
N 34 24 0 
O 97 17 0 
O 32 25 0 
O 76 4 0 
8
Atoms. Timestep: 545
N 6 72 0 
N 87 28 0 
N 51 64 0 
N 99 16 0 
N 33 24 0 
O 96 17 0 
O 31 25 0 
O 75 4 0 
8
Atoms. Timestep: 546
N 6 71 0 
N 87 27 0 
N 51 63 0 
N 98 16 0 
N 32 24 0 
O 95 17 0 
O 31 26 0 
O 75 3 0 
8
Atoms. Timestep: 547
N 6 72 0 
N 87 26 0 
N 51 64 0 
N 97 16 0 
N 32 25 0 
O 94 17 0 
O 30 26 0 
O 75 2 0 
8
Atoms. Timestep: 548
N 5 72 0 
N 87 25 0 
N 51 65 0 
N 96 16 0 
N 31 25 0 
O 93 17 0 
O 29 26 0 
O 75 1 0 
8
Atoms. Timestep: 549
N 4 72 0 
N 87 24 0 
N 51 66 0 
N 95 16 0 
N 30 25 0 
O 92 17 0 
O 28 26 0 
O 75 0 0 
8
Atoms. Timestep: 550
N 3 72 0 
N 87 23 0 
N 51 67 0 
N 94 16 0 
N 29 25 0 
O 91 17 0 
O 27 26 0 
O 74 0 0 
8
Atoms. Timestep: 551
N 2 72 0 
N 87 22 0 
N 51 68 0 
N 93 16 0 
N 28 25 0 
O 90 17 0 
O 26 26 0 
O 73 0 0 
8
Atoms. Timestep: 552
N 1 72 0 
N 87 21 0 
N 51 69 0 
N 92 16 0 
N 27 25 0 
O 89 17 0 
O 26 27 0 
O 72 0 0 
8
Atoms. Timestep: 553
N 0 72 0 
N 87 20 0 
N 51 70 0 
N 91 16 0 
N 27 26 0 
O 88 17 0 
O 25 27 0 
O 71 0 0 
8
Atoms. Timestep: 554
N 99 72 0 
N 87 19 0 
N 51 71 0 
N 90 16 0 
N 26 26 0 
O 88 16 0 
O 25 28 0 
O 71 99 0 
8
Atoms. Timestep: 555
N 98 72 0 
N 87 20 0 
N 51 72 0 
N 89 16 0 
N 26 27 0 
O 87 16 0 
O 25 29 0 
O 70 99 0 
8
Atoms. Timestep: 556
N 97 72 0 
N 87 21 0 
N 51 73 0 
N 88 16 0 
N 26 28 0 
O 86 16 0 
O 25 30 0 
O 69 99 0 
8
Atoms. Timestep: 557
N 96 72 0 
N 87 22 0 
N 51 74 0 
N 87 16 0 
N 26 29 0 
O 85 16 0 
O 25 31 0 
O 68 99 0 
8
Atoms. Timestep: 558
N 95 72 0 
N 87 23 0 
N 51 75 0 
N 86 16 0 
N 26 30 0 
O 84 16 0 
O 25 32 0 
O 67 99 0 
8
Atoms. Timestep: 559
N 94 72 0 
N 87 24 0 
N 51 76 0 
N 85 16 0 
N 26 31 0 
O 83 16 0 
O 25 33 0 
O 66 99 0 
8
Atoms. Timestep: 560
N 93 72 0 
N 87 25 0 
N 51 77 0 
N 84 16 0 
N 26 32 0 
O 82 16 0 
O 24 33 0 
O 65 99 0 
8
Atoms. Timestep: 561
N 92 72 0 
N 87 26 0 
N 51 78 0 
N 83 16 0 
N 26 31 0 
O 81 16 0 
O 23 33 0 
O 64 99 0 
8
Atoms. Timestep: 562
N 91 72 0 
N 87 27 0 
N 51 79 0 
N 82 16 0 
N 25 31 0 
O 80 16 0 
O 22 33 0 
O 64 0 0 
8
Atoms. Timestep: 563
N 91 73 0 
N 87 28 0 
N 51 80 0 
N 81 16 0 
N 24 31 0 
O 79 16 0 
O 21 33 0 
O 64 1 0 
8
Atoms. Timestep: 564
N 91 74 0 
N 87 29 0 
N 51 81 0 
N 80 16 0 
N 23 31 0 
O 78 16 0 
O 21 34 0 
O 63 1 0 
8
Atoms. Timestep: 565
N 90 74 0 
N 87 30 0 
N 51 82 0 
N 79 16 0 
N 23 32 0 
O 77 16 0 
O 21 35 0 
O 62 1 0 
8
Atoms. Timestep: 566
N 89 74 0 
N 87 31 0 
N 51 83 0 
N 78 16 0 
N 23 33 0 
O 76 16 0 
O 21 36 0 
O 62 2 0 
8
Atoms. Timestep: 567
N 89 75 0 
N 87 32 0 
N 51 84 0 
N 77 16 0 
N 23 34 0 
O 75 16 0 
O 20 36 0 
O 61 2 0 
8
Atoms. Timestep: 568
N 88 75 0 
N 87 33 0 
N 51 85 0 
N 76 16 0 
N 22 34 0 
O 74 16 0 
O 20 37 0 
O 61 3 0 
8
Atoms. Timestep: 569
N 89 75 0 
N 87 34 0 
N 51 86 0 
N 75 16 0 
N 22 35 0 
O 73 16 0 
O 19 37 0 
O 61 4 0 
8
Atoms. Timestep: 570
N 90 75 0 
N 87 35 0 
N 51 87 0 
N 74 16 0 
N 21 35 0 
O 72 16 0 
O 18 37 0 
O 60 4 0 
8
Atoms. Timestep: 571
N 90 76 0 
N 87 36 0 
N 51 88 0 
N 73 16 0 
N 20 35 0 
O 71 16 0 
O 17 37 0 
O 59 4 0 
8
Atoms. Timestep: 572
N 90 77 0 
N 87 35 0 
N 51 89 0 
N 72 16 0 
N 19 35 0 
O 70 16 0 
O 16 37 0 
O 59 5 0 
8
Atoms. Timestep: 573
N 90 78 0 
N 87 36 0 
N 51 90 0 
N 71 16 0 
N 18 35 0 
O 69 16 0 
O 15 37 0 
O 58 5 0 
8
Atoms. Timestep: 574
N 90 79 0 
N 87 37 0 
N 51 91 0 
N 70 16 0 
N 17 35 0 
O 68 16 0 
O 15 38 0 
O 58 6 0 
8
Atoms. Timestep: 575
N 90 80 0 
N 87 38 0 
N 51 92 0 
N 69 16 0 
N 17 36 0 
O 67 16 0 
O 14 38 0 
O 57 6 0 
8
Atoms. Timestep: 576
N 91 80 0 
N 88 38 0 
N 51 93 0 
N 68 16 0 
N 16 36 0 
O 66 16 0 
O 13 38 0 
O 57 7 0 
8
Atoms. Timestep: 577
N 91 81 0 
N 89 38 0 
N 51 94 0 
N 67 16 0 
N 15 36 0 
O 65 16 0 
O 12 38 0 
O 56 7 0 
8
Atoms. Timestep: 578
N 92 81 0 
N 90 38 0 
N 51 95 0 
N 66 16 0 
N 14 36 0 
O 64 16 0 
O 12 39 0 
O 56 8 0 
8
Atoms. Timestep: 579
N 92 82 0 
N 91 38 0 
N 51 96 0 
N 65 16 0 
N 14 37 0 
O 63 16 0 
O 11 39 0 
O 55 8 0 
8
Atoms. Timestep: 580
N 93 82 0 
N 92 38 0 
N 51 97 0 
N 64 16 0 
N 13 37 0 
O 62 16 0 
O 10 39 0 
O 55 9 0 
8
Atoms. Timestep: 581
N 93 83 0 
N 93 38 0 
N 51 98 0 
N 63 16 0 
N 12 37 0 
O 61 16 0 
O 9 39 0 
O 54 9 0 
8
Atoms. Timestep: 582
N 94 83 0 
N 94 38 0 
N 51 99 0 
N 62 16 0 
N 11 37 0 
O 60 16 0 
O 9 40 0 
O 54 10 0 
8
Atoms. Timestep: 583
N 94 84 0 
N 95 38 0 
N 51 0 0 
N 61 16 0 
N 11 38 0 
O 59 16 0 
O 9 41 0 
O 53 10 0 
8
Atoms. Timestep: 584
N 94 83 0 
N 96 38 0 
N 51 1 0 
N 60 16 0 
N 11 39 0 
O 58 16 0 
O 9 42 0 
O 53 11 0 
8
Atoms. Timestep: 585
N 94 82 0 
N 97 38 0 
N 51 2 0 
N 59 16 0 
N 11 40 0 
O 57 16 0 
O 9 43 0 
O 52 11 0 
8
Atoms. Timestep: 586
N 94 81 0 
N 98 38 0 
N 51 3 0 
N 58 16 0 
N 11 41 0 
O 56 16 0 
O 8 43 0 
O 51 11 0 
8
Atoms. Timestep: 587
N 94 80 0 
N 99 38 0 
N 51 4 0 
N 57 16 0 
N 10 41 0 
O 55 16 0 
O 8 44 0 
O 51 12 0 
8
Atoms. Timestep: 588
N 94 79 0 
N 0 38 0 
N 51 5 0 
N 56 16 0 
N 10 42 0 
O 54 16 0 
O 8 45 0 
O 50 12 0 
8
Atoms. Timestep: 589
N 94 78 0 
N 1 38 0 
N 51 6 0 
N 55 16 0 
N 10 43 0 
O 53 16 0 
O 7 45 0 
O 50 13 0 
8
Atoms. Timestep: 590
N 94 77 0 
N 0 38 0 
N 51 7 0 
N 54 16 0 
N 9 43 0 
O 52 16 0 
O 7 46 0 
O 49 13 0 
8
Atoms. Timestep: 591
N 94 76 0 
N 99 38 0 
N 51 8 0 
N 53 16 0 
N 9 44 0 
O 51 16 0 
O 6 46 0 
O 49 14 0 
8
Atoms. Timestep: 592
N 94 75 0 
N 98 38 0 
N 51 9 0 
N 52 16 0 
N 8 44 0 
O 50 16 0 
O 5 46 0 
O 48 14 0 
8
Atoms. Timestep: 593
N 94 74 0 
N 97 38 0 
N 51 10 0 
N 51 16 0 
N 7 44 0 
O 49 16 0 
O 4 46 0 
O 47 14 0 
8
Atoms. Timestep: 594
N 94 73 0 
N 96 38 0 
N 51 11 0 
N 50 16 0 
N 6 44 0 
O 48 16 0 
O 3 46 0 
O 46 14 0 
8
Atoms. Timestep: 595
N 94 72 0 
N 95 38 0 
N 51 10 0 
N 49 16 0 
N 5 44 0 
O 47 16 0 
O 3 47 0 
O 45 14 0 
8
Atoms. Timestep: 596
N 94 71 0 
N 94 38 0 
N 51 9 0 
N 48 16 0 
N 5 45 0 
O 46 16 0 
O 2 47 0 
O 44 14 0 
8
Atoms. Timestep: 597
N 94 70 0 
N 93 38 0 
N 51 8 0 
N 47 16 0 
N 4 45 0 
O 45 16 0 
O 1 47 0 
O 43 14 0 
8
Atoms. Timestep: 598
N 94 69 0 
N 92 38 0 
N 51 7 0 
N 46 16 0 
N 3 45 0 
O 44 16 0 
O 1 48 0 
O 42 14 0 
8
Atoms. Timestep: 599
N 94 68 0 
N 91 38 0 
N 51 6 0 
N 45 16 0 
N 3 46 0 
O 43 16 0 
O 0 48 0 
O 41 14 0 
8
Atoms. Timestep: 600
N 94 67 0 
N 90 38 0 
N 51 5 0 
N 44 16 0 
N 2 46 0 
O 42 16 0 
O 0 49 0 
O 40 14 0 
8
Atoms. Timestep: 601
N 94 66 0 
N 90 39 0 
N 51 4 0 
N 43 16 0 
N 2 47 0 
O 41 16 0 
O 99 49 0 
O 39 14 0 
8
Atoms. Timestep: 602
N 94 65 0 
N 89 39 0 
N 51 3 0 
N 42 16 0 
N 1 47 0 
O 40 16 0 
O 98 49 0 
O 38 14 0 
8
Atoms. Timestep: 603
N 94 64 0 
N 88 39 0 
N 51 2 0 
N 41 16 0 
N 0 47 0 
O 39 16 0 
O 98 50 0 
O 37 14 0 
8
Atoms. Timestep: 604
N 94 63 0 
N 88 40 0 
N 51 1 0 
N 40 16 0 
N 0 48 0 
O 38 16 0 
O 98 51 0 
O 36 14 0 
8
Atoms. Timestep: 605
N 94 62 0 
N 88 41 0 
N 51 0 0 
N 39 16 0 
N 0 49 0 
O 37 16 0 
O 98 52 0 
O 35 14 0 
8
Atoms. Timestep: 606
N 94 61 0 
N 88 42 0 
N 51 99 0 
N 38 16 0 
N 0 50 0 
O 36 16 0 
O 98 53 0 
O 34 14 0 
8
Atoms. Timestep: 607
N 94 60 0 
N 88 43 0 
N 51 98 0 
N 37 16 0 
N 0 51 0 
O 35 16 0 
O 98 54 0 
O 33 14 0 
8
Atoms. Timestep: 608
N 94 59 0 
N 88 44 0 
N 51 97 0 
N 36 16 0 
N 0 52 0 
O 34 16 0 
O 98 55 0 
O 32 14 0 
8
Atoms. Timestep: 609
N 94 58 0 
N 88 45 0 
N 51 96 0 
N 35 16 0 
N 0 53 0 
O 33 16 0 
O 98 56 0 
O 31 14 0 
8
Atoms. Timestep: 610
N 95 58 0 
N 88 44 0 
N 51 95 0 
N 34 16 0 
N 0 54 0 
O 32 16 0 
O 98 57 0 
O 30 14 0 
8
Atoms. Timestep: 611
N 96 58 0 
N 88 43 0 
N 51 94 0 
N 33 16 0 
N 0 55 0 
O 31 16 0 
O 99 57 0 
O 29 14 0 
8
Atoms. Timestep: 612
N 97 58 0 
N 88 42 0 
N 51 93 0 
N 32 16 0 
N 0 56 0 
O 30 16 0 
O 98 57 0 
O 28 14 0 
8
Atoms. Timestep: 613
N 97 57 0 
N 88 41 0 
N 51 92 0 
N 31 16 0 
N 99 56 0 
O 29 16 0 
O 99 57 0 
O 27 14 0 
7
Atoms. Timestep: 614
N 96 57 0 
N 88 40 0 
N 51 91 0 
N 30 16 0 
N 99 57 0 
O 28 16 0 
O 26 14 0 
7
Atoms. Timestep: 615
N 95 57 0 
N 88 39 0 
N 51 90 0 
N 29 16 0 
N 0 57 0 
O 27 16 0 
O 25 14 0 
7
Atoms. Timestep: 616
N 94 57 0 
N 88 38 0 
N 51 89 0 
N 28 16 0 
N 1 57 0 
O 26 16 0 
O 24 14 0 
7
Atoms. Timestep: 617
N 93 57 0 
N 88 37 0 
N 51 88 0 
N 27 16 0 
N 2 57 0 
O 25 16 0 
O 23 14 0 
7
Atoms. Timestep: 618
N 92 57 0 
N 88 36 0 
N 51 87 0 
N 26 16 0 
N 3 57 0 
O 24 16 0 
O 22 14 0 
7
Atoms. Timestep: 619
N 91 57 0 
N 88 35 0 
N 51 86 0 
N 25 16 0 
N 4 57 0 
O 23 16 0 
O 21 14 0 
7
Atoms. Timestep: 620
N 90 57 0 
N 88 34 0 
N 51 85 0 
N 24 16 0 
N 5 57 0 
O 22 16 0 
O 20 14 0 
7
Atoms. Timestep: 621
N 89 57 0 
N 88 33 0 
N 51 84 0 
N 23 16 0 
N 6 57 0 
O 21 16 0 
O 19 14 0 
7
Atoms. Timestep: 622
N 88 57 0 
N 88 32 0 
N 51 83 0 
N 22 16 0 
N 7 57 0 
O 20 16 0 
O 18 14 0 
7
Atoms. Timestep: 623
N 87 57 0 
N 88 31 0 
N 51 82 0 
N 21 16 0 
N 8 57 0 
O 19 16 0 
O 17 14 0 
7
Atoms. Timestep: 624
N 86 57 0 
N 88 30 0 
N 50 82 0 
N 20 16 0 
N 9 57 0 
O 18 16 0 
O 16 14 0 
7
Atoms. Timestep: 625
N 85 57 0 
N 88 29 0 
N 49 82 0 
N 19 16 0 
N 10 57 0 
O 17 16 0 
O 15 14 0 
7
Atoms. Timestep: 626
N 84 57 0 
N 88 28 0 
N 48 82 0 
N 18 16 0 
N 11 57 0 
O 16 16 0 
O 14 14 0 
7
Atoms. Timestep: 627
N 83 57 0 
N 88 27 0 
N 47 82 0 
N 17 16 0 
N 12 57 0 
O 15 16 0 
O 13 14 0 
7
Atoms. Timestep: 628
N 83 58 0 
N 89 27 0 
N 48 82 0 
N 16 16 0 
N 13 57 0 
O 14 16 0 
O 12 14 0 
7
Atoms. Timestep: 629
N 83 59 0 
N 90 27 0 
N 47 82 0 
N 15 16 0 
N 14 57 0 
O 13 16 0 
O 11 14 0 
7
Atoms. Timestep: 630
N 83 60 0 
N 91 27 0 
N 48 82 0 
N 14 16 0 
N 15 57 0 
O 12 16 0 
O 10 14 0 
7
Atoms. Timestep: 631
N 82 60 0 
N 92 27 0 
N 49 82 0 
N 13 16 0 
N 16 57 0 
O 11 16 0 
O 9 14 0 
7
Atoms. Timestep: 632
N 82 61 0 
N 93 27 0 
N 48 82 0 
N 12 16 0 
N 17 57 0 
O 10 16 0 
O 8 14 0 
7
Atoms. Timestep: 633
N 82 62 0 
N 94 27 0 
N 47 82 0 
N 11 16 0 
N 18 57 0 
O 9 16 0 
O 7 14 0 
7
Atoms. Timestep: 634
N 82 63 0 
N 95 27 0 
N 48 82 0 
N 10 16 0 
N 19 57 0 
O 8 16 0 
O 6 14 0 
7
Atoms. Timestep: 635
N 82 64 0 
N 94 27 0 
N 49 82 0 
N 9 16 0 
N 20 57 0 
O 7 16 0 
O 5 14 0 
7
Atoms. Timestep: 636
N 82 65 0 
N 93 27 0 
N 48 82 0 
N 8 16 0 
N 21 57 0 
O 6 16 0 
O 4 14 0 
7
Atoms. Timestep: 637
N 83 65 0 
N 92 27 0 
N 49 82 0 
N 7 16 0 
N 20 57 0 
O 5 16 0 
O 3 14 0 
7
Atoms. Timestep: 638
N 84 65 0 
N 91 27 0 
N 50 82 0 
N 6 16 0 
N 21 57 0 
O 4 16 0 
O 2 14 0 
7
Atoms. Timestep: 639
N 85 65 0 
N 90 27 0 
N 51 82 0 
N 5 16 0 
N 22 57 0 
O 3 16 0 
O 1 14 0 
7
Atoms. Timestep: 640
N 86 65 0 
N 89 27 0 
N 52 82 0 
N 4 16 0 
N 23 57 0 
O 2 16 0 
O 0 14 0 
7
Atoms. Timestep: 641
N 87 65 0 
N 88 27 0 
N 53 82 0 
N 3 16 0 
N 24 57 0 
O 1 16 0 
O 99 14 0 
7
Atoms. Timestep: 642
N 88 65 0 
N 87 27 0 
N 54 82 0 
N 2 16 0 
N 25 57 0 
O 0 16 0 
O 98 14 0 
7
Atoms. Timestep: 643
N 89 65 0 
N 86 27 0 
N 55 82 0 
N 1 16 0 
N 26 57 0 
O 99 16 0 
O 97 14 0 
7
Atoms. Timestep: 644
N 90 65 0 
N 85 27 0 
N 56 82 0 
N 0 16 0 
N 27 57 0 
O 98 16 0 
O 96 14 0 
7
Atoms. Timestep: 645
N 91 65 0 
N 84 27 0 
N 57 82 0 
N 99 16 0 
N 28 57 0 
O 97 16 0 
O 95 14 0 
7
Atoms. Timestep: 646
N 92 65 0 
N 83 27 0 
N 58 82 0 
N 98 16 0 
N 29 57 0 
O 96 16 0 
O 94 14 0 
7
Atoms. Timestep: 647
N 93 65 0 
N 82 27 0 
N 59 82 0 
N 97 16 0 
N 30 57 0 
O 95 16 0 
O 93 14 0 
7
Atoms. Timestep: 648
N 94 65 0 
N 81 27 0 
N 60 82 0 
N 96 16 0 
N 31 57 0 
O 94 16 0 
O 92 14 0 
7
Atoms. Timestep: 649
N 95 65 0 
N 80 27 0 
N 61 82 0 
N 95 16 0 
N 32 57 0 
O 93 16 0 
O 91 14 0 
7
Atoms. Timestep: 650
N 96 65 0 
N 79 27 0 
N 62 82 0 
N 94 16 0 
N 33 57 0 
O 92 16 0 
O 90 14 0 
7
Atoms. Timestep: 651
N 95 65 0 
N 78 27 0 
N 61 82 0 
N 93 16 0 
N 32 57 0 
O 91 16 0 
O 89 14 0 
7
Atoms. Timestep: 652
N 96 65 0 
N 77 27 0 
N 62 82 0 
N 92 16 0 
N 33 57 0 
O 90 16 0 
O 88 14 0 
7
Atoms. Timestep: 653
N 97 65 0 
N 76 27 0 
N 63 82 0 
N 91 16 0 
N 34 57 0 
O 89 16 0 
O 87 14 0 
7
Atoms. Timestep: 654
N 98 65 0 
N 75 27 0 
N 64 82 0 
N 90 16 0 
N 35 57 0 
O 88 16 0 
O 86 14 0 
7
Atoms. Timestep: 655
N 99 65 0 
N 74 27 0 
N 65 82 0 
N 89 16 0 
N 36 57 0 
O 87 16 0 
O 85 14 0 
7
Atoms. Timestep: 656
N 0 65 0 
N 73 27 0 
N 66 82 0 
N 88 16 0 
N 37 57 0 
O 86 16 0 
O 84 14 0 
7
Atoms. Timestep: 657
N 1 65 0 
N 72 27 0 
N 66 83 0 
N 87 16 0 
N 38 57 0 
O 85 16 0 
O 83 14 0 
7
Atoms. Timestep: 658
N 0 65 0 
N 71 27 0 
N 66 84 0 
N 86 16 0 
N 39 57 0 
O 84 16 0 
O 82 14 0 
7
Atoms. Timestep: 659
N 1 65 0 
N 70 27 0 
N 66 85 0 
N 85 16 0 
N 39 56 0 
O 83 16 0 
O 81 14 0 
7
Atoms. Timestep: 660
N 2 65 0 
N 69 27 0 
N 66 86 0 
N 84 16 0 
N 40 56 0 
O 82 16 0 
O 80 14 0 
7
Atoms. Timestep: 661
N 1 65 0 
N 68 27 0 
N 66 87 0 
N 83 16 0 
N 41 56 0 
O 81 16 0 
O 79 14 0 
7
Atoms. Timestep: 662
N 0 65 0 
N 67 27 0 
N 66 88 0 
N 82 16 0 
N 41 57 0 
O 80 16 0 
O 78 14 0 
7
Atoms. Timestep: 663
N 1 65 0 
N 66 27 0 
N 66 89 0 
N 81 16 0 
N 41 58 0 
O 79 16 0 
O 77 14 0 
7
Atoms. Timestep: 664
N 0 65 0 
N 65 27 0 
N 66 90 0 
N 80 16 0 
N 41 59 0 
O 78 16 0 
O 76 14 0 
7
Atoms. Timestep: 665
N 99 65 0 
N 64 27 0 
N 66 91 0 
N 79 16 0 
N 41 58 0 
O 77 16 0 
O 75 14 0 
7
Atoms. Timestep: 666
N 0 65 0 
N 63 27 0 
N 66 92 0 
N 78 16 0 
N 41 59 0 
O 76 16 0 
O 74 14 0 
7
Atoms. Timestep: 667
N 99 65 0 
N 62 27 0 
N 66 93 0 
N 77 16 0 
N 41 60 0 
O 75 16 0 
O 73 14 0 
7
Atoms. Timestep: 668
N 98 65 0 
N 61 27 0 
N 66 94 0 
N 76 16 0 
N 41 61 0 
O 74 16 0 
O 72 14 0 
7
Atoms. Timestep: 669
N 99 65 0 
N 60 27 0 
N 66 95 0 
N 75 16 0 
N 41 62 0 
O 73 16 0 
O 71 14 0 
7
Atoms. Timestep: 670
N 98 65 0 
N 59 27 0 
N 66 96 0 
N 74 16 0 
N 41 63 0 
O 72 16 0 
O 70 14 0 
7
Atoms. Timestep: 671
N 97 65 0 
N 58 27 0 
N 66 97 0 
N 73 16 0 
N 41 64 0 
O 71 16 0 
O 69 14 0 
7
Atoms. Timestep: 672
N 96 65 0 
N 57 27 0 
N 66 98 0 
N 72 16 0 
N 41 65 0 
O 70 16 0 
O 68 14 0 
7
Atoms. Timestep: 673
N 96 64 0 
N 58 27 0 
N 66 99 0 
N 73 16 0 
N 41 66 0 
O 69 16 0 
O 67 14 0 
7
Atoms. Timestep: 674
N 95 64 0 
N 58 26 0 
N 66 0 0 
N 72 16 0 
N 41 65 0 
O 68 16 0 
O 66 14 0 
7
Atoms. Timestep: 675
N 94 64 0 
N 58 25 0 
N 66 1 0 
N 71 16 0 
N 41 66 0 
O 67 16 0 
O 65 14 0 
7
Atoms. Timestep: 676
N 94 63 0 
N 58 24 0 
N 66 2 0 
N 70 16 0 
N 41 65 0 
O 66 16 0 
O 64 14 0 
7
Atoms. Timestep: 677
N 93 63 0 
N 59 24 0 
N 66 3 0 
N 69 16 0 
N 41 66 0 
O 65 16 0 
O 63 14 0 
7
Atoms. Timestep: 678
N 92 63 0 
N 59 23 0 
N 66 4 0 
N 68 16 0 
N 41 65 0 
O 64 16 0 
O 62 14 0 
7
Atoms. Timestep: 679
N 92 62 0 
N 59 22 0 
N 66 5 0 
N 67 16 0 
N 41 66 0 
O 63 16 0 
O 61 14 0 
7
Atoms. Timestep: 680
N 91 62 0 
N 59 21 0 
N 66 6 0 
N 66 16 0 
N 41 65 0 
O 62 16 0 
O 60 14 0 
7
Atoms. Timestep: 681
N 91 61 0 
N 59 20 0 
N 66 5 0 
N 65 16 0 
N 41 66 0 
O 61 16 0 
O 59 14 0 
7
Atoms. Timestep: 682
N 91 60 0 
N 59 19 0 
N 66 4 0 
N 64 16 0 
N 41 65 0 
O 61 15 0 
O 59 13 0 
7
Atoms. Timestep: 683
N 91 59 0 
N 59 18 0 
N 66 5 0 
N 63 16 0 
N 41 64 0 
O 60 15 0 
O 59 12 0 
7
Atoms. Timestep: 684
N 91 58 0 
N 58 18 0 
N 66 6 0 
N 62 16 0 
N 41 63 0 
O 59 15 0 
O 59 11 0 
7
Atoms. Timestep: 685
N 91 57 0 
N 57 18 0 
N 65 6 0 
N 61 16 0 
N 41 64 0 
O 58 15 0 
O 59 10 0 
7
Atoms. Timestep: 686
N 91 56 0 
N 56 18 0 
N 64 6 0 
N 60 16 0 
N 41 65 0 
O 57 15 0 
O 58 10 0 
7
Atoms. Timestep: 687
N 91 55 0 
N 55 18 0 
N 63 6 0 
N 59 16 0 
N 41 64 0 
O 56 15 0 
O 57 10 0 
7
Atoms. Timestep: 688
N 91 54 0 
N 54 18 0 
N 62 6 0 
N 58 16 0 
N 41 63 0 
O 55 15 0 
O 56 10 0 
7
Atoms. Timestep: 689
N 91 55 0 
N 53 18 0 
N 61 6 0 
N 57 16 0 
N 41 64 0 
O 54 15 0 
O 55 10 0 
7
Atoms. Timestep: 690
N 91 54 0 
N 52 18 0 
N 60 6 0 
N 56 16 0 
N 41 63 0 
O 53 15 0 
O 54 10 0 
7
Atoms. Timestep: 691
N 91 53 0 
N 51 18 0 
N 59 6 0 
N 55 16 0 
N 41 64 0 
O 52 15 0 
O 53 10 0 
7
Atoms. Timestep: 692
N 91 52 0 
N 50 18 0 
N 58 6 0 
N 54 16 0 
N 41 63 0 
O 51 15 0 
O 52 10 0 
7
Atoms. Timestep: 693
N 91 51 0 
N 49 18 0 
N 57 6 0 
N 53 16 0 
N 41 64 0 
O 50 15 0 
O 51 10 0 
7
Atoms. Timestep: 694
N 91 50 0 
N 48 18 0 
N 56 6 0 
N 52 16 0 
N 41 63 0 
O 49 15 0 
O 50 10 0 
7
Atoms. Timestep: 695
N 91 49 0 
N 47 18 0 
N 55 6 0 
N 51 16 0 
N 41 64 0 
O 48 15 0 
O 49 10 0 
7
Atoms. Timestep: 696
N 91 48 0 
N 46 18 0 
N 54 6 0 
N 50 16 0 
N 41 63 0 
O 47 15 0 
O 48 10 0 
7
Atoms. Timestep: 697
N 91 47 0 
N 45 18 0 
N 53 6 0 
N 49 16 0 
N 41 62 0 
O 46 15 0 
O 47 10 0 
7
Atoms. Timestep: 698
N 91 46 0 
N 44 18 0 
N 52 6 0 
N 48 16 0 
N 41 63 0 
O 45 15 0 
O 46 10 0 
7
Atoms. Timestep: 699
N 91 45 0 
N 43 18 0 
N 51 6 0 
N 47 16 0 
N 41 62 0 
O 44 15 0 
O 45 10 0 
7
Atoms. Timestep: 700
N 92 45 0 
N 42 18 0 
N 50 6 0 
N 46 16 0 
N 41 63 0 
O 43 15 0 
O 44 10 0 
7
Atoms. Timestep: 701
N 91 45 0 
N 41 18 0 
N 49 6 0 
N 45 16 0 
N 41 62 0 
O 42 15 0 
O 43 10 0 
7
Atoms. Timestep: 702
N 91 44 0 
N 40 18 0 
N 48 6 0 
N 44 16 0 
N 41 63 0 
O 41 15 0 
O 42 10 0 
7
Atoms. Timestep: 703
N 91 43 0 
N 39 18 0 
N 47 6 0 
N 43 16 0 
N 41 62 0 
O 40 15 0 
O 41 10 0 
7
Atoms. Timestep: 704
N 90 43 0 
N 38 18 0 
N 46 6 0 
N 42 16 0 
N 41 63 0 
O 39 15 0 
O 40 10 0 
7
Atoms. Timestep: 705
N 91 43 0 
N 37 18 0 
N 45 6 0 
N 41 16 0 
N 41 62 0 
O 38 15 0 
O 39 10 0 
7
Atoms. Timestep: 706
N 90 43 0 
N 37 17 0 
N 44 6 0 
N 40 16 0 
N 41 63 0 
O 38 14 0 
O 38 10 0 
7
Atoms. Timestep: 707
N 89 43 0 
N 36 17 0 
N 43 6 0 
N 40 15 0 
N 41 62 0 
O 37 14 0 
O 38 9 0 
7
Atoms. Timestep: 708
N 90 43 0 
N 35 17 0 
N 42 6 0 
N 39 15 0 
N 41 61 0 
O 36 14 0 
O 37 9 0 
7
Atoms. Timestep: 709
N 89 43 0 
N 34 17 0 
N 41 6 0 
N 38 15 0 
N 41 62 0 
O 35 14 0 
O 36 9 0 
7
Atoms. Timestep: 710
N 88 43 0 
N 33 17 0 
N 40 6 0 
N 37 15 0 
N 41 61 0 
O 34 14 0 
O 35 9 0 
7
Atoms. Timestep: 711
N 89 43 0 
N 32 17 0 
N 39 6 0 
N 36 15 0 
N 41 62 0 
O 33 14 0 
O 34 9 0 
7
Atoms. Timestep: 712
N 88 43 0 
N 31 17 0 
N 38 6 0 
N 35 15 0 
N 41 61 0 
O 32 14 0 
O 33 9 0 
7
Atoms. Timestep: 713
N 87 43 0 
N 30 17 0 
N 37 6 0 
N 34 15 0 
N 41 62 0 
O 31 14 0 
O 32 9 0 
7
Atoms. Timestep: 714
N 86 43 0 
N 29 17 0 
N 36 6 0 
N 33 15 0 
N 41 61 0 
O 30 14 0 
O 31 9 0 
7
Atoms. Timestep: 715
N 87 43 0 
N 28 17 0 
N 35 6 0 
N 32 15 0 
N 41 62 0 
O 29 14 0 
O 30 9 0 
7
Atoms. Timestep: 716
N 86 43 0 
N 27 17 0 
N 34 6 0 
N 31 15 0 
N 41 61 0 
O 28 14 0 
O 29 9 0 
7
Atoms. Timestep: 717
N 85 43 0 
N 26 17 0 
N 33 6 0 
N 30 15 0 
N 41 60 0 
O 27 14 0 
O 28 9 0 
7
Atoms. Timestep: 718
N 84 43 0 
N 25 17 0 
N 32 6 0 
N 29 15 0 
N 41 61 0 
O 26 14 0 
O 27 9 0 
7
Atoms. Timestep: 719
N 85 43 0 
N 24 17 0 
N 31 6 0 
N 28 15 0 
N 41 60 0 
O 25 14 0 
O 26 9 0 
7
Atoms. Timestep: 720
N 84 43 0 
N 23 17 0 
N 30 6 0 
N 27 15 0 
N 41 61 0 
O 24 14 0 
O 25 9 0 
7
Atoms. Timestep: 721
N 83 43 0 
N 22 17 0 
N 29 6 0 
N 26 15 0 
N 40 61 0 
O 23 14 0 
O 24 9 0 
7
Atoms. Timestep: 722
N 82 43 0 
N 21 17 0 
N 28 6 0 
N 25 15 0 
N 39 61 0 
O 22 14 0 
O 23 9 0 
7
Atoms. Timestep: 723
N 81 43 0 
N 20 17 0 
N 27 6 0 
N 24 15 0 
N 38 61 0 
O 21 14 0 
O 22 9 0 
7
Atoms. Timestep: 724
N 80 43 0 
N 19 17 0 
N 26 6 0 
N 23 15 0 
N 37 61 0 
O 20 14 0 
O 21 9 0 
7
Atoms. Timestep: 725
N 79 43 0 
N 18 17 0 
N 25 6 0 
N 22 15 0 
N 36 61 0 
O 19 14 0 
O 20 9 0 
7
Atoms. Timestep: 726
N 78 43 0 
N 17 17 0 
N 24 6 0 
N 21 15 0 
N 35 61 0 
O 18 14 0 
O 19 9 0 
7
Atoms. Timestep: 727
N 77 43 0 
N 16 17 0 
N 23 6 0 
N 20 15 0 
N 34 61 0 
O 17 14 0 
O 18 9 0 
7
Atoms. Timestep: 728
N 76 43 0 
N 15 17 0 
N 22 6 0 
N 19 15 0 
N 33 61 0 
O 16 14 0 
O 17 9 0 
7
Atoms. Timestep: 729
N 75 43 0 
N 14 17 0 
N 21 6 0 
N 18 15 0 
N 32 61 0 
O 15 14 0 
O 16 9 0 
7
Atoms. Timestep: 730
N 74 43 0 
N 13 17 0 
N 20 6 0 
N 17 15 0 
N 31 61 0 
O 14 14 0 
O 15 9 0 
7
Atoms. Timestep: 731
N 73 43 0 
N 12 17 0 
N 19 6 0 
N 16 15 0 
N 30 61 0 
O 13 14 0 
O 14 9 0 
7
Atoms. Timestep: 732
N 72 43 0 
N 11 17 0 
N 18 6 0 
N 15 15 0 
N 29 61 0 
O 12 14 0 
O 13 9 0 
7
Atoms. Timestep: 733
N 71 43 0 
N 10 17 0 
N 17 6 0 
N 14 15 0 
N 28 61 0 
O 11 14 0 
O 12 9 0 
7
Atoms. Timestep: 734
N 70 43 0 
N 9 17 0 
N 16 6 0 
N 13 15 0 
N 27 61 0 
O 10 14 0 
O 11 9 0 
7
Atoms. Timestep: 735
N 69 43 0 
N 8 17 0 
N 15 6 0 
N 12 15 0 
N 26 61 0 
O 9 14 0 
O 10 9 0 
7
Atoms. Timestep: 736
N 68 43 0 
N 7 17 0 
N 14 6 0 
N 11 15 0 
N 25 61 0 
O 8 14 0 
O 9 9 0 
7
Atoms. Timestep: 737
N 67 43 0 
N 6 17 0 
N 13 6 0 
N 10 15 0 
N 24 61 0 
O 7 14 0 
O 8 9 0 
7
Atoms. Timestep: 738
N 66 43 0 
N 5 17 0 
N 12 6 0 
N 9 15 0 
N 23 61 0 
O 6 14 0 
O 7 9 0 
7
Atoms. Timestep: 739
N 65 43 0 
N 4 17 0 
N 11 6 0 
N 8 15 0 
N 22 61 0 
O 5 14 0 
O 6 9 0 
7
Atoms. Timestep: 740
N 64 43 0 
N 3 17 0 
N 10 6 0 
N 7 15 0 
N 21 61 0 
O 4 14 0 
O 5 9 0 
7
Atoms. Timestep: 741
N 63 43 0 
N 2 17 0 
N 9 6 0 
N 6 15 0 
N 20 61 0 
O 3 14 0 
O 4 9 0 
7
Atoms. Timestep: 742
N 62 43 0 
N 1 17 0 
N 8 6 0 
N 5 15 0 
N 19 61 0 
O 2 14 0 
O 3 9 0 
7
Atoms. Timestep: 743
N 61 43 0 
N 0 17 0 
N 7 6 0 
N 4 15 0 
N 18 61 0 
O 1 14 0 
O 2 9 0 
7
Atoms. Timestep: 744
N 60 43 0 
N 99 17 0 
N 6 6 0 
N 3 15 0 
N 17 61 0 
O 0 14 0 
O 1 9 0 
7
Atoms. Timestep: 745
N 59 43 0 
N 98 17 0 
N 5 6 0 
N 2 15 0 
N 16 61 0 
O 99 14 0 
O 0 9 0 
7
Atoms. Timestep: 746
N 60 43 0 
N 97 17 0 
N 4 6 0 
N 1 15 0 
N 17 61 0 
O 98 14 0 
O 99 9 0 
7
Atoms. Timestep: 747
N 59 43 0 
N 96 17 0 
N 3 6 0 
N 0 15 0 
N 16 61 0 
O 97 14 0 
O 98 9 0 
7
Atoms. Timestep: 748
N 58 43 0 
N 95 17 0 
N 2 6 0 
N 99 15 0 
N 15 61 0 
O 96 14 0 
O 97 9 0 
7
Atoms. Timestep: 749
N 57 43 0 
N 94 17 0 
N 1 6 0 
N 98 15 0 
N 14 61 0 
O 95 14 0 
O 96 9 0 
7
Atoms. Timestep: 750
N 56 43 0 
N 93 17 0 
N 0 6 0 
N 97 15 0 
N 13 61 0 
O 94 14 0 
O 95 9 0 
7
Atoms. Timestep: 751
N 55 43 0 
N 92 17 0 
N 99 6 0 
N 96 15 0 
N 12 61 0 
O 93 14 0 
O 94 9 0 
7
Atoms. Timestep: 752
N 54 43 0 
N 91 17 0 
N 98 6 0 
N 95 15 0 
N 11 61 0 
O 92 14 0 
O 93 9 0 
7
Atoms. Timestep: 753
N 53 43 0 
N 90 17 0 
N 97 6 0 
N 94 15 0 
N 10 61 0 
O 91 14 0 
O 92 9 0 
7
Atoms. Timestep: 754
N 52 43 0 
N 89 17 0 
N 96 6 0 
N 93 15 0 
N 9 61 0 
O 90 14 0 
O 91 9 0 
7
Atoms. Timestep: 755
N 51 43 0 
N 88 17 0 
N 95 6 0 
N 92 15 0 
N 8 61 0 
O 89 14 0 
O 90 9 0 
7
Atoms. Timestep: 756
N 50 43 0 
N 87 17 0 
N 94 6 0 
N 91 15 0 
N 7 61 0 
O 88 14 0 
O 89 9 0 
7
Atoms. Timestep: 757
N 49 43 0 
N 86 17 0 
N 93 6 0 
N 90 15 0 
N 6 61 0 
O 87 14 0 
O 88 9 0 
7
Atoms. Timestep: 758
N 48 43 0 
N 85 17 0 
N 92 6 0 
N 89 15 0 
N 5 61 0 
O 86 14 0 
O 87 9 0 
7
Atoms. Timestep: 759
N 47 43 0 
N 84 17 0 
N 91 6 0 
N 88 15 0 
N 4 61 0 
O 85 14 0 
O 86 9 0 
7
Atoms. Timestep: 760
N 46 43 0 
N 83 17 0 
N 90 6 0 
N 87 15 0 
N 3 61 0 
O 84 14 0 
O 85 9 0 
7
Atoms. Timestep: 761
N 45 43 0 
N 82 17 0 
N 89 6 0 
N 86 15 0 
N 2 61 0 
O 83 14 0 
O 84 9 0 
7
Atoms. Timestep: 762
N 44 43 0 
N 81 17 0 
N 88 6 0 
N 85 15 0 
N 1 61 0 
O 82 14 0 
O 83 9 0 
7
Atoms. Timestep: 763
N 43 43 0 
N 80 17 0 
N 87 6 0 
N 84 15 0 
N 0 61 0 
O 81 14 0 
O 82 9 0 
7
Atoms. Timestep: 764
N 42 43 0 
N 79 17 0 
N 86 6 0 
N 83 15 0 
N 99 61 0 
O 80 14 0 
O 81 9 0 
7
Atoms. Timestep: 765
N 41 43 0 
N 78 17 0 
N 85 6 0 
N 82 15 0 
N 98 61 0 
O 79 14 0 
O 80 9 0 
7
Atoms. Timestep: 766
N 40 43 0 
N 77 17 0 
N 84 6 0 
N 81 15 0 
N 97 61 0 
O 78 14 0 
O 79 9 0 
7
Atoms. Timestep: 767
N 39 43 0 
N 76 17 0 
N 83 6 0 
N 80 15 0 
N 96 61 0 
O 77 14 0 
O 78 9 0 
7
Atoms. Timestep: 768
N 38 43 0 
N 75 17 0 
N 82 6 0 
N 79 15 0 
N 95 61 0 
O 76 14 0 
O 77 9 0 
7
Atoms. Timestep: 769
N 37 43 0 
N 74 17 0 
N 81 6 0 
N 78 15 0 
N 94 61 0 
O 75 14 0 
O 76 9 0 
7
Atoms. Timestep: 770
N 36 43 0 
N 73 17 0 
N 80 6 0 
N 77 15 0 
N 93 61 0 
O 74 14 0 
O 75 9 0 
7
Atoms. Timestep: 771
N 35 43 0 
N 72 17 0 
N 79 6 0 
N 76 15 0 
N 92 61 0 
O 73 14 0 
O 74 9 0 
7
Atoms. Timestep: 772
N 34 43 0 
N 71 17 0 
N 78 6 0 
N 75 15 0 
N 91 61 0 
O 72 14 0 
O 73 9 0 
7
Atoms. Timestep: 773
N 33 43 0 
N 70 17 0 
N 77 6 0 
N 74 15 0 
N 90 61 0 
O 71 14 0 
O 72 9 0 
7
Atoms. Timestep: 774
N 32 43 0 
N 69 17 0 
N 76 6 0 
N 73 15 0 
N 89 61 0 
O 70 14 0 
O 71 9 0 
7
Atoms. Timestep: 775
N 31 43 0 
N 68 17 0 
N 75 6 0 
N 72 15 0 
N 88 61 0 
O 69 14 0 
O 70 9 0 
7
Atoms. Timestep: 776
N 30 43 0 
N 67 17 0 
N 74 6 0 
N 71 15 0 
N 87 61 0 
O 68 14 0 
O 69 9 0 
7
Atoms. Timestep: 777
N 29 43 0 
N 66 17 0 
N 73 6 0 
N 70 15 0 
N 86 61 0 
O 67 14 0 
O 68 9 0 
7
Atoms. Timestep: 778
N 28 43 0 
N 65 17 0 
N 72 6 0 
N 69 15 0 
N 85 61 0 
O 66 14 0 
O 67 9 0 
7
Atoms. Timestep: 779
N 27 43 0 
N 64 17 0 
N 71 6 0 
N 68 15 0 
N 84 61 0 
O 65 14 0 
O 66 9 0 
7
Atoms. Timestep: 780
N 26 43 0 
N 63 17 0 
N 70 6 0 
N 67 15 0 
N 83 61 0 
O 64 14 0 
O 65 9 0 
7
Atoms. Timestep: 781
N 25 43 0 
N 62 17 0 
N 69 6 0 
N 66 15 0 
N 82 61 0 
O 63 14 0 
O 64 9 0 
7
Atoms. Timestep: 782
N 24 43 0 
N 61 17 0 
N 68 6 0 
N 65 15 0 
N 81 61 0 
O 62 14 0 
O 63 9 0 
7
Atoms. Timestep: 783
N 23 43 0 
N 60 17 0 
N 67 6 0 
N 64 15 0 
N 80 61 0 
O 61 14 0 
O 62 9 0 
7
Atoms. Timestep: 784
N 22 43 0 
N 59 17 0 
N 66 6 0 
N 63 15 0 
N 79 61 0 
O 60 14 0 
O 61 9 0 
7
Atoms. Timestep: 785
N 21 43 0 
N 58 17 0 
N 65 6 0 
N 62 15 0 
N 78 61 0 
O 59 14 0 
O 60 9 0 
7
Atoms. Timestep: 786
N 20 43 0 
N 57 17 0 
N 64 6 0 
N 61 15 0 
N 77 61 0 
O 58 14 0 
O 59 9 0 
7
Atoms. Timestep: 787
N 19 43 0 
N 56 17 0 
N 63 6 0 
N 60 15 0 
N 76 61 0 
O 57 14 0 
O 58 9 0 
7
Atoms. Timestep: 788
N 18 43 0 
N 55 17 0 
N 62 6 0 
N 59 15 0 
N 75 61 0 
O 56 14 0 
O 57 9 0 
7
Atoms. Timestep: 789
N 17 43 0 
N 54 17 0 
N 61 6 0 
N 58 15 0 
N 74 61 0 
O 55 14 0 
O 56 9 0 
7
Atoms. Timestep: 790
N 16 43 0 
N 53 17 0 
N 60 6 0 
N 57 15 0 
N 73 61 0 
O 54 14 0 
O 55 9 0 
7
Atoms. Timestep: 791
N 15 43 0 
N 52 17 0 
N 59 6 0 
N 56 15 0 
N 72 61 0 
O 53 14 0 
O 54 9 0 
7
Atoms. Timestep: 792
N 14 43 0 
N 51 17 0 
N 58 6 0 
N 55 15 0 
N 71 61 0 
O 52 14 0 
O 53 9 0 
7
Atoms. Timestep: 793
N 13 43 0 
N 50 17 0 
N 57 6 0 
N 54 15 0 
N 70 61 0 
O 51 14 0 
O 52 9 0 
7
Atoms. Timestep: 794
N 12 43 0 
N 49 17 0 
N 56 6 0 
N 53 15 0 
N 69 61 0 
O 50 14 0 
O 51 9 0 
7
Atoms. Timestep: 795
N 11 43 0 
N 48 17 0 
N 55 6 0 
N 52 15 0 
N 68 61 0 
O 49 14 0 
O 50 9 0 
7
Atoms. Timestep: 796
N 10 43 0 
N 47 17 0 
N 54 6 0 
N 51 15 0 
N 67 61 0 
O 48 14 0 
O 49 9 0 
7
Atoms. Timestep: 797
N 9 43 0 
N 46 17 0 
N 53 6 0 
N 50 15 0 
N 66 61 0 
O 47 14 0 
O 48 9 0 
7
Atoms. Timestep: 798
N 8 43 0 
N 45 17 0 
N 52 6 0 
N 49 15 0 
N 65 61 0 
O 46 14 0 
O 47 9 0 
7
Atoms. Timestep: 799
N 7 43 0 
N 44 17 0 
N 51 6 0 
N 48 15 0 
N 64 61 0 
O 45 14 0 
O 46 9 0 
7
Atoms. Timestep: 800
N 6 43 0 
N 43 17 0 
N 50 6 0 
N 47 15 0 
N 63 61 0 
O 44 14 0 
O 45 9 0 
7
Atoms. Timestep: 801
N 5 43 0 
N 42 17 0 
N 49 6 0 
N 46 15 0 
N 62 61 0 
O 43 14 0 
O 44 9 0 
7
Atoms. Timestep: 802
N 4 43 0 
N 41 17 0 
N 48 6 0 
N 45 15 0 
N 61 61 0 
O 42 14 0 
O 43 9 0 
7
Atoms. Timestep: 803
N 3 43 0 
N 40 17 0 
N 47 6 0 
N 44 15 0 
N 60 61 0 
O 41 14 0 
O 42 9 0 
7
Atoms. Timestep: 804
N 2 43 0 
N 39 17 0 
N 46 6 0 
N 43 15 0 
N 59 61 0 
O 40 14 0 
O 41 9 0 
7
Atoms. Timestep: 805
N 1 43 0 
N 38 17 0 
N 45 6 0 
N 42 15 0 
N 58 61 0 
O 39 14 0 
O 40 9 0 
7
Atoms. Timestep: 806
N 0 43 0 
N 37 17 0 
N 44 6 0 
N 41 15 0 
N 57 61 0 
O 38 14 0 
O 39 9 0 
7
Atoms. Timestep: 807
N 99 43 0 
N 36 17 0 
N 43 6 0 
N 40 15 0 
N 56 61 0 
O 37 14 0 
O 38 9 0 
7
Atoms. Timestep: 808
N 98 43 0 
N 35 17 0 
N 42 6 0 
N 39 15 0 
N 55 61 0 
O 36 14 0 
O 37 9 0 
7
Atoms. Timestep: 809
N 97 43 0 
N 34 17 0 
N 41 6 0 
N 38 15 0 
N 54 61 0 
O 35 14 0 
O 36 9 0 
7
Atoms. Timestep: 810
N 96 43 0 
N 33 17 0 
N 40 6 0 
N 37 15 0 
N 53 61 0 
O 34 14 0 
O 35 9 0 
7
Atoms. Timestep: 811
N 95 43 0 
N 32 17 0 
N 39 6 0 
N 36 15 0 
N 52 61 0 
O 33 14 0 
O 34 9 0 
7
Atoms. Timestep: 812
N 94 43 0 
N 31 17 0 
N 38 6 0 
N 35 15 0 
N 51 61 0 
O 32 14 0 
O 33 9 0 
7
Atoms. Timestep: 813
N 93 43 0 
N 30 17 0 
N 37 6 0 
N 34 15 0 
N 50 61 0 
O 31 14 0 
O 32 9 0 
7
Atoms. Timestep: 814
N 92 43 0 
N 29 17 0 
N 36 6 0 
N 33 15 0 
N 49 61 0 
O 30 14 0 
O 31 9 0 
7
Atoms. Timestep: 815
N 93 43 0 
N 28 17 0 
N 35 6 0 
N 32 15 0 
N 48 61 0 
O 29 14 0 
O 30 9 0 
7
Atoms. Timestep: 816
N 92 43 0 
N 27 17 0 
N 34 6 0 
N 31 15 0 
N 48 60 0 
O 28 14 0 
O 29 9 0 
7
Atoms. Timestep: 817
N 91 43 0 
N 26 17 0 
N 33 6 0 
N 30 15 0 
N 47 60 0 
O 27 14 0 
O 28 9 0 
7
Atoms. Timestep: 818
N 90 43 0 
N 25 17 0 
N 32 6 0 
N 29 15 0 
N 46 60 0 
O 26 14 0 
O 27 9 0 
7
Atoms. Timestep: 819
N 89 43 0 
N 24 17 0 
N 31 6 0 
N 28 15 0 
N 45 60 0 
O 25 14 0 
O 26 9 0 
7
Atoms. Timestep: 820
N 88 43 0 
N 23 17 0 
N 30 6 0 
N 27 15 0 
N 44 60 0 
O 24 14 0 
O 25 9 0 
7
Atoms. Timestep: 821
N 87 43 0 
N 22 17 0 
N 29 6 0 
N 26 15 0 
N 43 60 0 
O 23 14 0 
O 24 9 0 
7
Atoms. Timestep: 822
N 86 43 0 
N 21 17 0 
N 28 6 0 
N 25 15 0 
N 42 60 0 
O 22 14 0 
O 23 9 0 
7
Atoms. Timestep: 823
N 85 43 0 
N 20 17 0 
N 27 6 0 
N 24 15 0 
N 41 60 0 
O 21 14 0 
O 22 9 0 
7
Atoms. Timestep: 824
N 84 43 0 
N 19 17 0 
N 26 6 0 
N 23 15 0 
N 40 60 0 
O 20 14 0 
O 21 9 0 
7
Atoms. Timestep: 825
N 83 43 0 
N 18 17 0 
N 25 6 0 
N 22 15 0 
N 39 60 0 
O 19 14 0 
O 20 9 0 
7
Atoms. Timestep: 826
N 82 43 0 
N 17 17 0 
N 24 6 0 
N 21 15 0 
N 38 60 0 
O 18 14 0 
O 19 9 0 
7
Atoms. Timestep: 827
N 81 43 0 
N 16 17 0 
N 23 6 0 
N 20 15 0 
N 37 60 0 
O 17 14 0 
O 18 9 0 
7
Atoms. Timestep: 828
N 80 43 0 
N 15 17 0 
N 22 6 0 
N 19 15 0 
N 36 60 0 
O 16 14 0 
O 17 9 0 
7
Atoms. Timestep: 829
N 79 43 0 
N 14 17 0 
N 21 6 0 
N 18 15 0 
N 35 60 0 
O 15 14 0 
O 16 9 0 
7
Atoms. Timestep: 830
N 78 43 0 
N 13 17 0 
N 20 6 0 
N 17 15 0 
N 34 60 0 
O 14 14 0 
O 15 9 0 
7
Atoms. Timestep: 831
N 77 43 0 
N 12 17 0 
N 19 6 0 
N 16 15 0 
N 33 60 0 
O 13 14 0 
O 14 9 0 
7
Atoms. Timestep: 832
N 76 43 0 
N 11 17 0 
N 18 6 0 
N 15 15 0 
N 32 60 0 
O 12 14 0 
O 13 9 0 
7
Atoms. Timestep: 833
N 75 43 0 
N 10 17 0 
N 17 6 0 
N 14 15 0 
N 31 60 0 
O 11 14 0 
O 12 9 0 
7
Atoms. Timestep: 834
N 74 43 0 
N 9 17 0 
N 16 6 0 
N 13 15 0 
N 30 60 0 
O 10 14 0 
O 11 9 0 
7
Atoms. Timestep: 835
N 73 43 0 
N 8 17 0 
N 15 6 0 
N 12 15 0 
N 29 60 0 
O 9 14 0 
O 10 9 0 
7
Atoms. Timestep: 836
N 72 43 0 
N 7 17 0 
N 14 6 0 
N 11 15 0 
N 28 60 0 
O 8 14 0 
O 9 9 0 
7
Atoms. Timestep: 837
N 71 43 0 
N 6 17 0 
N 13 6 0 
N 10 15 0 
N 27 60 0 
O 7 14 0 
O 8 9 0 
7
Atoms. Timestep: 838
N 70 43 0 
N 5 17 0 
N 12 6 0 
N 9 15 0 
N 26 60 0 
O 6 14 0 
O 7 9 0 
7
Atoms. Timestep: 839
N 69 43 0 
N 4 17 0 
N 11 6 0 
N 8 15 0 
N 25 60 0 
O 5 14 0 
O 6 9 0 
7
Atoms. Timestep: 840
N 68 43 0 
N 3 17 0 
N 10 6 0 
N 7 15 0 
N 24 60 0 
O 4 14 0 
O 5 9 0 
7
Atoms. Timestep: 841
N 67 43 0 
N 2 17 0 
N 9 6 0 
N 6 15 0 
N 23 60 0 
O 3 14 0 
O 4 9 0 
7
Atoms. Timestep: 842
N 66 43 0 
N 1 17 0 
N 8 6 0 
N 5 15 0 
N 22 60 0 
O 2 14 0 
O 3 9 0 
7
Atoms. Timestep: 843
N 65 43 0 
N 0 17 0 
N 7 6 0 
N 4 15 0 
N 21 60 0 
O 1 14 0 
O 2 9 0 
7
Atoms. Timestep: 844
N 64 43 0 
N 99 17 0 
N 6 6 0 
N 3 15 0 
N 20 60 0 
O 0 14 0 
O 1 9 0 
7
Atoms. Timestep: 845
N 63 43 0 
N 98 17 0 
N 5 6 0 
N 2 15 0 
N 19 60 0 
O 99 14 0 
O 0 9 0 
7
Atoms. Timestep: 846
N 62 43 0 
N 97 17 0 
N 4 6 0 
N 1 15 0 
N 18 60 0 
O 98 14 0 
O 99 9 0 
7
Atoms. Timestep: 847
N 61 43 0 
N 96 17 0 
N 3 6 0 
N 0 15 0 
N 17 60 0 
O 97 14 0 
O 98 9 0 
7
Atoms. Timestep: 848
N 60 43 0 
N 95 17 0 
N 2 6 0 
N 99 15 0 
N 16 60 0 
O 96 14 0 
O 97 9 0 
7
Atoms. Timestep: 849
N 59 43 0 
N 94 17 0 
N 1 6 0 
N 98 15 0 
N 15 60 0 
O 95 14 0 
O 96 9 0 
7
Atoms. Timestep: 850
N 58 43 0 
N 93 17 0 
N 0 6 0 
N 97 15 0 
N 14 60 0 
O 94 14 0 
O 95 9 0 
7
Atoms. Timestep: 851
N 57 43 0 
N 92 17 0 
N 99 6 0 
N 96 15 0 
N 13 60 0 
O 93 14 0 
O 94 9 0 
7
Atoms. Timestep: 852
N 56 43 0 
N 91 17 0 
N 98 6 0 
N 95 15 0 
N 12 60 0 
O 92 14 0 
O 93 9 0 
7
Atoms. Timestep: 853
N 55 43 0 
N 90 17 0 
N 97 6 0 
N 94 15 0 
N 11 60 0 
O 91 14 0 
O 92 9 0 
7
Atoms. Timestep: 854
N 54 43 0 
N 89 17 0 
N 96 6 0 
N 93 15 0 
N 10 60 0 
O 90 14 0 
O 91 9 0 
7
Atoms. Timestep: 855
N 53 43 0 
N 88 17 0 
N 95 6 0 
N 92 15 0 
N 9 60 0 
O 89 14 0 
O 90 9 0 
7
Atoms. Timestep: 856
N 52 43 0 
N 87 17 0 
N 94 6 0 
N 91 15 0 
N 8 60 0 
O 88 14 0 
O 89 9 0 
7
Atoms. Timestep: 857
N 51 43 0 
N 86 17 0 
N 93 6 0 
N 90 15 0 
N 7 60 0 
O 87 14 0 
O 88 9 0 
7
Atoms. Timestep: 858
N 50 43 0 
N 85 17 0 
N 92 6 0 
N 89 15 0 
N 6 60 0 
O 86 14 0 
O 87 9 0 
7
Atoms. Timestep: 859
N 49 43 0 
N 84 17 0 
N 91 6 0 
N 88 15 0 
N 5 60 0 
O 85 14 0 
O 86 9 0 
7
Atoms. Timestep: 860
N 48 43 0 
N 83 17 0 
N 90 6 0 
N 87 15 0 
N 4 60 0 
O 84 14 0 
O 85 9 0 
7
Atoms. Timestep: 861
N 47 43 0 
N 82 17 0 
N 89 6 0 
N 86 15 0 
N 3 60 0 
O 83 14 0 
O 84 9 0 
7
Atoms. Timestep: 862
N 46 43 0 
N 81 17 0 
N 88 6 0 
N 85 15 0 
N 2 60 0 
O 82 14 0 
O 83 9 0 
7
Atoms. Timestep: 863
N 45 43 0 
N 80 17 0 
N 87 6 0 
N 84 15 0 
N 1 60 0 
O 81 14 0 
O 82 9 0 
7
Atoms. Timestep: 864
N 44 43 0 
N 79 17 0 
N 86 6 0 
N 83 15 0 
N 0 60 0 
O 80 14 0 
O 81 9 0 
7
Atoms. Timestep: 865
N 43 43 0 
N 78 17 0 
N 85 6 0 
N 82 15 0 
N 99 60 0 
O 79 14 0 
O 80 9 0 
7
Atoms. Timestep: 866
N 42 43 0 
N 77 17 0 
N 84 6 0 
N 81 15 0 
N 98 60 0 
O 78 14 0 
O 79 9 0 
7
Atoms. Timestep: 867
N 41 43 0 
N 76 17 0 
N 83 6 0 
N 80 15 0 
N 97 60 0 
O 77 14 0 
O 78 9 0 
7
Atoms. Timestep: 868
N 40 43 0 
N 75 17 0 
N 82 6 0 
N 79 15 0 
N 96 60 0 
O 76 14 0 
O 77 9 0 
7
Atoms. Timestep: 869
N 39 43 0 
N 74 17 0 
N 81 6 0 
N 78 15 0 
N 95 60 0 
O 75 14 0 
O 76 9 0 
7
Atoms. Timestep: 870
N 38 43 0 
N 73 17 0 
N 80 6 0 
N 77 15 0 
N 94 60 0 
O 74 14 0 
O 75 9 0 
7
Atoms. Timestep: 871
N 37 43 0 
N 72 17 0 
N 79 6 0 
N 76 15 0 
N 93 60 0 
O 73 14 0 
O 74 9 0 
7
Atoms. Timestep: 872
N 36 43 0 
N 71 17 0 
N 78 6 0 
N 75 15 0 
N 92 60 0 
O 72 14 0 
O 73 9 0 
7
Atoms. Timestep: 873
N 35 43 0 
N 70 17 0 
N 77 6 0 
N 74 15 0 
N 91 60 0 
O 71 14 0 
O 72 9 0 
7
Atoms. Timestep: 874
N 34 43 0 
N 69 17 0 
N 76 6 0 
N 73 15 0 
N 90 60 0 
O 70 14 0 
O 71 9 0 
7
Atoms. Timestep: 875
N 33 43 0 
N 68 17 0 
N 75 6 0 
N 72 15 0 
N 89 60 0 
O 69 14 0 
O 70 9 0 
7
Atoms. Timestep: 876
N 32 43 0 
N 67 17 0 
N 74 6 0 
N 71 15 0 
N 88 60 0 
O 68 14 0 
O 69 9 0 
7
Atoms. Timestep: 877
N 31 43 0 
N 66 17 0 
N 73 6 0 
N 70 15 0 
N 87 60 0 
O 67 14 0 
O 68 9 0 
7
Atoms. Timestep: 878
N 30 43 0 
N 65 17 0 
N 72 6 0 
N 69 15 0 
N 86 60 0 
O 66 14 0 
O 67 9 0 
7
Atoms. Timestep: 879
N 29 43 0 
N 64 17 0 
N 71 6 0 
N 68 15 0 
N 85 60 0 
O 65 14 0 
O 66 9 0 
7
Atoms. Timestep: 880
N 28 43 0 
N 63 17 0 
N 70 6 0 
N 67 15 0 
N 84 60 0 
O 64 14 0 
O 65 9 0 
7
Atoms. Timestep: 881
N 27 43 0 
N 62 17 0 
N 69 6 0 
N 66 15 0 
N 83 60 0 
O 63 14 0 
O 64 9 0 
7
Atoms. Timestep: 882
N 26 43 0 
N 61 17 0 
N 68 6 0 
N 65 15 0 
N 82 60 0 
O 62 14 0 
O 63 9 0 
7
Atoms. Timestep: 883
N 25 43 0 
N 60 17 0 
N 67 6 0 
N 64 15 0 
N 81 60 0 
O 61 14 0 
O 62 9 0 
7
Atoms. Timestep: 884
N 24 43 0 
N 59 17 0 
N 66 6 0 
N 63 15 0 
N 80 60 0 
O 60 14 0 
O 61 9 0 
7
Atoms. Timestep: 885
N 23 43 0 
N 58 17 0 
N 65 6 0 
N 62 15 0 
N 79 60 0 
O 59 14 0 
O 60 9 0 
7
Atoms. Timestep: 886
N 22 43 0 
N 57 17 0 
N 64 6 0 
N 61 15 0 
N 78 60 0 
O 58 14 0 
O 59 9 0 
7
Atoms. Timestep: 887
N 21 43 0 
N 56 17 0 
N 63 6 0 
N 60 15 0 
N 77 60 0 
O 57 14 0 
O 58 9 0 
7
Atoms. Timestep: 888
N 20 43 0 
N 55 17 0 
N 64 6 0 
N 59 15 0 
N 76 60 0 
O 56 14 0 
O 57 9 0 
7
Atoms. Timestep: 889
N 19 43 0 
N 54 17 0 
N 63 6 0 
N 58 15 0 
N 75 60 0 
O 55 14 0 
O 56 9 0 
7
Atoms. Timestep: 890
N 18 43 0 
N 53 17 0 
N 63 7 0 
N 57 15 0 
N 74 60 0 
O 54 14 0 
O 56 8 0 
7
Atoms. Timestep: 891
N 17 43 0 
N 52 17 0 
N 62 7 0 
N 56 15 0 
N 73 60 0 
O 53 14 0 
O 55 8 0 
7
Atoms. Timestep: 892
N 16 43 0 
N 51 17 0 
N 61 7 0 
N 55 15 0 
N 72 60 0 
O 52 14 0 
O 54 8 0 
7
Atoms. Timestep: 893
N 15 43 0 
N 50 17 0 
N 60 7 0 
N 54 15 0 
N 71 60 0 
O 51 14 0 
O 53 8 0 
7
Atoms. Timestep: 894
N 14 43 0 
N 49 17 0 
N 59 7 0 
N 53 15 0 
N 70 60 0 
O 50 14 0 
O 52 8 0 
7
Atoms. Timestep: 895
N 13 43 0 
N 48 17 0 
N 58 7 0 
N 52 15 0 
N 69 60 0 
O 49 14 0 
O 51 8 0 
7
Atoms. Timestep: 896
N 12 43 0 
N 47 17 0 
N 57 7 0 
N 51 15 0 
N 68 60 0 
O 48 14 0 
O 50 8 0 
7
Atoms. Timestep: 897
N 11 43 0 
N 46 17 0 
N 56 7 0 
N 50 15 0 
N 67 60 0 
O 47 14 0 
O 49 8 0 
7
Atoms. Timestep: 898
N 10 43 0 
N 45 17 0 
N 55 7 0 
N 49 15 0 
N 66 60 0 
O 46 14 0 
O 48 8 0 
7
Atoms. Timestep: 899
N 9 43 0 
N 44 17 0 
N 54 7 0 
N 48 15 0 
N 65 60 0 
O 45 14 0 
O 47 8 0 
7
Atoms. Timestep: 900
N 8 43 0 
N 43 17 0 
N 53 7 0 
N 47 15 0 
N 64 60 0 
O 44 14 0 
O 46 8 0 
7
Atoms. Timestep: 901
N 7 43 0 
N 42 17 0 
N 52 7 0 
N 46 15 0 
N 63 60 0 
O 43 14 0 
O 45 8 0 
7
Atoms. Timestep: 902
N 6 43 0 
N 41 17 0 
N 51 7 0 
N 45 15 0 
N 62 60 0 
O 42 14 0 
O 44 8 0 
7
Atoms. Timestep: 903
N 5 43 0 
N 40 17 0 
N 50 7 0 
N 44 15 0 
N 61 60 0 
O 41 14 0 
O 43 8 0 
7
Atoms. Timestep: 904
N 4 43 0 
N 39 17 0 
N 49 7 0 
N 43 15 0 
N 60 60 0 
O 40 14 0 
O 42 8 0 
7
Atoms. Timestep: 905
N 3 43 0 
N 38 17 0 
N 48 7 0 
N 42 15 0 
N 59 60 0 
O 39 14 0 
O 41 8 0 
7
Atoms. Timestep: 906
N 2 43 0 
N 37 17 0 
N 47 7 0 
N 41 15 0 
N 58 60 0 
O 38 14 0 
O 40 8 0 
7
Atoms. Timestep: 907
N 1 43 0 
N 36 17 0 
N 46 7 0 
N 40 15 0 
N 57 60 0 
O 37 14 0 
O 39 8 0 
7
Atoms. Timestep: 908
N 0 43 0 
N 35 17 0 
N 45 7 0 
N 39 15 0 
N 56 60 0 
O 36 14 0 
O 38 8 0 
7
Atoms. Timestep: 909
N 99 43 0 
N 34 17 0 
N 44 7 0 
N 38 15 0 
N 55 60 0 
O 35 14 0 
O 37 8 0 
7
Atoms. Timestep: 910
N 98 43 0 
N 33 17 0 
N 43 7 0 
N 37 15 0 
N 54 60 0 
O 34 14 0 
O 36 8 0 
7
Atoms. Timestep: 911
N 98 44 0 
N 32 17 0 
N 42 7 0 
N 36 15 0 
N 53 60 0 
O 33 14 0 
O 35 8 0 
7
Atoms. Timestep: 912
N 97 44 0 
N 31 17 0 
N 41 7 0 
N 35 15 0 
N 52 60 0 
O 32 14 0 
O 34 8 0 
7
Atoms. Timestep: 913
N 96 44 0 
N 30 17 0 
N 40 7 0 
N 34 15 0 
N 51 60 0 
O 31 14 0 
O 33 8 0 
7
Atoms. Timestep: 914
N 95 44 0 
N 29 17 0 
N 39 7 0 
N 33 15 0 
N 50 60 0 
O 30 14 0 
O 32 8 0 
7
Atoms. Timestep: 915
N 94 44 0 
N 28 17 0 
N 38 7 0 
N 32 15 0 
N 49 60 0 
O 29 14 0 
O 31 8 0 
7
Atoms. Timestep: 916
N 93 44 0 
N 27 17 0 
N 37 7 0 
N 31 15 0 
N 48 60 0 
O 28 14 0 
O 30 8 0 
7
Atoms. Timestep: 917
N 92 44 0 
N 26 17 0 
N 36 7 0 
N 30 15 0 
N 47 60 0 
O 27 14 0 
O 29 8 0 
7
Atoms. Timestep: 918
N 91 44 0 
N 25 17 0 
N 35 7 0 
N 29 15 0 
N 46 60 0 
O 26 14 0 
O 28 8 0 
7
Atoms. Timestep: 919
N 90 44 0 
N 24 17 0 
N 34 7 0 
N 28 15 0 
N 45 60 0 
O 25 14 0 
O 27 8 0 
7
Atoms. Timestep: 920
N 89 44 0 
N 23 17 0 
N 33 7 0 
N 27 15 0 
N 44 60 0 
O 24 14 0 
O 26 8 0 
7
Atoms. Timestep: 921
N 88 44 0 
N 22 17 0 
N 32 7 0 
N 26 15 0 
N 43 60 0 
O 23 14 0 
O 25 8 0 
7
Atoms. Timestep: 922
N 87 44 0 
N 21 17 0 
N 31 7 0 
N 25 15 0 
N 42 60 0 
O 22 14 0 
O 24 8 0 
7
Atoms. Timestep: 923
N 86 44 0 
N 20 17 0 
N 30 7 0 
N 24 15 0 
N 41 60 0 
O 21 14 0 
O 23 8 0 
7
Atoms. Timestep: 924
N 85 44 0 
N 19 17 0 
N 29 7 0 
N 23 15 0 
N 40 60 0 
O 20 14 0 
O 22 8 0 
7
Atoms. Timestep: 925
N 84 44 0 
N 18 17 0 
N 28 7 0 
N 22 15 0 
N 39 60 0 
O 19 14 0 
O 21 8 0 
7
Atoms. Timestep: 926
N 83 44 0 
N 17 17 0 
N 27 7 0 
N 21 15 0 
N 38 60 0 
O 18 14 0 
O 20 8 0 
7
Atoms. Timestep: 927
N 82 44 0 
N 16 17 0 
N 26 7 0 
N 20 15 0 
N 37 60 0 
O 17 14 0 
O 19 8 0 
7
Atoms. Timestep: 928
N 81 44 0 
N 15 17 0 
N 25 7 0 
N 19 15 0 
N 36 60 0 
O 16 14 0 
O 18 8 0 
7
Atoms. Timestep: 929
N 80 44 0 
N 15 18 0 
N 24 7 0 
N 18 15 0 
N 35 60 0 
O 15 14 0 
O 17 8 0 
7
Atoms. Timestep: 930
N 79 44 0 
N 15 19 0 
N 23 7 0 
N 17 15 0 
N 35 61 0 
O 14 14 0 
O 16 8 0 
7
Atoms. Timestep: 931
N 78 44 0 
N 15 20 0 
N 22 7 0 
N 16 15 0 
N 35 62 0 
O 13 14 0 
O 15 8 0 
7
Atoms. Timestep: 932
N 77 44 0 
N 15 21 0 
N 21 7 0 
N 15 15 0 
N 34 62 0 
O 12 14 0 
O 14 8 0 
7
Atoms. Timestep: 933
N 76 44 0 
N 15 22 0 
N 20 7 0 
N 14 15 0 
N 34 63 0 
O 11 14 0 
O 13 8 0 
7
Atoms. Timestep: 934
N 75 44 0 
N 15 23 0 
N 19 7 0 
N 13 15 0 
N 34 64 0 
O 10 14 0 
O 12 8 0 
7
Atoms. Timestep: 935
N 74 44 0 
N 15 24 0 
N 18 7 0 
N 12 15 0 
N 33 64 0 
O 9 14 0 
O 11 8 0 
7
Atoms. Timestep: 936
N 73 44 0 
N 15 25 0 
N 17 7 0 
N 11 15 0 
N 33 65 0 
O 8 14 0 
O 10 8 0 
7
Atoms. Timestep: 937
N 72 44 0 
N 15 26 0 
N 16 7 0 
N 10 15 0 
N 33 66 0 
O 7 14 0 
O 9 8 0 
7
Atoms. Timestep: 938
N 73 44 0 
N 15 27 0 
N 15 7 0 
N 9 15 0 
N 33 67 0 
O 6 14 0 
O 8 8 0 
7
Atoms. Timestep: 939
N 72 44 0 
N 15 28 0 
N 15 6 0 
N 8 15 0 
N 34 67 0 
O 5 14 0 
O 7 8 0 
7
Atoms. Timestep: 940
N 73 44 0 
N 15 29 0 
N 14 6 0 
N 7 15 0 
N 34 68 0 
O 4 14 0 
O 6 8 0 
7
Atoms. Timestep: 941
N 72 44 0 
N 15 30 0 
N 13 6 0 
N 6 15 0 
N 34 67 0 
O 3 14 0 
O 5 8 0 
7
Atoms. Timestep: 942
N 71 44 0 
N 15 31 0 
N 12 6 0 
N 5 15 0 
N 34 68 0 
O 2 14 0 
O 4 8 0 
7
Atoms. Timestep: 943
N 70 44 0 
N 15 32 0 
N 11 6 0 
N 4 15 0 
N 34 69 0 
O 1 14 0 
O 3 8 0 
7
Atoms. Timestep: 944
N 69 44 0 
N 15 33 0 
N 10 6 0 
N 3 15 0 
N 34 70 0 
O 0 14 0 
O 2 8 0 
7
Atoms. Timestep: 945
N 68 44 0 
N 15 34 0 
N 9 6 0 
N 2 15 0 
N 34 71 0 
O 99 14 0 
O 1 8 0 
7
Atoms. Timestep: 946
N 67 44 0 
N 15 35 0 
N 8 6 0 
N 1 15 0 
N 34 72 0 
O 98 14 0 
O 0 8 0 
7
Atoms. Timestep: 947
N 66 44 0 
N 15 36 0 
N 7 6 0 
N 0 15 0 
N 34 73 0 
O 97 14 0 
O 99 8 0 
7
Atoms. Timestep: 948
N 65 44 0 
N 15 37 0 
N 6 6 0 
N 99 15 0 
N 34 74 0 
O 96 14 0 
O 98 8 0 
7
Atoms. Timestep: 949
N 64 44 0 
N 15 38 0 
N 5 6 0 
N 98 15 0 
N 34 75 0 
O 95 14 0 
O 97 8 0 
7
Atoms. Timestep: 950
N 63 44 0 
N 15 39 0 
N 4 6 0 
N 97 15 0 
N 34 76 0 
O 94 14 0 
O 96 8 0 
7
Atoms. Timestep: 951
N 62 44 0 
N 15 40 0 
N 3 6 0 
N 96 15 0 
N 34 77 0 
O 93 14 0 
O 95 8 0 
7
Atoms. Timestep: 952
N 61 44 0 
N 15 41 0 
N 2 6 0 
N 95 15 0 
N 34 78 0 
O 92 14 0 
O 94 8 0 
7
Atoms. Timestep: 953
N 60 44 0 
N 15 42 0 
N 1 6 0 
N 94 15 0 
N 34 79 0 
O 91 14 0 
O 93 8 0 
7
Atoms. Timestep: 954
N 59 44 0 
N 15 43 0 
N 0 6 0 
N 93 15 0 
N 34 80 0 
O 90 14 0 
O 92 8 0 
7
Atoms. Timestep: 955
N 58 44 0 
N 15 44 0 
N 99 6 0 
N 92 15 0 
N 34 81 0 
O 89 14 0 
O 91 8 0 
7
Atoms. Timestep: 956
N 59 44 0 
N 15 45 0 
N 98 6 0 
N 91 15 0 
N 34 82 0 
O 88 14 0 
O 90 8 0 
7
Atoms. Timestep: 957
N 59 43 0 
N 15 46 0 
N 97 6 0 
N 90 15 0 
N 34 83 0 
O 87 14 0 
O 89 8 0 
7
Atoms. Timestep: 958
N 59 42 0 
N 15 47 0 
N 96 6 0 
N 89 15 0 
N 34 84 0 
O 86 14 0 
O 88 8 0 
7
Atoms. Timestep: 959
N 59 41 0 
N 15 48 0 
N 95 6 0 
N 88 15 0 
N 34 85 0 
O 85 14 0 
O 87 8 0 
7
Atoms. Timestep: 960
N 59 42 0 
N 15 47 0 
N 94 6 0 
N 87 15 0 
N 34 86 0 
O 84 14 0 
O 86 8 0 
7
Atoms. Timestep: 961
N 59 41 0 
N 15 48 0 
N 93 6 0 
N 86 15 0 
N 34 87 0 
O 83 14 0 
O 85 8 0 
7
Atoms. Timestep: 962
N 59 42 0 
N 14 48 0 
N 92 6 0 
N 85 15 0 
N 34 88 0 
O 82 14 0 
O 84 8 0 
7
Atoms. Timestep: 963
N 59 41 0 
N 14 49 0 
N 91 6 0 
N 84 15 0 
N 34 89 0 
O 81 14 0 
O 83 8 0 
7
Atoms. Timestep: 964
N 59 40 0 
N 13 49 0 
N 90 6 0 
N 83 15 0 
N 34 90 0 
O 80 14 0 
O 82 8 0 
7
Atoms. Timestep: 965
N 59 41 0 
N 12 49 0 
N 89 6 0 
N 82 15 0 
N 34 91 0 
O 79 14 0 
O 81 8 0 
7
Atoms. Timestep: 966
N 59 40 0 
N 12 50 0 
N 88 6 0 
N 81 15 0 
N 34 92 0 
O 78 14 0 
O 80 8 0 
7
Atoms. Timestep: 967
N 59 41 0 
N 12 51 0 
N 87 6 0 
N 80 15 0 
N 34 93 0 
O 77 14 0 
O 79 8 0 
7
Atoms. Timestep: 968
N 59 42 0 
N 11 51 0 
N 86 6 0 
N 79 15 0 
N 34 94 0 
O 76 14 0 
O 78 8 0 
7
Atoms. Timestep: 969
N 59 41 0 
N 10 51 0 
N 85 6 0 
N 78 15 0 
N 35 94 0 
O 75 14 0 
O 77 8 0 
7
Atoms. Timestep: 970
N 59 42 0 
N 10 52 0 
N 84 6 0 
N 77 15 0 
N 36 94 0 
O 74 14 0 
O 76 8 0 
7
Atoms. Timestep: 971
N 59 43 0 
N 10 51 0 
N 83 6 0 
N 76 15 0 
N 37 94 0 
O 73 14 0 
O 75 8 0 
7
Atoms. Timestep: 972
N 59 44 0 
N 9 51 0 
N 82 6 0 
N 75 15 0 
N 38 94 0 
O 72 14 0 
O 74 8 0 
7
Atoms. Timestep: 973
N 59 45 0 
N 9 52 0 
N 81 6 0 
N 74 15 0 
N 39 94 0 
O 71 14 0 
O 73 8 0 
7
Atoms. Timestep: 974
N 59 46 0 
N 9 53 0 
N 80 6 0 
N 73 15 0 
N 40 94 0 
O 70 14 0 
O 72 8 0 
7
Atoms. Timestep: 975
N 59 47 0 
N 9 54 0 
N 79 6 0 
N 72 15 0 
N 41 94 0 
O 69 14 0 
O 71 8 0 
7
Atoms. Timestep: 976
N 59 48 0 
N 9 55 0 
N 78 6 0 
N 71 15 0 
N 42 94 0 
O 68 14 0 
O 70 8 0 
7
Atoms. Timestep: 977
N 59 49 0 
N 9 56 0 
N 77 6 0 
N 70 15 0 
N 43 94 0 
O 67 14 0 
O 69 8 0 
7
Atoms. Timestep: 978
N 59 50 0 
N 9 57 0 
N 76 6 0 
N 69 15 0 
N 44 94 0 
O 66 14 0 
O 68 8 0 
7
Atoms. Timestep: 979
N 59 51 0 
N 9 58 0 
N 75 6 0 
N 68 15 0 
N 45 94 0 
O 65 14 0 
O 67 8 0 
7
Atoms. Timestep: 980
N 59 52 0 
N 9 59 0 
N 74 6 0 
N 67 15 0 
N 46 94 0 
O 64 14 0 
O 66 8 0 
7
Atoms. Timestep: 981
N 59 53 0 
N 9 60 0 
N 73 6 0 
N 66 15 0 
N 47 94 0 
O 63 14 0 
O 65 8 0 
7
Atoms. Timestep: 982
N 59 54 0 
N 9 61 0 
N 72 6 0 
N 65 15 0 
N 48 94 0 
O 62 14 0 
O 64 8 0 
7
Atoms. Timestep: 983
N 59 55 0 
N 9 62 0 
N 71 6 0 
N 64 15 0 
N 49 94 0 
O 61 14 0 
O 63 8 0 
7
Atoms. Timestep: 984
N 59 56 0 
N 9 63 0 
N 70 6 0 
N 63 15 0 
N 49 95 0 
O 60 14 0 
O 62 8 0 
7
Atoms. Timestep: 985
N 59 57 0 
N 9 64 0 
N 69 6 0 
N 62 15 0 
N 49 96 0 
O 59 14 0 
O 61 8 0 
7
Atoms. Timestep: 986
N 59 56 0 
N 9 65 0 
N 68 6 0 
N 61 15 0 
N 49 97 0 
O 58 14 0 
O 60 8 0 
7
Atoms. Timestep: 987
N 59 57 0 
N 9 66 0 
N 67 6 0 
N 60 15 0 
N 49 98 0 
O 57 14 0 
O 59 8 0 
7
Atoms. Timestep: 988
N 59 58 0 
N 9 67 0 
N 66 6 0 
N 59 15 0 
N 49 99 0 
O 56 14 0 
O 58 8 0 
7
Atoms. Timestep: 989
N 59 57 0 
N 9 68 0 
N 65 6 0 
N 58 15 0 
N 50 99 0 
O 55 14 0 
O 57 8 0 
7
Atoms. Timestep: 990
N 59 58 0 
N 9 69 0 
N 64 6 0 
N 57 15 0 
N 50 0 0 
O 54 14 0 
O 56 8 0 
7
Atoms. Timestep: 991
N 59 59 0 
N 9 70 0 
N 63 6 0 
N 56 15 0 
N 50 1 0 
O 53 14 0 
O 55 8 0 
7
Atoms. Timestep: 992
N 59 58 0 
N 9 71 0 
N 62 6 0 
N 55 15 0 
N 50 2 0 
O 52 14 0 
O 54 8 0 
7
Atoms. Timestep: 993
N 59 59 0 
N 9 72 0 
N 61 6 0 
N 54 15 0 
N 50 3 0 
O 51 14 0 
O 54 9 0 
7
Atoms. Timestep: 994
N 59 60 0 
N 9 73 0 
N 60 6 0 
N 53 15 0 
N 50 4 0 
O 50 14 0 
O 53 9 0 
7
Atoms. Timestep: 995
N 59 61 0 
N 9 74 0 
N 59 6 0 
N 52 15 0 
N 50 5 0 
O 49 14 0 
O 53 10 0 
7
Atoms. Timestep: 996
N 59 60 0 
N 9 75 0 
N 58 6 0 
N 51 15 0 
N 50 6 0 
O 48 14 0 
O 53 9 0 
7
Atoms. Timestep: 997
N 59 61 0 
N 9 76 0 
N 57 6 0 
N 50 15 0 
N 50 7 0 
O 47 14 0 
O 54 9 0 
7
Atoms. Timestep: 998
N 59 60 0 
N 9 77 0 
N 56 6 0 
N 49 15 0 
N 51 7 0 
O 46 14 0 
O 54 10 0 
7
Atoms. Timestep: 999
N 59 61 0 
N 9 78 0 
N 56 7 0 
N 48 15 0 
N 51 8 0 
O 45 14 0 
O 54 11 0 
7
Atoms. Timestep: 1000
N 59 60 0 
N 10 78 0 
N 57 7 0 
N 47 15 0 
N 52 8 0 
O 44 14 0 
O 54 12 0 
7
Atoms. Timestep: 1001
N 59 61 0 
N 10 79 0 
N 58 7 0 
N 46 15 0 
N 52 9 0 
O 43 14 0 
O 54 13 0 
7
Atoms. Timestep: 1002
N 59 60 0 
N 10 80 0 
N 59 7 0 
N 45 15 0 
N 52 10 0 
O 42 14 0 
O 54 14 0 
7
Atoms. Timestep: 1003
N 59 59 0 
N 10 81 0 
N 60 7 0 
N 44 15 0 
N 52 11 0 
O 41 14 0 
O 54 15 0 
7
Atoms. Timestep: 1004
N 59 58 0 
N 10 82 0 
N 61 7 0 
N 43 15 0 
N 52 12 0 
O 40 14 0 
O 54 16 0 
7
Atoms. Timestep: 1005
N 59 57 0 
N 10 83 0 
N 62 7 0 
N 42 15 0 
N 52 13 0 
O 39 14 0 
O 54 17 0 
7
Atoms. Timestep: 1006
N 59 56 0 
N 10 84 0 
N 63 7 0 
N 41 15 0 
N 52 14 0 
O 38 14 0 
O 54 18 0 
7
Atoms. Timestep: 1007
N 59 55 0 
N 10 85 0 
N 64 7 0 
N 40 15 0 
N 52 15 0 
O 37 14 0 
O 54 19 0 
7
Atoms. Timestep: 1008
N 59 54 0 
N 10 86 0 
N 65 7 0 
N 39 15 0 
N 52 16 0 
O 36 14 0 
O 54 20 0 
7
Atoms. Timestep: 1009
N 59 53 0 
N 10 87 0 
N 66 7 0 
N 38 15 0 
N 52 17 0 
O 35 14 0 
O 54 21 0 
7
Atoms. Timestep: 1010
N 59 52 0 
N 10 88 0 
N 67 7 0 
N 37 15 0 
N 52 18 0 
O 34 14 0 
O 54 22 0 
7
Atoms. Timestep: 1011
N 59 51 0 
N 10 89 0 
N 68 7 0 
N 36 15 0 
N 52 19 0 
O 33 14 0 
O 54 23 0 
7
Atoms. Timestep: 1012
N 59 50 0 
N 10 90 0 
N 69 7 0 
N 35 15 0 
N 52 20 0 
O 32 14 0 
O 54 24 0 
7
Atoms. Timestep: 1013
N 59 49 0 
N 10 91 0 
N 70 7 0 
N 34 15 0 
N 52 21 0 
O 31 14 0 
O 54 25 0 
7
Atoms. Timestep: 1014
N 59 48 0 
N 10 92 0 
N 71 7 0 
N 33 15 0 
N 52 22 0 
O 30 14 0 
O 54 26 0 
7
Atoms. Timestep: 1015
N 59 47 0 
N 10 93 0 
N 72 7 0 
N 32 15 0 
N 52 23 0 
O 29 14 0 
O 54 27 0 
7
Atoms. Timestep: 1016
N 59 46 0 
N 10 94 0 
N 73 7 0 
N 31 15 0 
N 52 24 0 
O 28 14 0 
O 54 28 0 
7
Atoms. Timestep: 1017
N 59 45 0 
N 10 95 0 
N 74 7 0 
N 30 15 0 
N 52 25 0 
O 27 14 0 
O 54 29 0 
7
Atoms. Timestep: 1018
N 59 44 0 
N 10 96 0 
N 75 7 0 
N 29 15 0 
N 52 26 0 
O 26 14 0 
O 54 30 0 
7
Atoms. Timestep: 1019
N 59 43 0 
N 10 97 0 
N 76 7 0 
N 28 15 0 
N 52 27 0 
O 25 14 0 
O 54 31 0 
7
Atoms. Timestep: 1020
N 59 42 0 
N 10 98 0 
N 77 7 0 
N 27 15 0 
N 52 28 0 
O 24 14 0 
O 54 32 0 
7
Atoms. Timestep: 1021
N 59 41 0 
N 10 99 0 
N 78 7 0 
N 26 15 0 
N 52 29 0 
O 23 14 0 
O 54 33 0 
7
Atoms. Timestep: 1022
N 59 40 0 
N 10 0 0 
N 77 7 0 
N 25 15 0 
N 52 30 0 
O 22 14 0 
O 54 34 0 
7
Atoms. Timestep: 1023
N 59 39 0 
N 10 1 0 
N 76 7 0 
N 24 15 0 
N 52 31 0 
O 21 14 0 
O 54 35 0 
7
Atoms. Timestep: 1024
N 58 39 0 
N 10 2 0 
N 75 7 0 
N 23 15 0 
N 52 32 0 
O 20 14 0 
O 54 36 0 
7
Atoms. Timestep: 1025
N 57 39 0 
N 10 3 0 
N 75 6 0 
N 22 15 0 
N 52 33 0 
O 19 14 0 
O 54 37 0 
7
Atoms. Timestep: 1026
N 56 39 0 
N 10 4 0 
N 74 6 0 
N 21 15 0 
N 52 34 0 
O 18 14 0 
O 53 37 0 
7
Atoms. Timestep: 1027
N 55 39 0 
N 10 5 0 
N 73 6 0 
N 20 15 0 
N 52 35 0 
O 17 14 0 
O 53 36 0 
7
Atoms. Timestep: 1028
N 55 38 0 
N 10 6 0 
N 73 5 0 
N 19 15 0 
N 53 35 0 
O 16 14 0 
O 53 37 0 
7
Atoms. Timestep: 1029
N 56 38 0 
N 10 7 0 
N 73 4 0 
N 18 15 0 
N 53 36 0 
O 15 14 0 
O 53 38 0 
7
Atoms. Timestep: 1030
N 57 38 0 
N 10 8 0 
N 72 4 0 
N 17 15 0 
N 53 37 0 
O 14 14 0 
O 53 39 0 
7
Atoms. Timestep: 1031
N 58 38 0 
N 10 9 0 
N 72 5 0 
N 16 15 0 
N 53 38 0 
O 13 14 0 
O 53 40 0 
7
Atoms. Timestep: 1032
N 59 38 0 
N 10 10 0 
N 72 4 0 
N 15 15 0 
N 53 39 0 
O 12 14 0 
O 53 41 0 
7
Atoms. Timestep: 1033
N 60 38 0 
N 10 11 0 
N 72 3 0 
N 14 15 0 
N 53 40 0 
O 11 14 0 
O 53 42 0 
7
Atoms. Timestep: 1034
N 61 38 0 
N 10 12 0 
N 72 2 0 
N 13 15 0 
N 53 41 0 
O 11 15 0 
O 53 43 0 
7
Atoms. Timestep: 1035
N 62 38 0 
N 10 11 0 
N 72 1 0 
N 12 15 0 
N 53 42 0 
O 10 15 0 
O 53 44 0 
7
Atoms. Timestep: 1036
N 63 38 0 
N 10 10 0 
N 72 0 0 
N 11 15 0 
N 53 43 0 
O 9 15 0 
O 53 45 0 
7
Atoms. Timestep: 1037
N 64 38 0 
N 10 9 0 
N 72 99 0 
N 10 15 0 
N 53 44 0 
O 8 15 0 
O 53 46 0 
7
Atoms. Timestep: 1038
N 65 38 0 
N 10 8 0 
N 72 98 0 
N 9 15 0 
N 53 45 0 
O 7 15 0 
O 53 47 0 
7
Atoms. Timestep: 1039
N 66 38 0 
N 10 7 0 
N 73 98 0 
N 8 15 0 
N 53 46 0 
O 6 15 0 
O 53 48 0 
7
Atoms. Timestep: 1040
N 67 38 0 
N 10 6 0 
N 74 98 0 
N 7 15 0 
N 53 47 0 
O 5 15 0 
O 53 49 0 
7
Atoms. Timestep: 1041
N 68 38 0 
N 10 5 0 
N 75 98 0 
N 6 15 0 
N 53 48 0 
O 4 15 0 
O 53 50 0 
7
Atoms. Timestep: 1042
N 69 38 0 
N 10 4 0 
N 76 98 0 
N 5 15 0 
N 53 49 0 
O 3 15 0 
O 53 51 0 
7
Atoms. Timestep: 1043
N 70 38 0 
N 10 3 0 
N 77 98 0 
N 4 15 0 
N 53 50 0 
O 2 15 0 
O 53 52 0 
7
Atoms. Timestep: 1044
N 71 38 0 
N 10 2 0 
N 78 98 0 
N 3 15 0 
N 53 51 0 
O 1 15 0 
O 53 53 0 
7
Atoms. Timestep: 1045
N 72 38 0 
N 10 1 0 
N 79 98 0 
N 2 15 0 
N 53 52 0 
O 0 15 0 
O 53 54 0 
7
Atoms. Timestep: 1046
N 73 38 0 
N 10 0 0 
N 78 98 0 
N 1 15 0 
N 53 53 0 
O 99 15 0 
O 53 55 0 
7
Atoms. Timestep: 1047
N 74 38 0 
N 10 99 0 
N 77 98 0 
N 0 15 0 
N 53 54 0 
O 98 15 0 
O 53 56 0 
7
Atoms. Timestep: 1048
N 75 38 0 
N 10 98 0 
N 76 98 0 
N 99 15 0 
N 53 55 0 
O 97 15 0 
O 53 57 0 
7
Atoms. Timestep: 1049
N 76 38 0 
N 10 97 0 
N 75 98 0 
N 98 15 0 
N 53 56 0 
O 96 15 0 
O 53 58 0 
7
Atoms. Timestep: 1050
N 77 38 0 
N 10 96 0 
N 74 98 0 
N 97 15 0 
N 53 57 0 
O 95 15 0 
O 53 59 0 
7
Atoms. Timestep: 1051
N 77 39 0 
N 10 95 0 
N 73 98 0 
N 96 15 0 
N 53 58 0 
O 94 15 0 
O 53 60 0 
7
Atoms. Timestep: 1052
N 77 38 0 
N 10 94 0 
N 72 98 0 
N 95 15 0 
N 53 59 0 
O 93 15 0 
O 53 61 0 
7
Atoms. Timestep: 1053
N 77 39 0 
N 10 93 0 
N 71 98 0 
N 94 15 0 
N 53 60 0 
O 92 15 0 
O 53 62 0 
7
Atoms. Timestep: 1054
N 77 40 0 
N 10 92 0 
N 70 98 0 
N 93 15 0 
N 53 61 0 
O 91 15 0 
O 53 63 0 
7
Atoms. Timestep: 1055
N 77 39 0 
N 10 91 0 
N 69 98 0 
N 92 15 0 
N 53 62 0 
O 90 15 0 
O 53 64 0 
7
Atoms. Timestep: 1056
N 77 40 0 
N 10 90 0 
N 68 98 0 
N 91 15 0 
N 53 63 0 
O 89 15 0 
O 53 65 0 
7
Atoms. Timestep: 1057
N 77 39 0 
N 10 89 0 
N 67 98 0 
N 90 15 0 
N 53 64 0 
O 88 15 0 
O 53 66 0 
7
Atoms. Timestep: 1058
N 77 40 0 
N 10 88 0 
N 66 98 0 
N 89 15 0 
N 53 65 0 
O 87 15 0 
O 53 67 0 
7
Atoms. Timestep: 1059
N 77 39 0 
N 10 87 0 
N 65 98 0 
N 88 15 0 
N 53 66 0 
O 86 15 0 
O 53 68 0 
7
Atoms. Timestep: 1060
N 77 38 0 
N 10 86 0 
N 64 98 0 
N 87 15 0 
N 53 67 0 
O 85 15 0 
O 53 69 0 
7
Atoms. Timestep: 1061
N 77 39 0 
N 10 85 0 
N 63 98 0 
N 86 15 0 
N 53 68 0 
O 84 15 0 
O 53 70 0 
7
Atoms. Timestep: 1062
N 77 40 0 
N 10 84 0 
N 62 98 0 
N 85 15 0 
N 53 69 0 
O 83 15 0 
O 53 71 0 
7
Atoms. Timestep: 1063
N 77 41 0 
N 10 83 0 
N 61 98 0 
N 84 15 0 
N 53 70 0 
O 82 15 0 
O 53 72 0 
7
Atoms. Timestep: 1064
N 77 42 0 
N 10 82 0 
N 60 98 0 
N 83 15 0 
N 53 71 0 
O 81 15 0 
O 53 73 0 
7
Atoms. Timestep: 1065
N 77 43 0 
N 10 81 0 
N 60 97 0 
N 82 15 0 
N 53 72 0 
O 80 15 0 
O 53 74 0 
7
Atoms. Timestep: 1066
N 77 44 0 
N 9 81 0 
N 60 96 0 
N 81 15 0 
N 53 73 0 
O 79 15 0 
O 53 75 0 
7
Atoms. Timestep: 1067
N 77 45 0 
N 9 80 0 
N 60 95 0 
N 80 15 0 
N 53 74 0 
O 78 15 0 
O 53 76 0 
7
Atoms. Timestep: 1068
N 77 46 0 
N 8 80 0 
N 60 94 0 
N 79 15 0 
N 53 75 0 
O 77 15 0 
O 53 77 0 
7
Atoms. Timestep: 1069
N 77 47 0 
N 7 80 0 
N 60 93 0 
N 78 15 0 
N 53 76 0 
O 76 15 0 
O 53 78 0 
7
Atoms. Timestep: 1070
N 77 48 0 
N 7 81 0 
N 60 92 0 
N 77 15 0 
N 53 77 0 
O 75 15 0 
O 53 79 0 
7
Atoms. Timestep: 1071
N 77 49 0 
N 7 82 0 
N 60 91 0 
N 76 15 0 
N 53 78 0 
O 74 15 0 
O 53 80 0 
7
Atoms. Timestep: 1072
N 77 50 0 
N 7 83 0 
N 60 92 0 
N 75 15 0 
N 53 79 0 
O 73 15 0 
O 53 81 0 
7
Atoms. Timestep: 1073
N 77 51 0 
N 7 84 0 
N 60 93 0 
N 74 15 0 
N 53 80 0 
O 72 15 0 
O 53 82 0 
7
Atoms. Timestep: 1074
N 77 52 0 
N 7 85 0 
N 60 94 0 
N 73 15 0 
N 53 81 0 
O 71 15 0 
O 53 83 0 
7
Atoms. Timestep: 1075
N 77 53 0 
N 7 86 0 
N 60 95 0 
N 72 15 0 
N 53 82 0 
O 70 15 0 
O 53 84 0 
7
Atoms. Timestep: 1076
N 77 54 0 
N 7 87 0 
N 60 96 0 
N 71 15 0 
N 53 83 0 
O 69 15 0 
O 53 85 0 
7
Atoms. Timestep: 1077
N 77 53 0 
N 7 88 0 
N 60 97 0 
N 70 15 0 
N 53 84 0 
O 68 15 0 
O 53 86 0 
7
Atoms. Timestep: 1078
N 77 54 0 
N 7 89 0 
N 60 98 0 
N 69 15 0 
N 53 85 0 
O 67 15 0 
O 53 87 0 
7
Atoms. Timestep: 1079
N 77 55 0 
N 8 89 0 
N 60 99 0 
N 70 15 0 
N 53 86 0 
O 66 15 0 
O 53 88 0 
7
Atoms. Timestep: 1080
N 77 56 0 
N 7 89 0 
N 60 0 0 
N 69 15 0 
N 53 87 0 
O 65 15 0 
O 53 89 0 
7
Atoms. Timestep: 1081
N 77 55 0 
N 7 90 0 
N 60 1 0 
N 68 15 0 
N 53 88 0 
O 64 15 0 
O 53 90 0 
7
Atoms. Timestep: 1082
N 77 56 0 
N 7 91 0 
N 60 2 0 
N 67 15 0 
N 53 89 0 
O 63 15 0 
O 53 91 0 
7
Atoms. Timestep: 1083
N 77 55 0 
N 7 92 0 
N 60 3 0 
N 66 15 0 
N 53 90 0 
O 62 15 0 
O 53 92 0 
7
Atoms. Timestep: 1084
N 77 56 0 
N 6 92 0 
N 60 4 0 
N 65 15 0 
N 53 91 0 
O 61 15 0 
O 53 93 0 
7
Atoms. Timestep: 1085
N 77 57 0 
N 6 93 0 
N 60 3 0 
N 64 15 0 
N 53 92 0 
O 60 15 0 
O 53 94 0 
7
Atoms. Timestep: 1086
N 77 56 0 
N 6 94 0 
N 60 2 0 
N 63 15 0 
N 53 93 0 
O 59 15 0 
O 53 95 0 
7
Atoms. Timestep: 1087
N 77 57 0 
N 7 94 0 
N 60 1 0 
N 62 15 0 
N 53 94 0 
O 58 15 0 
O 53 96 0 
7
Atoms. Timestep: 1088
N 77 58 0 
N 6 94 0 
N 59 1 0 
N 61 15 0 
N 53 95 0 
O 57 15 0 
O 53 97 0 
7
Atoms. Timestep: 1089
N 77 57 0 
N 6 95 0 
N 60 1 0 
N 60 15 0 
N 53 96 0 
O 56 15 0 
O 53 98 0 
7
Atoms. Timestep: 1090
N 77 58 0 
N 6 96 0 
N 59 1 0 
N 59 15 0 
N 53 97 0 
O 55 15 0 
O 53 99 0 
7
Atoms. Timestep: 1091
N 77 57 0 
N 7 96 0 
N 60 1 0 
N 58 15 0 
N 53 98 0 
O 54 15 0 
O 53 0 0 
7
Atoms. Timestep: 1092
N 77 56 0 
N 8 96 0 
N 61 1 0 
N 57 15 0 
N 53 99 0 
O 53 15 0 
O 53 1 0 
7
Atoms. Timestep: 1093
N 77 57 0 
N 7 96 0 
N 62 1 0 
N 56 15 0 
N 53 0 0 
O 52 15 0 
O 53 2 0 
7
Atoms. Timestep: 1094
N 77 56 0 
N 8 96 0 
N 63 1 0 
N 55 15 0 
N 53 1 0 
O 51 15 0 
O 53 3 0 
7
Atoms. Timestep: 1095
N 77 55 0 
N 9 96 0 
N 64 1 0 
N 54 15 0 
N 53 2 0 
O 50 15 0 
O 53 4 0 
7
Atoms. Timestep: 1096
N 77 56 0 
N 10 96 0 
N 65 1 0 
N 53 15 0 
N 53 3 0 
O 49 15 0 
O 53 5 0 
7
Atoms. Timestep: 1097
N 77 55 0 
N 9 96 0 
N 66 1 0 
N 52 15 0 
N 53 4 0 
O 48 15 0 
O 53 6 0 
7
Atoms. Timestep: 1098
N 77 54 0 
N 10 96 0 
N 67 1 0 
N 51 15 0 
N 53 5 0 
O 47 15 0 
O 53 7 0 
7
Atoms. Timestep: 1099
N 77 53 0 
N 11 96 0 
N 68 1 0 
N 50 15 0 
N 53 6 0 
O 46 15 0 
O 53 8 0 
7
Atoms. Timestep: 1100
N 77 54 0 
N 12 96 0 
N 69 1 0 
N 49 15 0 
N 53 7 0 
O 45 15 0 
O 53 9 0 
7
Atoms. Timestep: 1101
N 77 53 0 
N 13 96 0 
N 70 1 0 
N 48 15 0 
N 53 8 0 
O 44 15 0 
O 53 10 0 
7
Atoms. Timestep: 1102
N 77 52 0 
N 14 96 0 
N 71 1 0 
N 47 15 0 
N 53 9 0 
O 43 15 0 
O 53 11 0 
7
Atoms. Timestep: 1103
N 77 51 0 
N 15 96 0 
N 72 1 0 
N 46 15 0 
N 53 10 0 
O 42 15 0 
O 53 12 0 
7
Atoms. Timestep: 1104
N 77 50 0 
N 16 96 0 
N 73 1 0 
N 45 15 0 
N 53 11 0 
O 41 15 0 
O 53 13 0 
7
Atoms. Timestep: 1105
N 77 51 0 
N 17 96 0 
N 74 1 0 
N 44 15 0 
N 53 12 0 
O 40 15 0 
O 53 14 0 
7
Atoms. Timestep: 1106
N 77 52 0 
N 18 96 0 
N 75 1 0 
N 43 15 0 
N 53 13 0 
O 39 15 0 
O 53 15 0 
7
Atoms. Timestep: 1107
N 77 53 0 
N 19 96 0 
N 76 1 0 
N 42 15 0 
N 53 14 0 
O 38 15 0 
O 53 16 0 
7
Atoms. Timestep: 1108
N 77 54 0 
N 19 97 0 
N 77 1 0 
N 41 15 0 
N 53 15 0 
O 37 15 0 
O 53 17 0 
7
Atoms. Timestep: 1109
N 77 55 0 
N 19 98 0 
N 78 1 0 
N 40 15 0 
N 53 16 0 
O 36 15 0 
O 53 18 0 
7
Atoms. Timestep: 1110
N 77 56 0 
N 19 99 0 
N 79 1 0 
N 39 15 0 
N 53 17 0 
O 35 15 0 
O 53 19 0 
7
Atoms. Timestep: 1111
N 77 57 0 
N 19 0 0 
N 80 1 0 
N 38 15 0 
N 53 18 0 
O 34 15 0 
O 53 20 0 
7
Atoms. Timestep: 1112
N 77 56 0 
N 19 1 0 
N 81 1 0 
N 37 15 0 
N 53 19 0 
O 33 15 0 
O 53 21 0 
7
Atoms. Timestep: 1113
N 77 55 0 
N 20 1 0 
N 82 1 0 
N 36 15 0 
N 53 20 0 
O 32 15 0 
O 53 22 0 
7
Atoms. Timestep: 1114
N 77 54 0 
N 20 2 0 
N 83 1 0 
N 35 15 0 
N 53 21 0 
O 31 15 0 
O 53 23 0 
7
Atoms. Timestep: 1115
N 77 53 0 
N 20 3 0 
N 84 1 0 
N 34 15 0 
N 53 22 0 
O 30 15 0 
O 53 24 0 
7
Atoms. Timestep: 1116
N 77 52 0 
N 20 4 0 
N 83 1 0 
N 33 15 0 
N 53 23 0 
O 29 15 0 
O 53 25 0 
7
Atoms. Timestep: 1117
N 77 53 0 
N 20 5 0 
N 82 1 0 
N 32 15 0 
N 53 24 0 
O 28 15 0 
O 53 26 0 
7
Atoms. Timestep: 1118
N 77 54 0 
N 20 6 0 
N 83 1 0 
N 31 15 0 
N 53 25 0 
O 27 15 0 
O 53 27 0 
7
Atoms. Timestep: 1119
N 77 55 0 
N 20 7 0 
N 82 1 0 
N 30 15 0 
N 53 26 0 
O 26 15 0 
O 53 28 0 
7
Atoms. Timestep: 1120
N 77 56 0 
N 20 8 0 
N 81 1 0 
N 29 15 0 
N 53 27 0 
O 25 15 0 
O 53 29 0 
7
Atoms. Timestep: 1121
N 77 57 0 
N 20 9 0 
N 82 1 0 
N 28 15 0 
N 53 28 0 
O 24 15 0 
O 53 30 0 
7
Atoms. Timestep: 1122
N 77 58 0 
N 20 10 0 
N 81 1 0 
N 27 15 0 
N 53 29 0 
O 23 15 0 
O 53 31 0 
7
Atoms. Timestep: 1123
N 77 59 0 
N 20 11 0 
N 80 1 0 
N 26 15 0 
N 53 30 0 
O 22 15 0 
O 53 32 0 
7
Atoms. Timestep: 1124
N 77 58 0 
N 20 12 0 
N 80 0 0 
N 25 15 0 
N 53 29 0 
O 22 16 0 
O 53 33 0 
7
Atoms. Timestep: 1125
N 77 57 0 
N 20 13 0 
N 80 99 0 
N 24 15 0 
N 53 30 0 
O 21 16 0 
O 53 34 0 
7
Atoms. Timestep: 1126
N 76 57 0 
N 19 13 0 
N 80 98 0 
N 23 15 0 
N 53 31 0 
O 20 16 0 
O 53 35 0 
7
Atoms. Timestep: 1127
N 75 57 0 
N 18 13 0 
N 80 99 0 
N 22 15 0 
N 53 32 0 
O 19 16 0 
O 53 36 0 
7
Atoms. Timestep: 1128
N 74 57 0 
N 17 13 0 
N 79 99 0 
N 21 15 0 
N 53 33 0 
O 18 16 0 
O 53 37 0 
7
Atoms. Timestep: 1129
N 73 57 0 
N 16 13 0 
N 78 99 0 
N 20 15 0 
N 53 34 0 
O 17 16 0 
O 53 38 0 
7
Atoms. Timestep: 1130
N 72 57 0 
N 15 13 0 
N 77 99 0 
N 19 15 0 
N 53 35 0 
O 16 16 0 
O 53 39 0 
7
Atoms. Timestep: 1131
N 71 57 0 
N 14 13 0 
N 76 99 0 
N 18 15 0 
N 53 36 0 
O 15 16 0 
O 53 40 0 
7
Atoms. Timestep: 1132
N 70 57 0 
N 14 14 0 
N 75 99 0 
N 18 16 0 
N 53 37 0 
O 15 17 0 
O 53 41 0 
7
Atoms. Timestep: 1133
N 69 57 0 
N 13 14 0 
N 74 99 0 
N 17 16 0 
N 53 38 0 
O 14 17 0 
O 53 42 0 
7
Atoms. Timestep: 1134
N 68 57 0 
N 12 14 0 
N 73 99 0 
N 16 16 0 
N 53 39 0 
O 13 17 0 
O 53 43 0 
7
Atoms. Timestep: 1135
N 67 57 0 
N 11 14 0 
N 72 99 0 
N 15 16 0 
N 53 40 0 
O 12 17 0 
O 53 44 0 
7
Atoms. Timestep: 1136
N 66 57 0 
N 10 14 0 
N 71 99 0 
N 14 16 0 
N 53 41 0 
O 11 17 0 
O 53 45 0 
7
Atoms. Timestep: 1137
N 65 57 0 
N 9 14 0 
N 70 99 0 
N 13 16 0 
N 53 42 0 
O 10 17 0 
O 53 46 0 
7
Atoms. Timestep: 1138
N 64 57 0 
N 8 14 0 
N 69 99 0 
N 12 16 0 
N 53 43 0 
O 9 17 0 
O 53 47 0 
7
Atoms. Timestep: 1139
N 63 57 0 
N 7 14 0 
N 68 99 0 
N 11 16 0 
N 53 44 0 
O 8 17 0 
O 53 48 0 
7
Atoms. Timestep: 1140
N 62 57 0 
N 6 14 0 
N 67 99 0 
N 10 16 0 
N 53 45 0 
O 7 17 0 
O 53 49 0 
7
Atoms. Timestep: 1141
N 61 57 0 
N 5 14 0 
N 66 99 0 
N 9 16 0 
N 53 46 0 
O 6 17 0 
O 53 50 0 
7
Atoms. Timestep: 1142
N 60 57 0 
N 4 14 0 
N 65 99 0 
N 8 16 0 
N 53 47 0 
O 5 17 0 
O 53 51 0 
7
Atoms. Timestep: 1143
N 59 57 0 
N 3 14 0 
N 64 99 0 
N 7 16 0 
N 53 48 0 
O 4 17 0 
O 53 52 0 
7
Atoms. Timestep: 1144
N 58 57 0 
N 2 14 0 
N 63 99 0 
N 6 16 0 
N 53 49 0 
O 3 17 0 
O 53 53 0 
7
Atoms. Timestep: 1145
N 57 57 0 
N 1 14 0 
N 62 99 0 
N 5 16 0 
N 53 50 0 
O 2 17 0 
O 53 54 0 
7
Atoms. Timestep: 1146
N 56 57 0 
N 0 14 0 
N 61 99 0 
N 4 16 0 
N 53 51 0 
O 1 17 0 
O 53 55 0 
7
Atoms. Timestep: 1147
N 55 57 0 
N 99 14 0 
N 60 99 0 
N 3 16 0 
N 53 52 0 
O 0 17 0 
O 52 55 0 
7
Atoms. Timestep: 1148
N 54 57 0 
N 98 14 0 
N 59 99 0 
N 2 16 0 
N 53 53 0 
O 99 17 0 
O 52 54 0 
7
Atoms. Timestep: 1149
N 54 58 0 
N 97 14 0 
N 58 99 0 
N 1 16 0 
N 53 54 0 
O 98 17 0 
O 51 54 0 
7
Atoms. Timestep: 1150
N 54 59 0 
N 96 14 0 
N 58 0 0 
N 0 16 0 
N 52 54 0 
O 97 17 0 
O 50 54 0 
7
Atoms. Timestep: 1151
N 54 60 0 
N 95 14 0 
N 57 0 0 
N 99 16 0 
N 51 54 0 
O 96 17 0 
O 49 54 0 
7
Atoms. Timestep: 1152
N 54 61 0 
N 94 14 0 
N 57 1 0 
N 98 16 0 
N 50 54 0 
O 95 17 0 
O 48 54 0 
7
Atoms. Timestep: 1153
N 54 62 0 
N 93 14 0 
N 56 1 0 
N 97 16 0 
N 49 54 0 
O 94 17 0 
O 47 54 0 
7
Atoms. Timestep: 1154
N 54 63 0 
N 92 14 0 
N 56 2 0 
N 96 16 0 
N 48 54 0 
O 93 17 0 
O 46 54 0 
7
Atoms. Timestep: 1155
N 54 64 0 
N 91 14 0 
N 55 2 0 
N 95 16 0 
N 47 54 0 
O 92 17 0 
O 45 54 0 
7
Atoms. Timestep: 1156
N 54 65 0 
N 90 14 0 
N 54 2 0 
N 94 16 0 
N 46 54 0 
O 91 17 0 
O 44 54 0 
7
Atoms. Timestep: 1157
N 54 66 0 
N 89 14 0 
N 54 3 0 
N 93 16 0 
N 45 54 0 
O 90 17 0 
O 43 54 0 
7
Atoms. Timestep: 1158
N 54 67 0 
N 88 14 0 
N 53 3 0 
N 92 16 0 
N 44 54 0 
O 89 17 0 
O 42 54 0 
7
Atoms. Timestep: 1159
N 54 68 0 
N 87 14 0 
N 53 4 0 
N 91 16 0 
N 43 54 0 
O 88 17 0 
O 41 54 0 
7
Atoms. Timestep: 1160
N 54 69 0 
N 86 14 0 
N 52 4 0 
N 90 16 0 
N 42 54 0 
O 87 17 0 
O 40 54 0 
7
Atoms. Timestep: 1161
N 54 70 0 
N 85 14 0 
N 52 5 0 
N 89 16 0 
N 41 54 0 
O 86 17 0 
O 39 54 0 
7
Atoms. Timestep: 1162
N 54 71 0 
N 84 14 0 
N 51 5 0 
N 88 16 0 
N 40 54 0 
O 85 17 0 
O 38 54 0 
7
Atoms. Timestep: 1163
N 54 72 0 
N 83 14 0 
N 51 6 0 
N 87 16 0 
N 39 54 0 
O 84 17 0 
O 37 54 0 
7
Atoms. Timestep: 1164
N 54 73 0 
N 82 14 0 
N 50 6 0 
N 86 16 0 
N 38 54 0 
O 83 17 0 
O 36 54 0 
7
Atoms. Timestep: 1165
N 54 74 0 
N 81 14 0 
N 49 6 0 
N 85 16 0 
N 37 54 0 
O 82 17 0 
O 35 54 0 
7
Atoms. Timestep: 1166
N 54 75 0 
N 80 14 0 
N 49 7 0 
N 84 16 0 
N 36 54 0 
O 81 17 0 
O 34 54 0 
7
Atoms. Timestep: 1167
N 54 76 0 
N 80 15 0 
N 48 7 0 
N 84 15 0 
N 35 54 0 
O 81 18 0 
O 33 54 0 
7
Atoms. Timestep: 1168
N 54 77 0 
N 80 16 0 
N 48 8 0 
N 85 15 0 
N 34 54 0 
O 81 19 0 
O 32 54 0 
7
Atoms. Timestep: 1169
N 54 78 0 
N 80 17 0 
N 48 9 0 
N 86 15 0 
N 33 54 0 
O 81 20 0 
O 31 54 0 
7
Atoms. Timestep: 1170
N 54 77 0 
N 80 18 0 
N 48 10 0 
N 85 15 0 
N 32 54 0 
O 81 21 0 
O 30 54 0 
7
Atoms. Timestep: 1171
N 54 78 0 
N 80 19 0 
N 47 10 0 
N 86 15 0 
N 31 54 0 
O 81 22 0 
O 29 54 0 
7
Atoms. Timestep: 1172
N 54 77 0 
N 80 20 0 
N 47 11 0 
N 87 15 0 
N 30 54 0 
O 81 23 0 
O 28 54 0 
7
Atoms. Timestep: 1173
N 55 77 0 
N 80 21 0 
N 47 12 0 
N 88 15 0 
N 29 54 0 
O 81 24 0 
O 27 54 0 
7
Atoms. Timestep: 1174
N 56 77 0 
N 80 22 0 
N 46 12 0 
N 89 15 0 
N 28 54 0 
O 81 25 0 
O 26 54 0 
7
Atoms. Timestep: 1175
N 56 76 0 
N 80 23 0 
N 45 12 0 
N 90 15 0 
N 27 54 0 
O 81 26 0 
O 25 54 0 
7
Atoms. Timestep: 1176
N 56 75 0 
N 80 24 0 
N 44 12 0 
N 91 15 0 
N 26 54 0 
O 81 27 0 
O 24 54 0 
7
Atoms. Timestep: 1177
N 57 75 0 
N 80 25 0 
N 43 12 0 
N 92 15 0 
N 25 54 0 
O 81 28 0 
O 23 54 0 
7
Atoms. Timestep: 1178
N 58 75 0 
N 80 26 0 
N 43 13 0 
N 93 15 0 
N 24 54 0 
O 81 29 0 
O 22 54 0 
7
Atoms. Timestep: 1179
N 59 75 0 
N 80 27 0 
N 42 13 0 
N 94 15 0 
N 23 54 0 
O 81 30 0 
O 21 54 0 
7
Atoms. Timestep: 1180
N 59 74 0 
N 80 28 0 
N 41 13 0 
N 95 15 0 
N 22 54 0 
O 81 31 0 
O 20 54 0 
7
Atoms. Timestep: 1181
N 60 74 0 
N 80 29 0 
N 40 13 0 
N 96 15 0 
N 21 54 0 
O 81 32 0 
O 19 54 0 
7
Atoms. Timestep: 1182
N 60 73 0 
N 80 30 0 
N 40 14 0 
N 97 15 0 
N 20 54 0 
O 81 33 0 
O 18 54 0 
7
Atoms. Timestep: 1183
N 60 72 0 
N 80 31 0 
N 41 14 0 
N 98 15 0 
N 19 54 0 
O 81 34 0 
O 17 54 0 
7
Atoms. Timestep: 1184
N 60 71 0 
N 80 32 0 
N 40 14 0 
N 99 15 0 
N 18 54 0 
O 81 35 0 
O 16 54 0 
7
Atoms. Timestep: 1185
N 60 70 0 
N 80 33 0 
N 41 14 0 
N 0 15 0 
N 17 54 0 
O 81 36 0 
O 15 54 0 
7
Atoms. Timestep: 1186
N 60 69 0 
N 80 34 0 
N 42 14 0 
N 1 15 0 
N 16 54 0 
O 81 37 0 
O 14 54 0 
7
Atoms. Timestep: 1187
N 60 68 0 
N 80 35 0 
N 43 14 0 
N 2 15 0 
N 15 54 0 
O 81 38 0 
O 13 54 0 
7
Atoms. Timestep: 1188
N 60 67 0 
N 80 36 0 
N 44 14 0 
N 3 15 0 
N 14 54 0 
O 81 39 0 
O 12 54 0 
7
Atoms. Timestep: 1189
N 60 66 0 
N 80 37 0 
N 45 14 0 
N 4 15 0 
N 13 54 0 
O 81 40 0 
O 11 54 0 
7
Atoms. Timestep: 1190
N 60 65 0 
N 80 38 0 
N 46 14 0 
N 5 15 0 
N 12 54 0 
O 81 41 0 
O 10 54 0 
7
Atoms. Timestep: 1191
N 60 64 0 
N 80 39 0 
N 47 14 0 
N 6 15 0 
N 11 54 0 
O 81 42 0 
O 9 54 0 
7
Atoms. Timestep: 1192
N 60 63 0 
N 80 40 0 
N 48 14 0 
N 7 15 0 
N 10 54 0 
O 81 43 0 
O 8 54 0 
7
Atoms. Timestep: 1193
N 60 64 0 
N 80 41 0 
N 49 14 0 
N 8 15 0 
N 9 54 0 
O 81 44 0 
O 7 54 0 
7
Atoms. Timestep: 1194
N 60 65 0 
N 80 42 0 
N 50 14 0 
N 9 15 0 
N 8 54 0 
O 81 45 0 
O 6 54 0 
7
Atoms. Timestep: 1195
N 60 66 0 
N 80 43 0 
N 51 14 0 
N 10 15 0 
N 7 54 0 
O 81 46 0 
O 5 54 0 
7
Atoms. Timestep: 1196
N 60 67 0 
N 80 44 0 
N 50 14 0 
N 10 14 0 
N 6 54 0 
O 81 47 0 
O 4 54 0 
7
Atoms. Timestep: 1197
N 60 68 0 
N 80 45 0 
N 51 14 0 
N 9 14 0 
N 5 54 0 
O 81 48 0 
O 3 54 0 
7
Atoms. Timestep: 1198
N 60 69 0 
N 80 46 0 
N 51 13 0 
N 9 13 0 
N 4 54 0 
O 81 49 0 
O 2 54 0 
7
Atoms. Timestep: 1199
N 60 70 0 
N 80 47 0 
N 52 13 0 
N 9 12 0 
N 3 54 0 
O 81 50 0 
O 1 54 0 
7
Atoms. Timestep: 1200
N 60 71 0 
N 80 48 0 
N 52 14 0 
N 9 11 0 
N 2 54 0 
O 81 51 0 
O 0 54 0 
7
Atoms. Timestep: 1201
N 60 72 0 
N 80 49 0 
N 52 15 0 
N 8 11 0 
N 1 54 0 
O 81 52 0 
O 99 54 0 
7
Atoms. Timestep: 1202
N 60 73 0 
N 80 50 0 
N 52 16 0 
N 8 10 0 
N 0 54 0 
O 81 53 0 
O 98 54 0 
7
Atoms. Timestep: 1203
N 60 74 0 
N 80 51 0 
N 52 17 0 
N 7 10 0 
N 99 54 0 
O 81 54 0 
O 97 54 0 
7
Atoms. Timestep: 1204
N 60 75 0 
N 80 52 0 
N 52 18 0 
N 7 9 0 
N 98 54 0 
O 81 55 0 
O 96 54 0 
7
Atoms. Timestep: 1205
N 60 76 0 
N 80 53 0 
N 52 19 0 
N 6 9 0 
N 97 54 0 
O 81 56 0 
O 95 54 0 
7
Atoms. Timestep: 1206
N 60 77 0 
N 80 54 0 
N 52 20 0 
N 6 8 0 
N 96 54 0 
O 81 57 0 
O 94 54 0 
7
Atoms. Timestep: 1207
N 60 78 0 
N 80 55 0 
N 52 21 0 
N 5 8 0 
N 95 54 0 
O 81 58 0 
O 93 54 0 
7
Atoms. Timestep: 1208
N 60 79 0 
N 80 56 0 
N 52 22 0 
N 5 7 0 
N 94 54 0 
O 81 59 0 
O 92 54 0 
7
Atoms. Timestep: 1209
N 60 80 0 
N 80 57 0 
N 52 23 0 
N 5 6 0 
N 93 54 0 
O 81 60 0 
O 91 54 0 
7
Atoms. Timestep: 1210
N 60 81 0 
N 80 58 0 
N 52 24 0 
N 4 6 0 
N 92 54 0 
O 81 61 0 
O 90 54 0 
7
Atoms. Timestep: 1211
N 60 82 0 
N 80 59 0 
N 52 25 0 
N 4 5 0 
N 91 54 0 
O 81 62 0 
O 89 54 0 
7
Atoms. Timestep: 1212
N 60 83 0 
N 80 60 0 
N 52 26 0 
N 4 4 0 
N 90 54 0 
O 81 63 0 
O 88 54 0 
7
Atoms. Timestep: 1213
N 60 84 0 
N 80 61 0 
N 52 27 0 
N 4 3 0 
N 89 54 0 
O 81 64 0 
O 87 54 0 
7
Atoms. Timestep: 1214
N 60 85 0 
N 80 62 0 
N 52 28 0 
N 4 2 0 
N 88 54 0 
O 81 65 0 
O 86 54 0 
7
Atoms. Timestep: 1215
N 60 86 0 
N 80 63 0 
N 53 28 0 
N 4 1 0 
N 87 54 0 
O 81 66 0 
O 85 54 0 
7
Atoms. Timestep: 1216
N 60 87 0 
N 80 64 0 
N 54 28 0 
N 4 0 0 
N 86 54 0 
O 81 67 0 
O 84 54 0 
7
Atoms. Timestep: 1217
N 60 88 0 
N 80 65 0 
N 55 28 0 
N 4 99 0 
N 85 54 0 
O 81 68 0 
O 83 54 0 
7
Atoms. Timestep: 1218
N 60 89 0 
N 80 66 0 
N 54 28 0 
N 4 98 0 
N 84 54 0 
O 81 69 0 
O 82 54 0 
7
Atoms. Timestep: 1219
N 60 90 0 
N 80 67 0 
N 53 28 0 
N 4 97 0 
N 83 54 0 
O 81 70 0 
O 81 54 0 
7
Atoms. Timestep: 1220
N 60 91 0 
N 80 68 0 
N 53 29 0 
N 4 96 0 
N 82 54 0 
O 81 71 0 
O 80 54 0 
7
Atoms. Timestep: 1221
N 60 92 0 
N 80 69 0 
N 54 29 0 
N 4 95 0 
N 81 54 0 
O 81 72 0 
O 79 54 0 
7
Atoms. Timestep: 1222
N 60 93 0 
N 80 70 0 
N 55 29 0 
N 4 94 0 
N 80 54 0 
O 81 73 0 
O 78 54 0 
7
Atoms. Timestep: 1223
N 60 94 0 
N 80 71 0 
N 55 30 0 
N 3 94 0 
N 79 54 0 
O 81 74 0 
O 77 54 0 
7
Atoms. Timestep: 1224
N 60 95 0 
N 80 72 0 
N 55 31 0 
N 2 94 0 
N 78 54 0 
O 81 75 0 
O 76 54 0 
7
Atoms. Timestep: 1225
N 60 96 0 
N 80 73 0 
N 55 30 0 
N 1 94 0 
N 77 54 0 
O 81 76 0 
O 75 54 0 
7
Atoms. Timestep: 1226
N 60 97 0 
N 80 74 0 
N 55 29 0 
N 0 94 0 
N 76 54 0 
O 81 77 0 
O 74 54 0 
7
Atoms. Timestep: 1227
N 60 98 0 
N 80 75 0 
N 55 30 0 
N 99 94 0 
N 75 54 0 
O 81 78 0 
O 73 54 0 
7
Atoms. Timestep: 1228
N 60 99 0 
N 80 76 0 
N 55 29 0 
N 98 94 0 
N 74 54 0 
O 81 79 0 
O 72 54 0 
7
Atoms. Timestep: 1229
N 60 0 0 
N 80 77 0 
N 55 30 0 
N 97 94 0 
N 73 54 0 
O 81 80 0 
O 71 54 0 
7
Atoms. Timestep: 1230
N 60 1 0 
N 80 78 0 
N 55 31 0 
N 96 94 0 
N 72 54 0 
O 81 81 0 
O 70 54 0 
7
Atoms. Timestep: 1231
N 60 2 0 
N 80 79 0 
N 55 32 0 
N 95 94 0 
N 71 54 0 
O 81 82 0 
O 69 54 0 
7
Atoms. Timestep: 1232
N 60 3 0 
N 80 80 0 
N 55 31 0 
N 96 94 0 
N 70 54 0 
O 81 83 0 
O 68 54 0 
7
Atoms. Timestep: 1233
N 60 2 0 
N 80 81 0 
N 55 30 0 
N 95 94 0 
N 69 54 0 
O 81 84 0 
O 67 54 0 
7
Atoms. Timestep: 1234
N 61 2 0 
N 80 82 0 
N 55 31 0 
N 94 94 0 
N 68 54 0 
O 81 85 0 
O 66 54 0 
7
Atoms. Timestep: 1235
N 60 2 0 
N 80 83 0 
N 55 30 0 
N 93 94 0 
N 67 54 0 
O 81 86 0 
O 65 54 0 
7
Atoms. Timestep: 1236
N 59 2 0 
N 80 84 0 
N 55 29 0 
N 92 94 0 
N 66 54 0 
O 81 87 0 
O 64 54 0 
7
Atoms. Timestep: 1237
N 59 1 0 
N 80 85 0 
N 55 28 0 
N 91 94 0 
N 65 54 0 
O 81 88 0 
O 63 54 0 
7
Atoms. Timestep: 1238
N 58 1 0 
N 80 86 0 
N 55 29 0 
N 90 94 0 
N 64 54 0 
O 81 89 0 
O 62 54 0 
7
Atoms. Timestep: 1239
N 59 1 0 
N 80 87 0 
N 55 30 0 
N 89 94 0 
N 63 54 0 
O 81 90 0 
O 61 54 0 
7
Atoms. Timestep: 1240
N 58 1 0 
N 80 88 0 
N 55 31 0 
N 88 94 0 
N 62 54 0 
O 81 91 0 
O 60 54 0 
7
Atoms. Timestep: 1241
N 57 1 0 
N 80 89 0 
N 55 30 0 
N 87 94 0 
N 61 54 0 
O 81 92 0 
O 59 54 0 
7
Atoms. Timestep: 1242
N 56 1 0 
N 80 90 0 
N 55 29 0 
N 86 94 0 
N 60 54 0 
O 81 93 0 
O 58 54 0 
7
Atoms. Timestep: 1243
N 55 1 0 
N 80 91 0 
N 55 28 0 
N 85 94 0 
N 59 54 0 
O 81 94 0 
O 57 54 0 
7
Atoms. Timestep: 1244
N 54 1 0 
N 80 92 0 
N 55 27 0 
N 84 94 0 
N 58 54 0 
O 81 95 0 
O 56 54 0 
7
Atoms. Timestep: 1245
N 53 1 0 
N 79 92 0 
N 55 28 0 
N 83 94 0 
N 57 54 0 
O 80 95 0 
O 55 54 0 
7
Atoms. Timestep: 1246
N 52 1 0 
N 78 92 0 
N 55 27 0 
N 82 94 0 
N 56 54 0 
O 79 95 0 
O 54 54 0 
7
Atoms. Timestep: 1247
N 51 1 0 
N 77 92 0 
N 55 28 0 
N 81 94 0 
N 55 54 0 
O 78 95 0 
O 53 54 0 
7
Atoms. Timestep: 1248
N 50 1 0 
N 76 92 0 
N 55 27 0 
N 80 94 0 
N 54 54 0 
O 77 95 0 
O 52 54 0 
7
Atoms. Timestep: 1249
N 49 1 0 
N 75 92 0 
N 55 28 0 
N 79 94 0 
N 53 54 0 
O 76 95 0 
O 51 54 0 
7
Atoms. Timestep: 1250
N 48 1 0 
N 74 92 0 
N 55 27 0 
N 78 94 0 
N 52 54 0 
O 75 95 0 
O 50 54 0 
7
Atoms. Timestep: 1251
N 47 1 0 
N 73 92 0 
N 55 28 0 
N 77 94 0 
N 51 54 0 
O 74 95 0 
O 49 54 0 
7
Atoms. Timestep: 1252
N 46 1 0 
N 72 92 0 
N 55 27 0 
N 76 94 0 
N 50 54 0 
O 73 95 0 
O 48 54 0 
7
Atoms. Timestep: 1253
N 45 1 0 
N 71 92 0 
N 55 28 0 
N 75 94 0 
N 49 54 0 
O 72 95 0 
O 47 54 0 
7
Atoms. Timestep: 1254
N 44 1 0 
N 70 92 0 
N 55 27 0 
N 74 94 0 
N 48 54 0 
O 71 95 0 
O 46 54 0 
7
Atoms. Timestep: 1255
N 43 1 0 
N 69 92 0 
N 55 28 0 
N 73 94 0 
N 47 54 0 
O 70 95 0 
O 45 54 0 
7
Atoms. Timestep: 1256
N 42 1 0 
N 68 92 0 
N 55 27 0 
N 72 94 0 
N 46 54 0 
O 69 95 0 
O 44 54 0 
7
Atoms. Timestep: 1257
N 41 1 0 
N 67 92 0 
N 55 26 0 
N 71 94 0 
N 45 54 0 
O 68 95 0 
O 43 54 0 
7
Atoms. Timestep: 1258
N 40 1 0 
N 66 92 0 
N 55 27 0 
N 70 94 0 
N 44 54 0 
O 67 95 0 
O 42 54 0 
7
Atoms. Timestep: 1259
N 39 1 0 
N 65 92 0 
N 55 26 0 
N 69 94 0 
N 43 54 0 
O 66 95 0 
O 41 54 0 
7
Atoms. Timestep: 1260
N 38 1 0 
N 64 92 0 
N 55 27 0 
N 68 94 0 
N 42 54 0 
O 65 95 0 
O 40 54 0 
7
Atoms. Timestep: 1261
N 37 1 0 
N 63 92 0 
N 55 26 0 
N 67 94 0 
N 41 54 0 
O 64 95 0 
O 39 54 0 
7
Atoms. Timestep: 1262
N 36 1 0 
N 62 92 0 
N 55 27 0 
N 66 94 0 
N 40 54 0 
O 63 95 0 
O 38 54 0 
7
Atoms. Timestep: 1263
N 35 1 0 
N 61 92 0 
N 55 26 0 
N 65 94 0 
N 39 54 0 
O 62 95 0 
O 37 54 0 
7
Atoms. Timestep: 1264
N 34 1 0 
N 60 92 0 
N 55 25 0 
N 64 94 0 
N 38 54 0 
O 61 95 0 
O 36 54 0 
7
Atoms. Timestep: 1265
N 33 1 0 
N 59 92 0 
N 55 24 0 
N 63 94 0 
N 37 54 0 
O 60 95 0 
O 35 54 0 
7
Atoms. Timestep: 1266
N 32 1 0 
N 58 92 0 
N 55 23 0 
N 62 94 0 
N 36 54 0 
O 59 95 0 
O 34 54 0 
7
Atoms. Timestep: 1267
N 31 1 0 
N 58 93 0 
N 55 24 0 
N 62 95 0 
N 35 54 0 
O 59 96 0 
O 33 54 0 
7
Atoms. Timestep: 1268
N 30 1 0 
N 57 93 0 
N 55 23 0 
N 61 95 0 
N 34 54 0 
O 58 96 0 
O 32 54 0 
7
Atoms. Timestep: 1269
N 29 1 0 
N 56 93 0 
N 55 22 0 
N 60 95 0 
N 33 54 0 
O 57 96 0 
O 31 54 0 
7
Atoms. Timestep: 1270
N 28 1 0 
N 55 93 0 
N 55 21 0 
N 59 95 0 
N 32 54 0 
O 56 96 0 
O 30 54 0 
7
Atoms. Timestep: 1271
N 27 1 0 
N 54 93 0 
N 55 20 0 
N 58 95 0 
N 31 54 0 
O 55 96 0 
O 29 54 0 
7
Atoms. Timestep: 1272
N 26 1 0 
N 53 93 0 
N 55 19 0 
N 57 95 0 
N 30 54 0 
O 54 96 0 
O 28 54 0 
7
Atoms. Timestep: 1273
N 25 1 0 
N 52 93 0 
N 55 18 0 
N 56 95 0 
N 29 54 0 
O 53 96 0 
O 27 54 0 
7
Atoms. Timestep: 1274
N 24 1 0 
N 51 93 0 
N 55 17 0 
N 55 95 0 
N 28 54 0 
O 52 96 0 
O 26 54 0 
7
Atoms. Timestep: 1275
N 23 1 0 
N 50 93 0 
N 55 16 0 
N 54 95 0 
N 27 54 0 
O 51 96 0 
O 25 54 0 
7
Atoms. Timestep: 1276
N 22 1 0 
N 49 93 0 
N 55 15 0 
N 53 95 0 
N 26 54 0 
O 50 96 0 
O 24 54 0 
7
Atoms. Timestep: 1277
N 21 1 0 
N 48 93 0 
N 55 14 0 
N 52 95 0 
N 25 54 0 
O 49 96 0 
O 23 54 0 
7
Atoms. Timestep: 1278
N 20 1 0 
N 47 93 0 
N 55 13 0 
N 51 95 0 
N 24 54 0 
O 48 96 0 
O 22 54 0 
7
Atoms. Timestep: 1279
N 19 1 0 
N 46 93 0 
N 55 14 0 
N 50 95 0 
N 23 54 0 
O 47 96 0 
O 21 54 0 
7
Atoms. Timestep: 1280
N 18 1 0 
N 45 93 0 
N 55 15 0 
N 49 95 0 
N 22 54 0 
O 46 96 0 
O 20 54 0 
7
Atoms. Timestep: 1281
N 17 1 0 
N 44 93 0 
N 56 15 0 
N 48 95 0 
N 21 54 0 
O 45 96 0 
O 19 54 0 
7
Atoms. Timestep: 1282
N 16 1 0 
N 43 93 0 
N 56 16 0 
N 47 95 0 
N 20 54 0 
O 44 96 0 
O 18 54 0 
7
Atoms. Timestep: 1283
N 15 1 0 
N 42 93 0 
N 56 17 0 
N 46 95 0 
N 19 54 0 
O 43 96 0 
O 17 54 0 
7
Atoms. Timestep: 1284
N 14 1 0 
N 41 93 0 
N 56 18 0 
N 45 95 0 
N 18 54 0 
O 42 96 0 
O 16 54 0 
7
Atoms. Timestep: 1285
N 13 1 0 
N 40 93 0 
N 56 19 0 
N 44 95 0 
N 17 54 0 
O 41 96 0 
O 15 54 0 
7
Atoms. Timestep: 1286
N 12 1 0 
N 39 93 0 
N 56 20 0 
N 43 95 0 
N 16 54 0 
O 40 96 0 
O 14 54 0 
7
Atoms. Timestep: 1287
N 11 1 0 
N 38 93 0 
N 56 21 0 
N 42 95 0 
N 15 54 0 
O 39 96 0 
O 13 54 0 
7
Atoms. Timestep: 1288
N 10 1 0 
N 37 93 0 
N 56 22 0 
N 41 95 0 
N 14 54 0 
O 38 96 0 
O 12 54 0 
7
Atoms. Timestep: 1289
N 9 1 0 
N 36 93 0 
N 56 23 0 
N 40 95 0 
N 13 54 0 
O 37 96 0 
O 11 54 0 
7
Atoms. Timestep: 1290
N 8 1 0 
N 35 93 0 
N 56 24 0 
N 39 95 0 
N 12 54 0 
O 36 96 0 
O 10 54 0 
7
Atoms. Timestep: 1291
N 7 1 0 
N 34 93 0 
N 56 25 0 
N 38 95 0 
N 11 54 0 
O 35 96 0 
O 9 54 0 
7
Atoms. Timestep: 1292
N 6 1 0 
N 33 93 0 
N 56 26 0 
N 37 95 0 
N 10 54 0 
O 34 96 0 
O 8 54 0 
7
Atoms. Timestep: 1293
N 5 1 0 
N 32 93 0 
N 56 27 0 
N 36 95 0 
N 9 54 0 
O 33 96 0 
O 7 54 0 
7
Atoms. Timestep: 1294
N 4 1 0 
N 31 93 0 
N 56 28 0 
N 35 95 0 
N 8 54 0 
O 32 96 0 
O 6 54 0 
7
Atoms. Timestep: 1295
N 3 1 0 
N 30 93 0 
N 56 29 0 
N 34 95 0 
N 7 54 0 
O 31 96 0 
O 5 54 0 
7
Atoms. Timestep: 1296
N 2 1 0 
N 29 93 0 
N 56 30 0 
N 33 95 0 
N 6 54 0 
O 30 96 0 
O 4 54 0 
7
Atoms. Timestep: 1297
N 1 1 0 
N 28 93 0 
N 56 31 0 
N 32 95 0 
N 5 54 0 
O 29 96 0 
O 3 54 0 
7
Atoms. Timestep: 1298
N 0 1 0 
N 27 93 0 
N 56 32 0 
N 31 95 0 
N 4 54 0 
O 28 96 0 
O 2 54 0 
7
Atoms. Timestep: 1299
N 99 1 0 
N 26 93 0 
N 56 33 0 
N 30 95 0 
N 3 54 0 
O 27 96 0 
O 1 54 0 
7
Atoms. Timestep: 1300
N 98 1 0 
N 25 93 0 
N 56 34 0 
N 29 95 0 
N 2 54 0 
O 26 96 0 
O 0 54 0 
7
Atoms. Timestep: 1301
N 97 1 0 
N 24 93 0 
N 56 35 0 
N 28 95 0 
N 1 54 0 
O 25 96 0 
O 99 54 0 
7
Atoms. Timestep: 1302
N 96 1 0 
N 23 93 0 
N 55 35 0 
N 27 95 0 
N 0 54 0 
O 24 96 0 
O 98 54 0 
7
Atoms. Timestep: 1303
N 95 1 0 
N 22 93 0 
N 54 35 0 
N 26 95 0 
N 99 54 0 
O 23 96 0 
O 97 54 0 
7
Atoms. Timestep: 1304
N 94 1 0 
N 21 93 0 
N 53 35 0 
N 25 95 0 
N 98 54 0 
O 22 96 0 
O 96 54 0 
7
Atoms. Timestep: 1305
N 93 1 0 
N 21 94 0 
N 52 35 0 
N 25 94 0 
N 97 54 0 
O 22 97 0 
O 95 54 0 
7
Atoms. Timestep: 1306
N 92 1 0 
N 21 95 0 
N 51 35 0 
N 26 94 0 
N 96 54 0 
O 22 98 0 
O 94 54 0 
7
Atoms. Timestep: 1307
N 91 1 0 
N 21 96 0 
N 51 36 0 
N 27 94 0 
N 95 54 0 
O 22 99 0 
O 93 54 0 
7
Atoms. Timestep: 1308
N 90 1 0 
N 21 97 0 
N 52 36 0 
N 28 94 0 
N 94 54 0 
O 22 0 0 
O 92 54 0 
7
Atoms. Timestep: 1309
N 89 1 0 
N 21 98 0 
N 53 36 0 
N 29 94 0 
N 93 54 0 
O 22 1 0 
O 91 54 0 
7
Atoms. Timestep: 1310
N 88 1 0 
N 21 99 0 
N 52 36 0 
N 30 94 0 
N 92 54 0 
O 22 2 0 
O 90 54 0 
7
Atoms. Timestep: 1311
N 87 1 0 
N 21 0 0 
N 51 36 0 
N 31 94 0 
N 91 54 0 
O 22 3 0 
O 89 54 0 
7
Atoms. Timestep: 1312
N 86 1 0 
N 21 1 0 
N 50 36 0 
N 32 94 0 
N 90 54 0 
O 22 4 0 
O 88 54 0 
7
Atoms. Timestep: 1313
N 85 1 0 
N 21 2 0 
N 49 36 0 
N 33 94 0 
N 89 54 0 
O 22 5 0 
O 87 54 0 
7
Atoms. Timestep: 1314
N 84 1 0 
N 21 3 0 
N 49 35 0 
N 34 94 0 
N 88 54 0 
O 22 6 0 
O 86 54 0 
7
Atoms. Timestep: 1315
N 83 1 0 
N 21 4 0 
N 49 34 0 
N 35 94 0 
N 87 54 0 
O 22 7 0 
O 85 54 0 
7
Atoms. Timestep: 1316
N 82 1 0 
N 21 5 0 
N 48 34 0 
N 36 94 0 
N 86 54 0 
O 22 8 0 
O 84 54 0 
7
Atoms. Timestep: 1317
N 81 1 0 
N 21 6 0 
N 47 34 0 
N 37 94 0 
N 85 54 0 
O 22 9 0 
O 83 54 0 
7
Atoms. Timestep: 1318
N 80 1 0 
N 21 7 0 
N 46 34 0 
N 38 94 0 
N 84 54 0 
O 22 10 0 
O 82 54 0 
7
Atoms. Timestep: 1319
N 79 1 0 
N 21 8 0 
N 45 34 0 
N 39 94 0 
N 83 54 0 
O 22 11 0 
O 81 54 0 
7
Atoms. Timestep: 1320
N 80 1 0 
N 21 9 0 
N 44 34 0 
N 40 94 0 
N 82 54 0 
O 22 12 0 
O 80 54 0 
7
Atoms. Timestep: 1321
N 81 1 0 
N 21 10 0 
N 44 33 0 
N 41 94 0 
N 81 54 0 
O 22 13 0 
O 79 54 0 
7
Atoms. Timestep: 1322
N 82 1 0 
N 21 11 0 
N 43 33 0 
N 42 94 0 
N 80 54 0 
O 22 14 0 
O 78 54 0 
7
Atoms. Timestep: 1323
N 83 1 0 
N 21 12 0 
N 42 33 0 
N 43 94 0 
N 79 54 0 
O 22 15 0 
O 77 54 0 
7
Atoms. Timestep: 1324
N 82 1 0 
N 21 13 0 
N 41 33 0 
N 44 94 0 
N 78 54 0 
O 22 16 0 
O 76 54 0 
7
Atoms. Timestep: 1325
N 83 1 0 
N 21 14 0 
N 40 33 0 
N 45 94 0 
N 77 54 0 
O 22 17 0 
O 75 54 0 
7
Atoms. Timestep: 1326
N 84 1 0 
N 21 15 0 
N 39 33 0 
N 46 94 0 
N 76 54 0 
O 22 18 0 
O 74 54 0 
7
Atoms. Timestep: 1327
N 85 1 0 
N 21 16 0 
N 38 33 0 
N 47 94 0 
N 75 54 0 
O 22 19 0 
O 73 54 0 
7
Atoms. Timestep: 1328
N 86 1 0 
N 21 17 0 
N 37 33 0 
N 48 94 0 
N 74 54 0 
O 22 20 0 
O 72 54 0 
7
Atoms. Timestep: 1329
N 87 1 0 
N 21 18 0 
N 36 33 0 
N 49 94 0 
N 73 54 0 
O 22 21 0 
O 71 54 0 
7
Atoms. Timestep: 1330
N 88 1 0 
N 21 19 0 
N 35 33 0 
N 50 94 0 
N 72 54 0 
O 22 22 0 
O 70 54 0 
7
Atoms. Timestep: 1331
N 87 1 0 
N 21 20 0 
N 34 33 0 
N 49 94 0 
N 71 54 0 
O 22 23 0 
O 69 54 0 
7
Atoms. Timestep: 1332
N 86 1 0 
N 21 21 0 
N 33 33 0 
N 48 94 0 
N 70 54 0 
O 22 24 0 
O 68 54 0 
7
Atoms. Timestep: 1333
N 87 1 0 
N 21 22 0 
N 32 33 0 
N 47 94 0 
N 69 54 0 
O 22 25 0 
O 67 54 0 
7
Atoms. Timestep: 1334
N 86 1 0 
N 21 23 0 
N 31 33 0 
N 47 93 0 
N 68 54 0 
O 22 26 0 
O 66 54 0 
7
Atoms. Timestep: 1335
N 87 1 0 
N 21 24 0 
N 30 33 0 
N 46 93 0 
N 67 54 0 
O 22 27 0 
O 65 54 0 
7
Atoms. Timestep: 1336
N 86 1 0 
N 21 25 0 
N 29 33 0 
N 46 92 0 
N 66 54 0 
O 22 28 0 
O 64 54 0 
7
Atoms. Timestep: 1337
N 87 1 0 
N 21 26 0 
N 28 33 0 
N 45 92 0 
N 65 54 0 
O 22 29 0 
O 63 54 0 
7
Atoms. Timestep: 1338
N 86 1 0 
N 21 27 0 
N 27 33 0 
N 45 91 0 
N 64 54 0 
O 22 30 0 
O 62 54 0 
7
Atoms. Timestep: 1339
N 87 1 0 
N 21 28 0 
N 26 33 0 
N 45 90 0 
N 63 54 0 
O 22 31 0 
O 61 54 0 
7
Atoms. Timestep: 1340
N 88 1 0 
N 21 29 0 
N 25 33 0 
N 45 91 0 
N 62 54 0 
O 22 32 0 
O 60 54 0 
7
Atoms. Timestep: 1341
N 87 1 0 
N 21 30 0 
N 24 33 0 
N 45 90 0 
N 61 54 0 
O 22 33 0 
O 59 54 0 
7
Atoms. Timestep: 1342
N 88 1 0 
N 21 29 0 
N 23 33 0 
N 45 89 0 
N 60 54 0 
O 21 33 0 
O 58 54 0 
7
Atoms. Timestep: 1343
N 87 1 0 
N 21 28 0 
N 22 33 0 
N 45 90 0 
N 59 54 0 
O 20 33 0 
O 57 54 0 
7
Atoms. Timestep: 1344
N 86 1 0 
N 21 27 0 
N 21 33 0 
N 45 89 0 
N 58 54 0 
O 19 33 0 
O 56 54 0 
7
Atoms. Timestep: 1345
N 85 1 0 
N 21 26 0 
N 20 33 0 
N 45 88 0 
N 57 54 0 
O 18 33 0 
O 55 54 0 
7
Atoms. Timestep: 1346
N 86 1 0 
N 21 25 0 
N 19 33 0 
N 45 89 0 
N 56 54 0 
O 17 33 0 
O 54 54 0 
7
Atoms. Timestep: 1347
N 85 1 0 
N 21 24 0 
N 18 33 0 
N 45 90 0 
N 55 54 0 
O 16 33 0 
O 53 54 0 
7
Atoms. Timestep: 1348
N 86 1 0 
N 21 23 0 
N 17 33 0 
N 45 89 0 
N 54 54 0 
O 15 33 0 
O 52 54 0 
7
Atoms. Timestep: 1349
N 85 1 0 
N 21 22 0 
N 16 33 0 
N 45 90 0 
N 53 54 0 
O 14 33 0 
O 51 54 0 
7
Atoms. Timestep: 1350
N 84 1 0 
N 21 21 0 
N 15 33 0 
N 45 91 0 
N 52 54 0 
O 13 33 0 
O 50 54 0 
7
Atoms. Timestep: 1351
N 85 1 0 
N 21 20 0 
N 14 33 0 
N 45 92 0 
N 51 54 0 
O 12 33 0 
O 49 54 0 
7
Atoms. Timestep: 1352
N 84 1 0 
N 21 19 0 
N 13 33 0 
N 45 91 0 
N 50 54 0 
O 11 33 0 
O 48 54 0 
7
Atoms. Timestep: 1353
N 83 1 0 
N 21 18 0 
N 12 33 0 
N 45 90 0 
N 49 54 0 
O 10 33 0 
O 47 54 0 
7
Atoms. Timestep: 1354
N 84 1 0 
N 21 17 0 
N 11 33 0 
N 45 89 0 
N 48 54 0 
O 9 33 0 
O 46 54 0 
7
Atoms. Timestep: 1355
N 83 1 0 
N 21 16 0 
N 10 33 0 
N 45 90 0 
N 47 54 0 
O 8 33 0 
O 45 54 0 
7
Atoms. Timestep: 1356
N 84 1 0 
N 21 15 0 
N 9 33 0 
N 45 89 0 
N 46 54 0 
O 7 33 0 
O 44 54 0 
7
Atoms. Timestep: 1357
N 83 1 0 
N 21 14 0 
N 8 33 0 
N 45 88 0 
N 45 54 0 
O 6 33 0 
O 43 54 0 
7
Atoms. Timestep: 1358
N 82 1 0 
N 21 13 0 
N 7 33 0 
N 45 87 0 
N 45 53 0 
O 5 33 0 
O 42 54 0 
7
Atoms. Timestep: 1359
N 83 1 0 
N 21 12 0 
N 6 33 0 
N 45 86 0 
N 44 53 0 
O 4 33 0 
O 41 54 0 
7
Atoms. Timestep: 1360
N 83 0 0 
N 21 11 0 
N 5 33 0 
N 45 85 0 
N 43 53 0 
O 3 33 0 
O 40 54 0 
7
Atoms. Timestep: 1361
N 83 1 0 
N 21 10 0 
N 4 33 0 
N 45 84 0 
N 42 53 0 
O 2 33 0 
O 39 54 0 
7
Atoms. Timestep: 1362
N 83 0 0 
N 21 9 0 
N 3 33 0 
N 45 83 0 
N 41 53 0 
O 1 33 0 
O 38 54 0 
7
Atoms. Timestep: 1363
N 83 1 0 
N 21 8 0 
N 2 33 0 
N 45 82 0 
N 40 53 0 
O 0 33 0 
O 37 54 0 
7
Atoms. Timestep: 1364
N 83 0 0 
N 21 7 0 
N 1 33 0 
N 45 83 0 
N 39 53 0 
O 99 33 0 
O 36 54 0 
7
Atoms. Timestep: 1365
N 83 1 0 
N 21 6 0 
N 0 33 0 
N 45 84 0 
N 38 53 0 
O 98 33 0 
O 35 54 0 
7
Atoms. Timestep: 1366
N 83 0 0 
N 20 6 0 
N 99 33 0 
N 45 83 0 
N 37 53 0 
O 97 33 0 
O 34 54 0 
7
Atoms. Timestep: 1367
N 83 1 0 
N 19 6 0 
N 98 33 0 
N 45 84 0 
N 36 53 0 
O 96 33 0 
O 33 54 0 
7
Atoms. Timestep: 1368
N 83 2 0 
N 19 5 0 
N 99 33 0 
N 45 85 0 
N 35 53 0 
O 95 33 0 
O 32 54 0 
7
Atoms. Timestep: 1369
N 83 3 0 
N 18 5 0 
N 98 33 0 
N 46 85 0 
N 34 53 0 
O 94 33 0 
O 31 54 0 
7
Atoms. Timestep: 1370
N 83 4 0 
N 19 5 0 
N 97 33 0 
N 47 85 0 
N 33 53 0 
O 93 33 0 
O 30 54 0 
7
Atoms. Timestep: 1371
N 83 5 0 
N 18 5 0 
N 96 33 0 
N 48 85 0 
N 32 53 0 
O 92 33 0 
O 29 54 0 
7
Atoms. Timestep: 1372
N 83 6 0 
N 19 5 0 
N 95 33 0 
N 49 85 0 
N 31 53 0 
O 91 33 0 
O 28 54 0 
7
Atoms. Timestep: 1373
N 83 7 0 
N 18 5 0 
N 94 33 0 
N 49 86 0 
N 30 53 0 
O 90 33 0 
O 27 54 0 
7
Atoms. Timestep: 1374
N 82 7 0 
N 19 5 0 
N 93 33 0 
N 50 86 0 
N 29 53 0 
O 89 33 0 
O 26 54 0 
7
Atoms. Timestep: 1375
N 82 8 0 
N 20 5 0 
N 92 33 0 
N 51 86 0 
N 28 53 0 
O 88 33 0 
O 25 54 0 
7
Atoms. Timestep: 1376
N 82 9 0 
N 19 5 0 
N 91 33 0 
N 52 86 0 
N 27 53 0 
O 87 33 0 
O 24 54 0 
7
Atoms. Timestep: 1377
N 82 10 0 
N 20 5 0 
N 90 33 0 
N 52 85 0 
N 26 53 0 
O 86 33 0 
O 23 54 0 
7
Atoms. Timestep: 1378
N 82 11 0 
N 21 5 0 
N 89 33 0 
N 53 85 0 
N 25 53 0 
O 85 33 0 
O 22 54 0 
7
Atoms. Timestep: 1379
N 82 10 0 
N 20 5 0 
N 88 33 0 
N 54 85 0 
N 24 53 0 
O 84 33 0 
O 21 54 0 
7
Atoms. Timestep: 1380
N 82 9 0 
N 21 5 0 
N 87 33 0 
N 53 85 0 
N 23 53 0 
O 83 33 0 
O 20 54 0 
7
Atoms. Timestep: 1381
N 82 8 0 
N 20 5 0 
N 86 33 0 
N 52 85 0 
N 22 53 0 
O 82 33 0 
O 19 54 0 
7
Atoms. Timestep: 1382
N 82 7 0 
N 19 5 0 
N 85 33 0 
N 51 85 0 
N 21 53 0 
O 81 33 0 
O 18 54 0 
7
Atoms. Timestep: 1383
N 82 6 0 
N 20 5 0 
N 84 33 0 
N 52 85 0 
N 20 53 0 
O 80 33 0 
O 17 54 0 
7
Atoms. Timestep: 1384
N 82 5 0 
N 19 5 0 
N 83 33 0 
N 51 85 0 
N 19 53 0 
O 79 33 0 
O 16 54 0 
7
Atoms. Timestep: 1385
N 82 4 0 
N 18 5 0 
N 82 33 0 
N 50 85 0 
N 18 53 0 
O 78 33 0 
O 15 54 0 
7
Atoms. Timestep: 1386
N 82 3 0 
N 19 5 0 
N 81 33 0 
N 49 85 0 
N 17 53 0 
O 77 33 0 
O 14 54 0 
7
Atoms. Timestep: 1387
N 82 2 0 
N 18 5 0 
N 80 33 0 
N 50 85 0 
N 16 53 0 
O 76 33 0 
O 13 54 0 
7
Atoms. Timestep: 1388
N 82 1 0 
N 19 5 0 
N 79 33 0 
N 49 85 0 
N 15 53 0 
O 75 33 0 
O 12 54 0 
7
Atoms. Timestep: 1389
N 82 0 0 
N 18 5 0 
N 78 33 0 
N 48 85 0 
N 14 53 0 
O 74 33 0 
O 11 54 0 
7
Atoms. Timestep: 1390
N 82 99 0 
N 19 5 0 
N 77 33 0 
N 49 85 0 
N 13 53 0 
O 73 33 0 
O 10 54 0 
7
Atoms. Timestep: 1391
N 82 98 0 
N 18 5 0 
N 76 33 0 
N 48 85 0 
N 12 53 0 
O 72 33 0 
O 9 54 0 
7
Atoms. Timestep: 1392
N 81 98 0 
N 17 5 0 
N 75 33 0 
N 47 85 0 
N 11 53 0 
O 71 33 0 
O 8 54 0 
7
Atoms. Timestep: 1393
N 80 98 0 
N 16 5 0 
N 74 33 0 
N 46 85 0 
N 10 53 0 
O 70 33 0 
O 7 54 0 
7
Atoms. Timestep: 1394
N 79 98 0 
N 15 5 0 
N 73 33 0 
N 45 85 0 
N 9 53 0 
O 69 33 0 
O 6 54 0 
7
Atoms. Timestep: 1395
N 78 98 0 
N 14 5 0 
N 72 33 0 
N 44 85 0 
N 8 53 0 
O 68 33 0 
O 5 54 0 
7
Atoms. Timestep: 1396
N 77 98 0 
N 13 5 0 
N 71 33 0 
N 43 85 0 
N 7 53 0 
O 67 33 0 
O 4 54 0 
7
Atoms. Timestep: 1397
N 76 98 0 
N 12 5 0 
N 70 33 0 
N 42 85 0 
N 6 53 0 
O 66 33 0 
O 3 54 0 
7
Atoms. Timestep: 1398
N 75 98 0 
N 11 5 0 
N 69 33 0 
N 41 85 0 
N 5 53 0 
O 65 33 0 
O 2 54 0 
7
Atoms. Timestep: 1399
N 74 98 0 
N 10 5 0 
N 68 33 0 
N 40 85 0 
N 4 53 0 
O 64 33 0 
O 1 54 0 
7
Atoms. Timestep: 1400
N 73 98 0 
N 9 5 0 
N 67 33 0 
N 39 85 0 
N 3 53 0 
O 63 33 0 
O 0 54 0 
7
Atoms. Timestep: 1401
N 72 98 0 
N 8 5 0 
N 66 33 0 
N 38 85 0 
N 2 53 0 
O 62 33 0 
O 99 54 0 
7
Atoms. Timestep: 1402
N 71 98 0 
N 7 5 0 
N 65 33 0 
N 37 85 0 
N 1 53 0 
O 61 33 0 
O 98 54 0 
7
Atoms. Timestep: 1403
N 70 98 0 
N 6 5 0 
N 64 33 0 
N 36 85 0 
N 0 53 0 
O 60 33 0 
O 97 54 0 
7
Atoms. Timestep: 1404
N 69 98 0 
N 5 5 0 
N 63 33 0 
N 35 85 0 
N 99 53 0 
O 59 33 0 
O 96 54 0 
7
Atoms. Timestep: 1405
N 69 97 0 
N 5 4 0 
N 62 33 0 
N 34 85 0 
N 98 53 0 
O 58 33 0 
O 95 54 0 
7
Atoms. Timestep: 1406
N 68 97 0 
N 4 4 0 
N 61 33 0 
N 35 85 0 
N 97 53 0 
O 57 33 0 
O 94 54 0 
7
Atoms. Timestep: 1407
N 67 97 0 
N 3 4 0 
N 60 33 0 
N 34 85 0 
N 96 53 0 
O 56 33 0 
O 93 54 0 
7
Atoms. Timestep: 1408
N 66 97 0 
N 2 4 0 
N 59 33 0 
N 33 85 0 
N 95 53 0 
O 55 33 0 
O 92 54 0 
7
Atoms. Timestep: 1409
N 65 97 0 
N 1 4 0 
N 58 33 0 
N 32 85 0 
N 94 53 0 
O 54 33 0 
O 91 54 0 
7
Atoms. Timestep: 1410
N 64 97 0 
N 0 4 0 
N 57 33 0 
N 31 85 0 
N 93 53 0 
O 53 33 0 
O 90 54 0 
7
Atoms. Timestep: 1411
N 63 97 0 
N 99 4 0 
N 56 33 0 
N 30 85 0 
N 92 53 0 
O 52 33 0 
O 89 54 0 
7
Atoms. Timestep: 1412
N 62 97 0 
N 98 4 0 
N 55 33 0 
N 29 85 0 
N 91 53 0 
O 51 33 0 
O 88 54 0 
7
Atoms. Timestep: 1413
N 61 97 0 
N 97 4 0 
N 54 33 0 
N 28 85 0 
N 90 53 0 
O 50 33 0 
O 87 54 0 
7
Atoms. Timestep: 1414
N 60 97 0 
N 96 4 0 
N 53 33 0 
N 27 85 0 
N 89 53 0 
O 49 33 0 
O 86 54 0 
7
Atoms. Timestep: 1415
N 59 97 0 
N 95 4 0 
N 52 33 0 
N 26 85 0 
N 88 53 0 
O 48 33 0 
O 85 54 0 
7
Atoms. Timestep: 1416
N 58 97 0 
N 94 4 0 
N 51 33 0 
N 25 85 0 
N 87 53 0 
O 47 33 0 
O 84 54 0 
7
Atoms. Timestep: 1417
N 57 97 0 
N 93 4 0 
N 50 33 0 
N 24 85 0 
N 86 53 0 
O 46 33 0 
O 83 54 0 
7
Atoms. Timestep: 1418
N 56 97 0 
N 92 4 0 
N 49 33 0 
N 23 85 0 
N 85 53 0 
O 45 33 0 
O 82 54 0 
7
Atoms. Timestep: 1419
N 55 97 0 
N 91 4 0 
N 48 33 0 
N 22 85 0 
N 84 53 0 
O 44 33 0 
O 81 54 0 
7
Atoms. Timestep: 1420
N 54 97 0 
N 90 4 0 
N 47 33 0 
N 21 85 0 
N 83 53 0 
O 43 33 0 
O 80 54 0 
7
Atoms. Timestep: 1421
N 53 97 0 
N 89 4 0 
N 46 33 0 
N 20 85 0 
N 82 53 0 
O 42 33 0 
O 79 54 0 
7
Atoms. Timestep: 1422
N 52 97 0 
N 88 4 0 
N 45 33 0 
N 19 85 0 
N 81 53 0 
O 41 33 0 
O 78 54 0 
7
Atoms. Timestep: 1423
N 51 97 0 
N 87 4 0 
N 44 33 0 
N 18 85 0 
N 80 53 0 
O 40 33 0 
O 77 54 0 
7
Atoms. Timestep: 1424
N 50 97 0 
N 86 4 0 
N 43 33 0 
N 17 85 0 
N 79 53 0 
O 39 33 0 
O 76 54 0 
7
Atoms. Timestep: 1425
N 49 97 0 
N 85 4 0 
N 42 33 0 
N 16 85 0 
N 78 53 0 
O 38 33 0 
O 75 54 0 
7
Atoms. Timestep: 1426
N 50 97 0 
N 84 4 0 
N 41 33 0 
N 16 86 0 
N 77 53 0 
O 37 33 0 
O 74 54 0 
7
Atoms. Timestep: 1427
N 49 97 0 
N 85 4 0 
N 40 33 0 
N 15 86 0 
N 76 53 0 
O 36 33 0 
O 73 54 0 
7
Atoms. Timestep: 1428
N 50 97 0 
N 84 4 0 
N 39 33 0 
N 16 86 0 
N 75 53 0 
O 35 33 0 
O 72 54 0 
7
Atoms. Timestep: 1429
N 49 97 0 
N 85 4 0 
N 38 33 0 
N 15 86 0 
N 74 53 0 
O 34 33 0 
O 71 54 0 
7
Atoms. Timestep: 1430
N 50 97 0 
N 84 4 0 
N 37 33 0 
N 16 86 0 
N 73 53 0 
O 33 33 0 
O 70 54 0 
7
Atoms. Timestep: 1431
N 49 97 0 
N 85 4 0 
N 36 33 0 
N 15 86 0 
N 72 53 0 
O 32 33 0 
O 69 54 0 
7
Atoms. Timestep: 1432
N 50 97 0 
N 84 4 0 
N 35 33 0 
N 16 86 0 
N 71 53 0 
O 31 33 0 
O 68 54 0 
7
Atoms. Timestep: 1433
N 49 97 0 
N 85 4 0 
N 34 33 0 
N 15 86 0 
N 70 53 0 
O 30 33 0 
O 67 54 0 
7
Atoms. Timestep: 1434
N 50 97 0 
N 84 4 0 
N 33 33 0 
N 16 86 0 
N 69 53 0 
O 29 33 0 
O 66 54 0 
7
Atoms. Timestep: 1435
N 49 97 0 
N 85 4 0 
N 32 33 0 
N 15 86 0 
N 68 53 0 
O 28 33 0 
O 65 54 0 
7
Atoms. Timestep: 1436
N 50 97 0 
N 84 4 0 
N 31 33 0 
N 16 86 0 
N 67 53 0 
O 27 33 0 
O 64 54 0 
7
Atoms. Timestep: 1437
N 49 97 0 
N 85 4 0 
N 30 33 0 
N 15 86 0 
N 66 53 0 
O 26 33 0 
O 63 54 0 
7
Atoms. Timestep: 1438
N 50 97 0 
N 84 4 0 
N 29 33 0 
N 16 86 0 
N 65 53 0 
O 25 33 0 
O 62 54 0 
7
Atoms. Timestep: 1439
N 49 97 0 
N 85 4 0 
N 28 33 0 
N 15 86 0 
N 64 53 0 
O 24 33 0 
O 61 54 0 
7
Atoms. Timestep: 1440
N 50 97 0 
N 84 4 0 
N 27 33 0 
N 16 86 0 
N 63 53 0 
O 23 33 0 
O 60 54 0 
7
Atoms. Timestep: 1441
N 49 97 0 
N 85 4 0 
N 26 33 0 
N 15 86 0 
N 62 53 0 
O 22 33 0 
O 59 54 0 
7
Atoms. Timestep: 1442
N 50 97 0 
N 84 4 0 
N 25 33 0 
N 16 86 0 
N 61 53 0 
O 21 33 0 
O 58 54 0 
7
Atoms. Timestep: 1443
N 49 97 0 
N 85 4 0 
N 24 33 0 
N 15 86 0 
N 60 53 0 
O 20 33 0 
O 57 54 0 
7
Atoms. Timestep: 1444
N 50 97 0 
N 84 4 0 
N 23 33 0 
N 16 86 0 
N 59 53 0 
O 19 33 0 
O 56 54 0 
7
Atoms. Timestep: 1445
N 49 97 0 
N 85 4 0 
N 22 33 0 
N 15 86 0 
N 58 53 0 
O 18 33 0 
O 55 54 0 
7
Atoms. Timestep: 1446
N 50 97 0 
N 84 4 0 
N 21 33 0 
N 16 86 0 
N 58 54 0 
O 17 33 0 
O 54 54 0 
7
Atoms. Timestep: 1447
N 49 97 0 
N 85 4 0 
N 20 33 0 
N 15 86 0 
N 57 54 0 
O 16 33 0 
O 53 54 0 
7
Atoms. Timestep: 1448
N 50 97 0 
N 84 4 0 
N 19 33 0 
N 16 86 0 
N 56 54 0 
O 15 33 0 
O 52 54 0 
7
Atoms. Timestep: 1449
N 49 97 0 
N 85 4 0 
N 18 33 0 
N 15 86 0 
N 55 54 0 
O 14 33 0 
O 51 54 0 
7
Atoms. Timestep: 1450
N 50 97 0 
N 84 4 0 
N 17 33 0 
N 16 86 0 
N 54 54 0 
O 13 33 0 
O 50 54 0 
7
Atoms. Timestep: 1451
N 49 97 0 
N 85 4 0 
N 16 33 0 
N 15 86 0 
N 53 54 0 
O 12 33 0 
O 49 54 0 
7
Atoms. Timestep: 1452
N 50 97 0 
N 84 4 0 
N 15 33 0 
N 16 86 0 
N 52 54 0 
O 11 33 0 
O 48 54 0 
7
Atoms. Timestep: 1453
N 49 97 0 
N 85 4 0 
N 14 33 0 
N 15 86 0 
N 51 54 0 
O 10 33 0 
O 47 54 0 
7
Atoms. Timestep: 1454
N 50 97 0 
N 84 4 0 
N 13 33 0 
N 16 86 0 
N 50 54 0 
O 9 33 0 
O 46 54 0 
7
Atoms. Timestep: 1455
N 49 97 0 
N 85 4 0 
N 14 33 0 
N 15 86 0 
N 49 54 0 
O 8 33 0 
O 45 54 0 
7
Atoms. Timestep: 1456
N 50 97 0 
N 84 4 0 
N 13 33 0 
N 16 86 0 
N 48 54 0 
O 7 33 0 
O 44 54 0 
7
Atoms. Timestep: 1457
N 49 97 0 
N 85 4 0 
N 12 33 0 
N 15 86 0 
N 47 54 0 
O 6 33 0 
O 43 54 0 
7
Atoms. Timestep: 1458
N 50 97 0 
N 84 4 0 
N 11 33 0 
N 16 86 0 
N 46 54 0 
O 5 33 0 
O 42 54 0 
7
Atoms. Timestep: 1459
N 49 97 0 
N 85 4 0 
N 10 33 0 
N 15 86 0 
N 45 54 0 
O 4 33 0 
O 41 54 0 
7
Atoms. Timestep: 1460
N 50 97 0 
N 85 5 0 
N 9 33 0 
N 16 86 0 
N 44 54 0 
O 3 33 0 
O 40 54 0 
7
Atoms. Timestep: 1461
N 49 97 0 
N 85 6 0 
N 8 33 0 
N 15 86 0 
N 43 54 0 
O 2 33 0 
O 39 54 0 
7
Atoms. Timestep: 1462
N 50 97 0 
N 85 7 0 
N 7 33 0 
N 14 86 0 
N 42 54 0 
O 1 33 0 
O 38 54 0 
7
Atoms. Timestep: 1463
N 49 97 0 
N 85 8 0 
N 6 33 0 
N 15 86 0 
N 41 54 0 
O 0 33 0 
O 37 54 0 
7
Atoms. Timestep: 1464
N 50 97 0 
N 85 9 0 
N 6 34 0 
N 14 86 0 
N 40 54 0 
O 99 33 0 
O 36 54 0 
7
Atoms. Timestep: 1465
N 49 97 0 
N 85 10 0 
N 5 34 0 
N 13 86 0 
N 39 54 0 
O 98 33 0 
O 35 54 0 
7
Atoms. Timestep: 1466
N 50 97 0 
N 85 11 0 
N 4 34 0 
N 14 86 0 
N 38 54 0 
O 97 33 0 
O 34 54 0 
7
Atoms. Timestep: 1467
N 49 97 0 
N 85 12 0 
N 3 34 0 
N 13 86 0 
N 37 54 0 
O 96 33 0 
O 33 54 0 
7
Atoms. Timestep: 1468
N 50 97 0 
N 85 13 0 
N 2 34 0 
N 12 86 0 
N 36 54 0 
O 95 33 0 
O 32 54 0 
7
Atoms. Timestep: 1469
N 49 97 0 
N 85 14 0 
N 1 34 0 
N 12 85 0 
N 35 54 0 
O 94 33 0 
O 31 54 0 
7
Atoms. Timestep: 1470
N 50 97 0 
N 85 15 0 
N 0 34 0 
N 12 84 0 
N 34 54 0 
O 93 33 0 
O 30 54 0 
7
Atoms. Timestep: 1471
N 49 97 0 
N 85 16 0 
N 99 34 0 
N 12 83 0 
N 33 54 0 
O 92 33 0 
O 29 54 0 
7
Atoms. Timestep: 1472
N 50 97 0 
N 85 17 0 
N 98 34 0 
N 12 82 0 
N 32 54 0 
O 91 33 0 
O 28 54 0 
7
Atoms. Timestep: 1473
N 49 97 0 
N 85 18 0 
N 97 34 0 
N 12 81 0 
N 31 54 0 
O 90 33 0 
O 27 54 0 
7
Atoms. Timestep: 1474
N 50 97 0 
N 85 19 0 
N 96 34 0 
N 12 80 0 
N 30 54 0 
O 89 33 0 
O 26 54 0 
7
Atoms. Timestep: 1475
N 49 97 0 
N 85 20 0 
N 95 34 0 
N 12 79 0 
N 29 54 0 
O 88 33 0 
O 25 54 0 
7
Atoms. Timestep: 1476
N 50 97 0 
N 85 21 0 
N 94 34 0 
N 12 78 0 
N 28 54 0 
O 87 33 0 
O 24 54 0 
7
Atoms. Timestep: 1477
N 51 97 0 
N 85 22 0 
N 93 34 0 
N 12 77 0 
N 27 54 0 
O 86 33 0 
O 23 54 0 
7
Atoms. Timestep: 1478
N 50 97 0 
N 85 23 0 
N 92 34 0 
N 12 76 0 
N 26 54 0 
O 85 33 0 
O 22 54 0 
7
Atoms. Timestep: 1479
N 51 97 0 
N 85 24 0 
N 91 34 0 
N 12 75 0 
N 25 54 0 
O 84 33 0 
O 21 54 0 
7
Atoms. Timestep: 1480
N 50 97 0 
N 85 25 0 
N 90 34 0 
N 12 74 0 
N 24 54 0 
O 83 33 0 
O 20 54 0 
7
Atoms. Timestep: 1481
N 51 97 0 
N 85 26 0 
N 89 34 0 
N 12 73 0 
N 23 54 0 
O 82 33 0 
O 19 54 0 
7
Atoms. Timestep: 1482
N 50 97 0 
N 85 27 0 
N 88 34 0 
N 12 72 0 
N 22 54 0 
O 82 34 0 
O 18 54 0 
7
Atoms. Timestep: 1483
N 49 97 0 
N 85 26 0 
N 87 34 0 
N 12 71 0 
N 21 54 0 
O 81 34 0 
O 17 54 0 
7
Atoms. Timestep: 1484
N 48 97 0 
N 85 25 0 
N 86 34 0 
N 12 70 0 
N 20 54 0 
O 80 34 0 
O 16 54 0 
7
Atoms. Timestep: 1485
N 47 97 0 
N 85 24 0 
N 85 34 0 
N 12 69 0 
N 19 54 0 
O 79 34 0 
O 15 54 0 
7
Atoms. Timestep: 1486
N 48 97 0 
N 85 23 0 
N 84 34 0 
N 12 68 0 
N 18 54 0 
O 78 34 0 
O 14 54 0 
7
Atoms. Timestep: 1487
N 47 97 0 
N 85 22 0 
N 83 34 0 
N 12 69 0 
N 17 54 0 
O 77 34 0 
O 13 54 0 
7
Atoms. Timestep: 1488
N 46 97 0 
N 84 22 0 
N 82 34 0 
N 12 70 0 
N 16 54 0 
O 76 34 0 
O 12 54 0 
7
Atoms. Timestep: 1489
N 47 97 0 
N 84 21 0 
N 81 34 0 
N 12 71 0 
N 15 54 0 
O 75 34 0 
O 11 54 0 
7
Atoms. Timestep: 1490
N 46 97 0 
N 84 20 0 
N 80 34 0 
N 12 72 0 
N 14 54 0 
O 74 34 0 
O 10 54 0 
7
Atoms. Timestep: 1491
N 47 97 0 
N 84 19 0 
N 79 34 0 
N 12 73 0 
N 13 54 0 
O 73 34 0 
O 9 54 0 
7
Atoms. Timestep: 1492
N 48 97 0 
N 84 18 0 
N 78 34 0 
N 12 74 0 
N 12 54 0 
O 72 34 0 
O 8 54 0 
7
Atoms. Timestep: 1493
N 47 97 0 
N 84 17 0 
N 77 34 0 
N 12 75 0 
N 11 54 0 
O 71 34 0 
O 7 54 0 
7
Atoms. Timestep: 1494
N 48 97 0 
N 84 16 0 
N 76 34 0 
N 12 76 0 
N 10 54 0 
O 70 34 0 
O 6 54 0 
7
Atoms. Timestep: 1495
N 47 97 0 
N 84 15 0 
N 75 34 0 
N 12 77 0 
N 9 54 0 
O 69 34 0 
O 5 54 0 
7
Atoms. Timestep: 1496
N 48 97 0 
N 84 14 0 
N 74 34 0 
N 12 78 0 
N 8 54 0 
O 68 34 0 
O 4 54 0 
7
Atoms. Timestep: 1497
N 47 97 0 
N 84 13 0 
N 73 34 0 
N 12 79 0 
N 7 54 0 
O 67 34 0 
O 3 54 0 
7
Atoms. Timestep: 1498
N 48 97 0 
N 84 12 0 
N 72 34 0 
N 12 80 0 
N 6 54 0 
O 66 34 0 
O 2 54 0 
7
Atoms. Timestep: 1499
N 47 97 0 
N 84 11 0 
N 71 34 0 
N 12 81 0 
N 5 54 0 
O 65 34 0 
O 1 54 0 
7
Atoms. Timestep: 1500
N 48 97 0 
N 84 10 0 
N 70 34 0 
N 12 82 0 
N 4 54 0 
O 64 34 0 
O 0 54 0 
7
Atoms. Timestep: 1501
N 47 97 0 
N 84 9 0 
N 69 34 0 
N 12 83 0 
N 3 54 0 
O 63 34 0 
O 99 54 0 
7
Atoms. Timestep: 1502
N 48 97 0 
N 84 8 0 
N 68 34 0 
N 12 84 0 
N 2 54 0 
O 62 34 0 
O 98 54 0 
7
Atoms. Timestep: 1503
N 47 97 0 
N 84 7 0 
N 67 34 0 
N 12 85 0 
N 1 54 0 
O 61 34 0 
O 97 54 0 
7
Atoms. Timestep: 1504
N 48 97 0 
N 84 6 0 
N 66 34 0 
N 12 86 0 
N 0 54 0 
O 60 34 0 
O 96 54 0 
7
Atoms. Timestep: 1505
N 47 97 0 
N 84 5 0 
N 65 34 0 
N 13 86 0 
N 99 54 0 
O 59 34 0 
O 95 54 0 
7
Atoms. Timestep: 1506
N 48 97 0 
N 84 4 0 
N 64 34 0 
N 14 86 0 
N 98 54 0 
O 58 34 0 
O 94 54 0 
7
Atoms. Timestep: 1507
N 49 97 0 
N 83 4 0 
N 63 34 0 
N 15 86 0 
N 97 54 0 
O 57 34 0 
O 93 54 0 
7
Atoms. Timestep: 1508
N 48 97 0 
N 84 4 0 
N 62 34 0 
N 14 86 0 
N 96 54 0 
O 56 34 0 
O 92 54 0 
7
Atoms. Timestep: 1509
N 49 97 0 
N 83 4 0 
N 61 34 0 
N 15 86 0 
N 95 54 0 
O 55 34 0 
O 91 54 0 
7
Atoms. Timestep: 1510
N 48 97 0 
N 84 4 0 
N 60 34 0 
N 14 86 0 
N 94 54 0 
O 54 34 0 
O 90 54 0 
7
Atoms. Timestep: 1511
N 49 97 0 
N 83 4 0 
N 59 34 0 
N 15 86 0 
N 93 54 0 
O 53 34 0 
O 89 54 0 
7
Atoms. Timestep: 1512
N 48 97 0 
N 84 4 0 
N 58 34 0 
N 14 86 0 
N 92 54 0 
O 52 34 0 
O 88 54 0 
7
Atoms. Timestep: 1513
N 49 97 0 
N 83 4 0 
N 57 34 0 
N 15 86 0 
N 91 54 0 
O 51 34 0 
O 87 54 0 
7
Atoms. Timestep: 1514
N 48 97 0 
N 84 4 0 
N 56 34 0 
N 14 86 0 
N 90 54 0 
O 50 34 0 
O 86 54 0 
7
Atoms. Timestep: 1515
N 49 97 0 
N 83 4 0 
N 55 34 0 
N 15 86 0 
N 89 54 0 
O 49 34 0 
O 85 54 0 
7
Atoms. Timestep: 1516
N 49 96 0 
N 84 4 0 
N 54 34 0 
N 14 86 0 
N 88 54 0 
O 48 34 0 
O 84 54 0 
7
Atoms. Timestep: 1517
N 50 96 0 
N 85 4 0 
N 53 34 0 
N 15 86 0 
N 87 54 0 
O 47 34 0 
O 83 54 0 
7
Atoms. Timestep: 1518
N 51 96 0 
N 86 4 0 
N 52 34 0 
N 16 86 0 
N 86 54 0 
O 46 34 0 
O 82 54 0 
7
Atoms. Timestep: 1519
N 52 96 0 
N 87 4 0 
N 51 34 0 
N 17 86 0 
N 85 54 0 
O 45 34 0 
O 81 54 0 
7
Atoms. Timestep: 1520
N 53 96 0 
N 88 4 0 
N 50 34 0 
N 18 86 0 
N 84 54 0 
O 44 34 0 
O 80 54 0 
7
Atoms. Timestep: 1521
N 54 96 0 
N 89 4 0 
N 49 34 0 
N 19 86 0 
N 83 54 0 
O 43 34 0 
O 79 54 0 
7
Atoms. Timestep: 1522
N 55 96 0 
N 90 4 0 
N 48 34 0 
N 20 86 0 
N 82 54 0 
O 42 34 0 
O 78 54 0 
7
Atoms. Timestep: 1523
N 56 96 0 
N 91 4 0 
N 47 34 0 
N 21 86 0 
N 81 54 0 
O 41 34 0 
O 77 54 0 
7
Atoms. Timestep: 1524
N 57 96 0 
N 92 4 0 
N 46 34 0 
N 22 86 0 
N 80 54 0 
O 40 34 0 
O 76 54 0 
7
Atoms. Timestep: 1525
N 58 96 0 
N 93 4 0 
N 45 34 0 
N 23 86 0 
N 79 54 0 
O 39 34 0 
O 75 54 0 
7
Atoms. Timestep: 1526
N 59 96 0 
N 94 4 0 
N 44 34 0 
N 24 86 0 
N 78 54 0 
O 38 34 0 
O 74 54 0 
7
Atoms. Timestep: 1527
N 60 96 0 
N 95 4 0 
N 43 34 0 
N 25 86 0 
N 77 54 0 
O 37 34 0 
O 73 54 0 
7
Atoms. Timestep: 1528
N 61 96 0 
N 96 4 0 
N 42 34 0 
N 26 86 0 
N 76 54 0 
O 36 34 0 
O 72 54 0 
7
Atoms. Timestep: 1529
N 60 96 0 
N 97 4 0 
N 41 34 0 
N 26 85 0 
N 75 54 0 
O 35 34 0 
O 71 54 0 
7
Atoms. Timestep: 1530
N 61 96 0 
N 96 4 0 
N 40 34 0 
N 27 85 0 
N 74 54 0 
O 34 34 0 
O 70 54 0 
7
Atoms. Timestep: 1531
N 60 96 0 
N 97 4 0 
N 39 34 0 
N 26 85 0 
N 73 54 0 
O 33 34 0 
O 69 54 0 
7
Atoms. Timestep: 1532
N 61 96 0 
N 98 4 0 
N 38 34 0 
N 27 85 0 
N 72 54 0 
O 32 34 0 
O 68 54 0 
7
Atoms. Timestep: 1533
N 62 96 0 
N 97 4 0 
N 37 34 0 
N 28 85 0 
N 71 54 0 
O 31 34 0 
O 67 54 0 
7
Atoms. Timestep: 1534
N 61 96 0 
N 98 4 0 
N 36 34 0 
N 27 85 0 
N 70 54 0 
O 30 34 0 
O 66 54 0 
7
Atoms. Timestep: 1535
N 62 96 0 
N 97 4 0 
N 35 34 0 
N 28 85 0 
N 69 54 0 
O 29 34 0 
O 65 54 0 
7
Atoms. Timestep: 1536
N 61 96 0 
N 98 4 0 
N 34 34 0 
N 27 85 0 
N 68 54 0 
O 28 34 0 
O 64 54 0 
7
Atoms. Timestep: 1537
N 62 96 0 
N 97 4 0 
N 33 34 0 
N 28 85 0 
N 67 54 0 
O 27 34 0 
O 63 54 0 
7
Atoms. Timestep: 1538
N 61 96 0 
N 98 4 0 
N 32 34 0 
N 27 85 0 
N 66 54 0 
O 26 34 0 
O 62 54 0 
7
Atoms. Timestep: 1539
N 62 96 0 
N 97 4 0 
N 31 34 0 
N 28 85 0 
N 65 54 0 
O 25 34 0 
O 61 54 0 
7
Atoms. Timestep: 1540
N 61 96 0 
N 98 4 0 
N 30 34 0 
N 27 85 0 
N 64 54 0 
O 24 34 0 
O 60 54 0 
7
Atoms. Timestep: 1541
N 62 96 0 
N 97 4 0 
N 29 34 0 
N 28 85 0 
N 63 54 0 
O 23 34 0 
O 59 54 0 
7
Atoms. Timestep: 1542
N 61 96 0 
N 98 4 0 
N 28 34 0 
N 27 85 0 
N 62 54 0 
O 22 34 0 
O 58 54 0 
7
Atoms. Timestep: 1543
N 62 96 0 
N 97 4 0 
N 27 34 0 
N 28 85 0 
N 61 54 0 
O 21 34 0 
O 57 54 0 
7
Atoms. Timestep: 1544
N 61 96 0 
N 98 4 0 
N 26 34 0 
N 27 85 0 
N 60 54 0 
O 20 34 0 
O 56 54 0 
7
Atoms. Timestep: 1545
N 62 96 0 
N 97 4 0 
N 25 34 0 
N 28 85 0 
N 59 54 0 
O 19 34 0 
O 55 54 0 
7
Atoms. Timestep: 1546
N 61 96 0 
N 98 4 0 
N 24 34 0 
N 27 85 0 
N 58 54 0 
O 18 34 0 
O 54 54 0 
7
Atoms. Timestep: 1547
N 62 96 0 
N 97 4 0 
N 23 34 0 
N 28 85 0 
N 57 54 0 
O 17 34 0 
O 53 54 0 
7
Atoms. Timestep: 1548
N 61 96 0 
N 98 4 0 
N 22 34 0 
N 27 85 0 
N 56 54 0 
O 16 34 0 
O 52 54 0 
7
Atoms. Timestep: 1549
N 62 96 0 
N 98 5 0 
N 21 34 0 
N 28 85 0 
N 55 54 0 
O 15 34 0 
O 51 54 0 
7
Atoms. Timestep: 1550
N 63 96 0 
N 98 6 0 
N 20 34 0 
N 27 85 0 
N 54 54 0 
O 14 34 0 
O 50 54 0 
7
Atoms. Timestep: 1551
N 62 96 0 
N 98 7 0 
N 19 34 0 
N 28 85 0 
N 53 54 0 
O 13 34 0 
O 49 54 0 
7
Atoms. Timestep: 1552
N 63 96 0 
N 98 8 0 
N 18 34 0 
N 27 85 0 
N 52 54 0 
O 12 34 0 
O 48 54 0 
7
Atoms. Timestep: 1553
N 62 96 0 
N 98 9 0 
N 17 34 0 
N 26 85 0 
N 51 54 0 
O 11 34 0 
O 47 54 0 
7
Atoms. Timestep: 1554
N 63 96 0 
N 98 10 0 
N 16 34 0 
N 27 85 0 
N 50 54 0 
O 10 34 0 
O 46 54 0 
7
Atoms. Timestep: 1555
N 64 96 0 
N 98 11 0 
N 15 34 0 
N 27 84 0 
N 49 54 0 
O 9 34 0 
O 45 54 0 
7
Atoms. Timestep: 1556
N 63 96 0 
N 98 12 0 
N 14 34 0 
N 27 83 0 
N 48 54 0 
O 8 34 0 
O 44 54 0 
7
Atoms. Timestep: 1557
N 62 96 0 
N 98 13 0 
N 13 34 0 
N 27 82 0 
N 47 54 0 
O 7 34 0 
O 43 54 0 
7
Atoms. Timestep: 1558
N 63 96 0 
N 98 14 0 
N 12 34 0 
N 27 81 0 
N 46 54 0 
O 6 34 0 
O 42 54 0 
7
Atoms. Timestep: 1559
N 62 96 0 
N 98 15 0 
N 11 34 0 
N 27 80 0 
N 45 54 0 
O 5 34 0 
O 41 54 0 
7
Atoms. Timestep: 1560
N 63 96 0 
N 98 16 0 
N 10 34 0 
N 27 79 0 
N 44 54 0 
O 4 34 0 
O 40 54 0 
7
Atoms. Timestep: 1561
N 62 96 0 
N 98 17 0 
N 9 34 0 
N 27 78 0 
N 43 54 0 
O 3 34 0 
O 39 54 0 
7
Atoms. Timestep: 1562
N 63 96 0 
N 98 18 0 
N 8 34 0 
N 27 77 0 
N 42 54 0 
O 2 34 0 
O 38 54 0 
7
Atoms. Timestep: 1563
N 62 96 0 
N 98 19 0 
N 7 34 0 
N 27 76 0 
N 41 54 0 
O 1 34 0 
O 37 54 0 
7
Atoms. Timestep: 1564
N 63 96 0 
N 98 20 0 
N 6 34 0 
N 27 75 0 
N 40 54 0 
O 0 34 0 
O 36 54 0 
7
Atoms. Timestep: 1565
N 64 96 0 
N 98 21 0 
N 5 34 0 
N 27 74 0 
N 39 54 0 
O 99 34 0 
O 35 54 0 
7
Atoms. Timestep: 1566
N 63 96 0 
N 98 22 0 
N 4 34 0 
N 27 73 0 
N 38 54 0 
O 98 34 0 
O 34 54 0 
7
Atoms. Timestep: 1567
N 62 96 0 
N 98 21 0 
N 4 33 0 
N 27 72 0 
N 37 54 0 
O 97 34 0 
O 33 54 0 
7
Atoms. Timestep: 1568
N 61 96 0 
N 98 20 0 
N 3 33 0 
N 27 71 0 
N 36 54 0 
O 96 34 0 
O 32 54 0 
7
Atoms. Timestep: 1569
N 62 96 0 
N 98 19 0 
N 2 33 0 
N 27 70 0 
N 35 54 0 
O 95 34 0 
O 31 54 0 
7
Atoms. Timestep: 1570
N 61 96 0 
N 98 18 0 
N 1 33 0 
N 27 69 0 
N 34 54 0 
O 94 34 0 
O 30 54 0 
7
Atoms. Timestep: 1571
N 60 96 0 
N 98 17 0 
N 0 33 0 
N 27 68 0 
N 33 54 0 
O 93 34 0 
O 29 54 0 
7
Atoms. Timestep: 1572
N 59 96 0 
N 98 16 0 
N 99 33 0 
N 27 69 0 
N 32 54 0 
O 92 34 0 
O 28 54 0 
7
Atoms. Timestep: 1573
N 60 96 0 
N 98 15 0 
N 98 33 0 
N 27 70 0 
N 31 54 0 
O 91 34 0 
O 27 54 0 
7
Atoms. Timestep: 1574
N 61 96 0 
N 98 14 0 
N 97 33 0 
N 27 71 0 
N 30 54 0 
O 90 34 0 
O 26 54 0 
7
Atoms. Timestep: 1575
N 60 96 0 
N 98 13 0 
N 96 33 0 
N 27 72 0 
N 29 54 0 
O 89 34 0 
O 25 54 0 
7
Atoms. Timestep: 1576
N 61 96 0 
N 98 12 0 
N 95 33 0 
N 27 73 0 
N 28 54 0 
O 88 34 0 
O 24 54 0 
7
Atoms. Timestep: 1577
N 60 96 0 
N 98 11 0 
N 94 33 0 
N 27 74 0 
N 27 54 0 
O 87 34 0 
O 23 54 0 
7
Atoms. Timestep: 1578
N 61 96 0 
N 98 10 0 
N 93 33 0 
N 27 75 0 
N 26 54 0 
O 86 34 0 
O 22 54 0 
7
Atoms. Timestep: 1579
N 60 96 0 
N 98 9 0 
N 92 33 0 
N 27 76 0 
N 25 54 0 
O 85 34 0 
O 21 54 0 
7
Atoms. Timestep: 1580
N 61 96 0 
N 98 8 0 
N 91 33 0 
N 27 77 0 
N 24 54 0 
O 84 34 0 
O 20 54 0 
7
Atoms. Timestep: 1581
N 60 96 0 
N 98 7 0 
N 90 33 0 
N 27 78 0 
N 23 54 0 
O 83 34 0 
O 19 54 0 
7
Atoms. Timestep: 1582
N 61 96 0 
N 98 6 0 
N 89 33 0 
N 27 79 0 
N 22 54 0 
O 82 34 0 
O 18 54 0 
7
Atoms. Timestep: 1583
N 62 96 0 
N 98 5 0 
N 88 33 0 
N 27 80 0 
N 21 54 0 
O 81 34 0 
O 17 54 0 
7
Atoms. Timestep: 1584
N 61 96 0 
N 98 4 0 
N 87 33 0 
N 27 81 0 
N 20 54 0 
O 80 34 0 
O 16 54 0 
7
Atoms. Timestep: 1585
N 62 96 0 
N 98 3 0 
N 86 33 0 
N 27 82 0 
N 19 54 0 
O 79 34 0 
O 15 54 0 
7
Atoms. Timestep: 1586
N 61 96 0 
N 98 2 0 
N 85 33 0 
N 27 83 0 
N 18 54 0 
O 78 34 0 
O 14 54 0 
7
Atoms. Timestep: 1587
N 62 96 0 
N 98 1 0 
N 84 33 0 
N 27 84 0 
N 17 54 0 
O 77 34 0 
O 13 54 0 
7
Atoms. Timestep: 1588
N 61 96 0 
N 97 1 0 
N 83 33 0 
N 27 85 0 
N 16 54 0 
O 76 34 0 
O 12 54 0 
7
Atoms. Timestep: 1589
N 60 96 0 
N 96 1 0 
N 82 33 0 
N 27 86 0 
N 15 54 0 
O 75 34 0 
O 11 54 0 
7
Atoms. Timestep: 1590
N 59 96 0 
N 95 1 0 
N 81 33 0 
N 26 86 0 
N 14 54 0 
O 74 34 0 
O 10 54 0 
7
Atoms. Timestep: 1591
N 58 96 0 
N 94 1 0 
N 80 33 0 
N 25 86 0 
N 13 54 0 
O 73 34 0 
O 9 54 0 
7
Atoms. Timestep: 1592
N 57 96 0 
N 93 1 0 
N 79 33 0 
N 24 86 0 
N 12 54 0 
O 72 34 0 
O 8 54 0 
7
Atoms. Timestep: 1593
N 56 96 0 
N 92 1 0 
N 78 33 0 
N 23 86 0 
N 11 54 0 
O 71 34 0 
O 7 54 0 
7
Atoms. Timestep: 1594
N 55 96 0 
N 91 1 0 
N 77 33 0 
N 22 86 0 
N 10 54 0 
O 70 34 0 
O 6 54 0 
7
Atoms. Timestep: 1595
N 54 96 0 
N 90 1 0 
N 76 33 0 
N 21 86 0 
N 9 54 0 
O 69 34 0 
O 5 54 0 
7
Atoms. Timestep: 1596
N 53 96 0 
N 89 1 0 
N 75 33 0 
N 20 86 0 
N 9 53 0 
O 68 34 0 
O 4 54 0 
7
Atoms. Timestep: 1597
N 52 96 0 
N 88 1 0 
N 74 33 0 
N 19 86 0 
N 8 53 0 
O 67 34 0 
O 3 54 0 
7
Atoms. Timestep: 1598
N 51 96 0 
N 87 1 0 
N 73 33 0 
N 18 86 0 
N 7 53 0 
O 66 34 0 
O 2 54 0 
7
Atoms. Timestep: 1599
N 50 96 0 
N 86 1 0 
N 72 33 0 
N 17 86 0 
N 6 53 0 
O 65 34 0 
O 1 54 0 
7
Atoms. Timestep: 1600
N 49 96 0 
N 85 1 0 
N 71 33 0 
N 16 86 0 
N 5 53 0 
O 64 34 0 
O 0 54 0 
7
Atoms. Timestep: 1601
N 48 96 0 
N 84 1 0 
N 70 33 0 
N 15 86 0 
N 4 53 0 
O 63 34 0 
O 99 54 0 
7
Atoms. Timestep: 1602
N 47 96 0 
N 83 1 0 
N 69 33 0 
N 14 86 0 
N 3 53 0 
O 62 34 0 
O 98 54 0 
7
Atoms. Timestep: 1603
N 46 96 0 
N 82 1 0 
N 68 33 0 
N 13 86 0 
N 2 53 0 
O 61 34 0 
O 97 54 0 
7
Atoms. Timestep: 1604
N 45 96 0 
N 81 1 0 
N 67 33 0 
N 12 86 0 
N 1 53 0 
O 60 34 0 
O 96 54 0 
7
Atoms. Timestep: 1605
N 44 96 0 
N 80 1 0 
N 66 33 0 
N 11 86 0 
N 0 53 0 
O 59 34 0 
O 95 54 0 
7
Atoms. Timestep: 1606
N 43 96 0 
N 79 1 0 
N 65 33 0 
N 10 86 0 
N 99 53 0 
O 58 34 0 
O 94 54 0 
7
Atoms. Timestep: 1607
N 42 96 0 
N 78 1 0 
N 66 33 0 
N 9 86 0 
N 98 53 0 
O 57 34 0 
O 93 54 0 
7
Atoms. Timestep: 1608
N 41 96 0 
N 77 1 0 
N 65 33 0 
N 8 86 0 
N 97 53 0 
O 56 34 0 
O 92 54 0 
7
Atoms. Timestep: 1609
N 40 96 0 
N 76 1 0 
N 64 33 0 
N 7 86 0 
N 96 53 0 
O 55 34 0 
O 91 54 0 
7
Atoms. Timestep: 1610
N 39 96 0 
N 75 1 0 
N 63 33 0 
N 6 86 0 
N 95 53 0 
O 54 34 0 
O 90 54 0 
7
Atoms. Timestep: 1611
N 38 96 0 
N 74 1 0 
N 62 33 0 
N 5 86 0 
N 94 53 0 
O 53 34 0 
O 89 54 0 
7
Atoms. Timestep: 1612
N 37 96 0 
N 73 1 0 
N 61 33 0 
N 4 86 0 
N 93 53 0 
O 52 34 0 
O 88 54 0 
7
Atoms. Timestep: 1613
N 36 96 0 
N 72 1 0 
N 60 33 0 
N 3 86 0 
N 92 53 0 
O 51 34 0 
O 87 54 0 
7
Atoms. Timestep: 1614
N 35 96 0 
N 71 1 0 
N 59 33 0 
N 2 86 0 
N 91 53 0 
O 50 34 0 
O 86 54 0 
7
Atoms. Timestep: 1615
N 34 96 0 
N 70 1 0 
N 58 33 0 
N 1 86 0 
N 90 53 0 
O 49 34 0 
O 85 54 0 
7
Atoms. Timestep: 1616
N 33 96 0 
N 69 1 0 
N 57 33 0 
N 0 86 0 
N 89 53 0 
O 48 34 0 
O 84 54 0 
7
Atoms. Timestep: 1617
N 32 96 0 
N 68 1 0 
N 56 33 0 
N 99 86 0 
N 88 53 0 
O 47 34 0 
O 83 54 0 
7
Atoms. Timestep: 1618
N 31 96 0 
N 67 1 0 
N 55 33 0 
N 98 86 0 
N 87 53 0 
O 46 34 0 
O 82 54 0 
7
Atoms. Timestep: 1619
N 30 96 0 
N 66 1 0 
N 54 33 0 
N 97 86 0 
N 86 53 0 
O 45 34 0 
O 81 54 0 
7
Atoms. Timestep: 1620
N 29 96 0 
N 65 1 0 
N 53 33 0 
N 96 86 0 
N 85 53 0 
O 44 34 0 
O 80 54 0 
7
Atoms. Timestep: 1621
N 28 96 0 
N 64 1 0 
N 52 33 0 
N 95 86 0 
N 84 53 0 
O 43 34 0 
O 79 54 0 
7
Atoms. Timestep: 1622
N 27 96 0 
N 63 1 0 
N 51 33 0 
N 94 86 0 
N 83 53 0 
O 42 34 0 
O 78 54 0 
7
Atoms. Timestep: 1623
N 26 96 0 
N 62 1 0 
N 50 33 0 
N 93 86 0 
N 82 53 0 
O 41 34 0 
O 77 54 0 
7
Atoms. Timestep: 1624
N 25 96 0 
N 61 1 0 
N 49 33 0 
N 92 86 0 
N 81 53 0 
O 40 34 0 
O 76 54 0 
7
Atoms. Timestep: 1625
N 24 96 0 
N 60 1 0 
N 48 33 0 
N 91 86 0 
N 80 53 0 
O 39 34 0 
O 75 54 0 
7
Atoms. Timestep: 1626
N 23 96 0 
N 59 1 0 
N 47 33 0 
N 90 86 0 
N 79 53 0 
O 38 34 0 
O 74 54 0 
7
Atoms. Timestep: 1627
N 22 96 0 
N 58 1 0 
N 46 33 0 
N 89 86 0 
N 78 53 0 
O 37 34 0 
O 73 54 0 
7
Atoms. Timestep: 1628
N 21 96 0 
N 57 1 0 
N 45 33 0 
N 88 86 0 
N 77 53 0 
O 36 34 0 
O 72 54 0 
7
Atoms. Timestep: 1629
N 20 96 0 
N 56 1 0 
N 44 33 0 
N 87 86 0 
N 76 53 0 
O 35 34 0 
O 71 54 0 
7
Atoms. Timestep: 1630
N 19 96 0 
N 55 1 0 
N 43 33 0 
N 86 86 0 
N 75 53 0 
O 34 34 0 
O 70 54 0 
7
Atoms. Timestep: 1631
N 18 96 0 
N 54 1 0 
N 42 33 0 
N 85 86 0 
N 74 53 0 
O 33 34 0 
O 69 54 0 
7
Atoms. Timestep: 1632
N 17 96 0 
N 53 1 0 
N 41 33 0 
N 84 86 0 
N 73 53 0 
O 32 34 0 
O 68 54 0 
7
Atoms. Timestep: 1633
N 16 96 0 
N 52 1 0 
N 40 33 0 
N 83 86 0 
N 72 53 0 
O 31 34 0 
O 67 54 0 
7
Atoms. Timestep: 1634
N 15 96 0 
N 51 1 0 
N 39 33 0 
N 82 86 0 
N 71 53 0 
O 30 34 0 
O 66 54 0 
7
Atoms. Timestep: 1635
N 14 96 0 
N 50 1 0 
N 38 33 0 
N 81 86 0 
N 70 53 0 
O 29 34 0 
O 65 54 0 
7
Atoms. Timestep: 1636
N 13 96 0 
N 49 1 0 
N 37 33 0 
N 80 86 0 
N 69 53 0 
O 28 34 0 
O 64 54 0 
7
Atoms. Timestep: 1637
N 12 96 0 
N 48 1 0 
N 36 33 0 
N 79 86 0 
N 68 53 0 
O 27 34 0 
O 63 54 0 
7
Atoms. Timestep: 1638
N 11 96 0 
N 47 1 0 
N 35 33 0 
N 78 86 0 
N 67 53 0 
O 26 34 0 
O 62 54 0 
7
Atoms. Timestep: 1639
N 10 96 0 
N 46 1 0 
N 34 33 0 
N 77 86 0 
N 66 53 0 
O 25 34 0 
O 61 54 0 
7
Atoms. Timestep: 1640
N 9 96 0 
N 45 1 0 
N 33 33 0 
N 76 86 0 
N 65 53 0 
O 24 34 0 
O 60 54 0 
7
Atoms. Timestep: 1641
N 8 96 0 
N 44 1 0 
N 32 33 0 
N 75 86 0 
N 64 53 0 
O 23 34 0 
O 59 54 0 
7
Atoms. Timestep: 1642
N 7 96 0 
N 43 1 0 
N 31 33 0 
N 74 86 0 
N 63 53 0 
O 22 34 0 
O 58 54 0 
7
Atoms. Timestep: 1643
N 6 96 0 
N 42 1 0 
N 30 33 0 
N 73 86 0 
N 62 53 0 
O 21 34 0 
O 57 54 0 
7
Atoms. Timestep: 1644
N 5 96 0 
N 41 1 0 
N 29 33 0 
N 72 86 0 
N 61 53 0 
O 20 34 0 
O 56 54 0 
7
Atoms. Timestep: 1645
N 6 96 0 
N 41 0 0 
N 28 33 0 
N 71 86 0 
N 60 53 0 
O 19 34 0 
O 55 54 0 
7
Atoms. Timestep: 1646
N 5 96 0 
N 40 0 0 
N 27 33 0 
N 72 86 0 
N 59 53 0 
O 18 34 0 
O 54 54 0 
7
Atoms. Timestep: 1647
N 4 96 0 
N 39 0 0 
N 26 33 0 
N 71 86 0 
N 58 53 0 
O 17 34 0 
O 53 54 0 
7
Atoms. Timestep: 1648
N 3 96 0 
N 38 0 0 
N 25 33 0 
N 70 86 0 
N 57 53 0 
O 16 34 0 
O 52 54 0 
7
Atoms. Timestep: 1649
N 2 96 0 
N 37 0 0 
N 24 33 0 
N 69 86 0 
N 56 53 0 
O 15 34 0 
O 51 54 0 
7
Atoms. Timestep: 1650
N 1 96 0 
N 36 0 0 
N 23 33 0 
N 68 86 0 
N 55 53 0 
O 14 34 0 
O 50 54 0 
7
Atoms. Timestep: 1651
N 0 96 0 
N 35 0 0 
N 22 33 0 
N 67 86 0 
N 54 53 0 
O 13 34 0 
O 49 54 0 
7
Atoms. Timestep: 1652
N 99 96 0 
N 34 0 0 
N 21 33 0 
N 66 86 0 
N 53 53 0 
O 12 34 0 
O 48 54 0 
7
Atoms. Timestep: 1653
N 98 96 0 
N 33 0 0 
N 20 33 0 
N 65 86 0 
N 52 53 0 
O 11 34 0 
O 47 54 0 
7
Atoms. Timestep: 1654
N 97 96 0 
N 32 0 0 
N 19 33 0 
N 64 86 0 
N 51 53 0 
O 10 34 0 
O 46 54 0 
7
Atoms. Timestep: 1655
N 96 96 0 
N 31 0 0 
N 18 33 0 
N 63 86 0 
N 50 53 0 
O 9 34 0 
O 45 54 0 
7
Atoms. Timestep: 1656
N 95 96 0 
N 30 0 0 
N 17 33 0 
N 62 86 0 
N 49 53 0 
O 8 34 0 
O 44 54 0 
7
Atoms. Timestep: 1657
N 94 96 0 
N 29 0 0 
N 16 33 0 
N 61 86 0 
N 48 53 0 
O 7 34 0 
O 43 54 0 
7
Atoms. Timestep: 1658
N 93 96 0 
N 28 0 0 
N 15 33 0 
N 60 86 0 
N 47 53 0 
O 6 34 0 
O 42 54 0 
7
Atoms. Timestep: 1659
N 92 96 0 
N 27 0 0 
N 14 33 0 
N 59 86 0 
N 47 54 0 
O 5 34 0 
O 41 54 0 
7
Atoms. Timestep: 1660
N 91 96 0 
N 26 0 0 
N 13 33 0 
N 58 86 0 
N 46 54 0 
O 4 34 0 
O 40 54 0 
7
Atoms. Timestep: 1661
N 90 96 0 
N 25 0 0 
N 12 33 0 
N 57 86 0 
N 45 54 0 
O 3 34 0 
O 39 54 0 
7
Atoms. Timestep: 1662
N 89 96 0 
N 24 0 0 
N 11 33 0 
N 56 86 0 
N 44 54 0 
O 2 34 0 
O 38 54 0 
7
Atoms. Timestep: 1663
N 88 96 0 
N 23 0 0 
N 10 33 0 
N 55 86 0 
N 43 54 0 
O 1 34 0 
O 37 54 0 
7
Atoms. Timestep: 1664
N 87 96 0 
N 22 0 0 
N 9 33 0 
N 54 86 0 
N 42 54 0 
O 0 34 0 
O 36 54 0 
7
Atoms. Timestep: 1665
N 86 96 0 
N 21 0 0 
N 8 33 0 
N 53 86 0 
N 41 54 0 
O 99 34 0 
O 35 54 0 
7
Atoms. Timestep: 1666
N 85 96 0 
N 20 0 0 
N 7 33 0 
N 52 86 0 
N 40 54 0 
O 98 34 0 
O 34 54 0 
7
Atoms. Timestep: 1667
N 84 96 0 
N 19 0 0 
N 6 33 0 
N 51 86 0 
N 39 54 0 
O 97 34 0 
O 33 54 0 
7
Atoms. Timestep: 1668
N 83 96 0 
N 18 0 0 
N 5 33 0 
N 50 86 0 
N 38 54 0 
O 96 34 0 
O 32 54 0 
7
Atoms. Timestep: 1669
N 82 96 0 
N 17 0 0 
N 4 33 0 
N 49 86 0 
N 37 54 0 
O 95 34 0 
O 31 54 0 
7
Atoms. Timestep: 1670
N 81 96 0 
N 16 0 0 
N 3 33 0 
N 48 86 0 
N 36 54 0 
O 94 34 0 
O 30 54 0 
7
Atoms. Timestep: 1671
N 80 96 0 
N 15 0 0 
N 2 33 0 
N 47 86 0 
N 35 54 0 
O 93 34 0 
O 29 54 0 
7
Atoms. Timestep: 1672
N 79 96 0 
N 14 0 0 
N 1 33 0 
N 46 86 0 
N 34 54 0 
O 92 34 0 
O 28 54 0 
7
Atoms. Timestep: 1673
N 78 96 0 
N 13 0 0 
N 0 33 0 
N 45 86 0 
N 33 54 0 
O 91 34 0 
O 27 54 0 
7
Atoms. Timestep: 1674
N 77 96 0 
N 12 0 0 
N 99 33 0 
N 44 86 0 
N 32 54 0 
O 90 34 0 
O 26 54 0 
7
Atoms. Timestep: 1675
N 76 96 0 
N 11 0 0 
N 98 33 0 
N 43 86 0 
N 31 54 0 
O 89 34 0 
O 25 54 0 
7
Atoms. Timestep: 1676
N 75 96 0 
N 10 0 0 
N 97 33 0 
N 42 86 0 
N 30 54 0 
O 88 34 0 
O 24 54 0 
7
Atoms. Timestep: 1677
N 74 96 0 
N 9 0 0 
N 96 33 0 
N 41 86 0 
N 29 54 0 
O 87 34 0 
O 23 54 0 
7
Atoms. Timestep: 1678
N 73 96 0 
N 8 0 0 
N 95 33 0 
N 40 86 0 
N 28 54 0 
O 86 34 0 
O 22 54 0 
7
Atoms. Timestep: 1679
N 72 96 0 
N 7 0 0 
N 94 33 0 
N 39 86 0 
N 27 54 0 
O 85 34 0 
O 21 54 0 
7
Atoms. Timestep: 1680
N 71 96 0 
N 6 0 0 
N 93 33 0 
N 38 86 0 
N 26 54 0 
O 84 34 0 
O 20 54 0 
7
Atoms. Timestep: 1681
N 70 96 0 
N 5 0 0 
N 92 33 0 
N 37 86 0 
N 25 54 0 
O 83 34 0 
O 19 54 0 
7
Atoms. Timestep: 1682
N 69 96 0 
N 4 0 0 
N 91 33 0 
N 36 86 0 
N 24 54 0 
O 82 34 0 
O 18 54 0 
7
Atoms. Timestep: 1683
N 68 96 0 
N 3 0 0 
N 90 33 0 
N 35 86 0 
N 23 54 0 
O 81 34 0 
O 17 54 0 
7
Atoms. Timestep: 1684
N 67 96 0 
N 2 0 0 
N 89 33 0 
N 34 86 0 
N 22 54 0 
O 80 34 0 
O 16 54 0 
7
Atoms. Timestep: 1685
N 66 96 0 
N 1 0 0 
N 88 33 0 
N 33 86 0 
N 21 54 0 
O 79 34 0 
O 15 54 0 
7
Atoms. Timestep: 1686
N 65 96 0 
N 0 0 0 
N 87 33 0 
N 32 86 0 
N 20 54 0 
O 78 34 0 
O 14 54 0 
7
Atoms. Timestep: 1687
N 64 96 0 
N 0 99 0 
N 86 33 0 
N 31 86 0 
N 19 54 0 
O 77 34 0 
O 13 54 0 
7
Atoms. Timestep: 1688
N 65 96 0 
N 99 99 0 
N 85 33 0 
N 32 86 0 
N 18 54 0 
O 76 34 0 
O 12 54 0 
7
Atoms. Timestep: 1689
N 64 96 0 
N 0 99 0 
N 84 33 0 
N 31 86 0 
N 17 54 0 
O 75 34 0 
O 11 54 0 
7
Atoms. Timestep: 1690
N 65 96 0 
N 99 99 0 
N 83 33 0 
N 32 86 0 
N 16 54 0 
O 74 34 0 
O 10 54 0 
7
Atoms. Timestep: 1691
N 64 96 0 
N 0 99 0 
N 82 33 0 
N 31 86 0 
N 15 54 0 
O 73 34 0 
O 9 54 0 
7
Atoms. Timestep: 1692
N 65 96 0 
N 99 99 0 
N 81 33 0 
N 32 86 0 
N 14 54 0 
O 72 34 0 
O 8 54 0 
7
Atoms. Timestep: 1693
N 64 96 0 
N 0 99 0 
N 80 33 0 
N 31 86 0 
N 13 54 0 
O 71 34 0 
O 7 54 0 
7
Atoms. Timestep: 1694
N 65 96 0 
N 99 99 0 
N 79 33 0 
N 32 86 0 
N 12 54 0 
O 70 34 0 
O 6 54 0 
7
Atoms. Timestep: 1695
N 64 96 0 
N 0 99 0 
N 78 33 0 
N 31 86 0 
N 11 54 0 
O 69 34 0 
O 5 54 0 
7
Atoms. Timestep: 1696
N 65 96 0 
N 99 99 0 
N 77 33 0 
N 32 86 0 
N 10 54 0 
O 68 34 0 
O 4 54 0 
7
Atoms. Timestep: 1697
N 64 96 0 
N 0 99 0 
N 76 33 0 
N 31 86 0 
N 9 54 0 
O 67 34 0 
O 3 54 0 
7
Atoms. Timestep: 1698
N 65 96 0 
N 99 99 0 
N 75 33 0 
N 32 86 0 
N 8 54 0 
O 66 34 0 
O 2 54 0 
7
Atoms. Timestep: 1699
N 64 96 0 
N 0 99 0 
N 74 33 0 
N 31 86 0 
N 7 54 0 
O 65 34 0 
O 1 54 0 
7
Atoms. Timestep: 1700
N 65 96 0 
N 99 99 0 
N 73 33 0 
N 32 86 0 
N 6 54 0 
O 64 34 0 
O 0 54 0 
7
Atoms. Timestep: 1701
N 64 96 0 
N 0 99 0 
N 72 33 0 
N 31 86 0 
N 5 54 0 
O 63 34 0 
O 99 54 0 
7
Atoms. Timestep: 1702
N 65 96 0 
N 99 99 0 
N 71 33 0 
N 32 86 0 
N 4 54 0 
O 62 34 0 
O 98 54 0 
7
Atoms. Timestep: 1703
N 64 96 0 
N 0 99 0 
N 70 33 0 
N 31 86 0 
N 3 54 0 
O 61 34 0 
O 97 54 0 
7
Atoms. Timestep: 1704
N 65 96 0 
N 99 99 0 
N 69 33 0 
N 32 86 0 
N 2 54 0 
O 60 34 0 
O 96 54 0 
7
Atoms. Timestep: 1705
N 64 96 0 
N 0 99 0 
N 68 33 0 
N 31 86 0 
N 1 54 0 
O 59 34 0 
O 95 54 0 
7
Atoms. Timestep: 1706
N 65 96 0 
N 99 99 0 
N 67 33 0 
N 32 86 0 
N 0 54 0 
O 58 34 0 
O 94 54 0 
7
Atoms. Timestep: 1707
N 64 96 0 
N 0 99 0 
N 66 33 0 
N 31 86 0 
N 99 54 0 
O 57 34 0 
O 93 54 0 
7
Atoms. Timestep: 1708
N 65 96 0 
N 99 99 0 
N 65 33 0 
N 32 86 0 
N 98 54 0 
O 56 34 0 
O 92 54 0 
7
Atoms. Timestep: 1709
N 64 96 0 
N 0 99 0 
N 64 33 0 
N 31 86 0 
N 97 54 0 
O 55 34 0 
O 91 54 0 
7
Atoms. Timestep: 1710
N 65 96 0 
N 99 99 0 
N 63 33 0 
N 32 86 0 
N 96 54 0 
O 54 34 0 
O 90 54 0 
7
Atoms. Timestep: 1711
N 64 96 0 
N 0 99 0 
N 62 33 0 
N 31 86 0 
N 95 54 0 
O 53 34 0 
O 89 54 0 
7
Atoms. Timestep: 1712
N 65 96 0 
N 99 99 0 
N 61 33 0 
N 32 86 0 
N 94 54 0 
O 52 34 0 
O 88 54 0 
7
Atoms. Timestep: 1713
N 64 96 0 
N 0 99 0 
N 60 33 0 
N 31 86 0 
N 93 54 0 
O 51 34 0 
O 87 54 0 
7
Atoms. Timestep: 1714
N 65 96 0 
N 99 99 0 
N 59 33 0 
N 32 86 0 
N 92 54 0 
O 50 34 0 
O 86 54 0 
7
Atoms. Timestep: 1715
N 64 96 0 
N 0 99 0 
N 58 33 0 
N 31 86 0 
N 91 54 0 
O 49 34 0 
O 85 54 0 
7
Atoms. Timestep: 1716
N 65 96 0 
N 99 99 0 
N 57 33 0 
N 32 86 0 
N 90 54 0 
O 48 34 0 
O 84 54 0 
7
Atoms. Timestep: 1717
N 64 96 0 
N 0 99 0 
N 56 33 0 
N 31 86 0 
N 89 54 0 
O 47 34 0 
O 83 54 0 
7
Atoms. Timestep: 1718
N 65 96 0 
N 99 99 0 
N 55 33 0 
N 32 86 0 
N 88 54 0 
O 46 34 0 
O 82 54 0 
7
Atoms. Timestep: 1719
N 64 96 0 
N 0 99 0 
N 54 33 0 
N 31 86 0 
N 87 54 0 
O 45 34 0 
O 81 54 0 
7
Atoms. Timestep: 1720
N 65 96 0 
N 99 99 0 
N 53 33 0 
N 32 86 0 
N 86 54 0 
O 44 34 0 
O 80 54 0 
7
Atoms. Timestep: 1721
N 64 96 0 
N 0 99 0 
N 52 33 0 
N 31 86 0 
N 85 54 0 
O 43 34 0 
O 79 54 0 
7
Atoms. Timestep: 1722
N 65 96 0 
N 99 99 0 
N 51 33 0 
N 32 86 0 
N 84 54 0 
O 42 34 0 
O 78 54 0 
7
Atoms. Timestep: 1723
N 64 96 0 
N 0 99 0 
N 50 33 0 
N 31 86 0 
N 83 54 0 
O 41 34 0 
O 77 54 0 
7
Atoms. Timestep: 1724
N 65 96 0 
N 99 99 0 
N 49 33 0 
N 32 86 0 
N 82 54 0 
O 40 34 0 
O 76 54 0 
7
Atoms. Timestep: 1725
N 64 96 0 
N 0 99 0 
N 48 33 0 
N 31 86 0 
N 81 54 0 
O 39 34 0 
O 75 54 0 
7
Atoms. Timestep: 1726
N 65 96 0 
N 99 99 0 
N 47 33 0 
N 32 86 0 
N 80 54 0 
O 38 34 0 
O 74 54 0 
7
Atoms. Timestep: 1727
N 64 96 0 
N 0 99 0 
N 46 33 0 
N 31 86 0 
N 79 54 0 
O 37 34 0 
O 73 54 0 
7
Atoms. Timestep: 1728
N 65 96 0 
N 99 99 0 
N 45 33 0 
N 32 86 0 
N 78 54 0 
O 36 34 0 
O 72 54 0 
7
Atoms. Timestep: 1729
N 64 96 0 
N 0 99 0 
N 44 33 0 
N 31 86 0 
N 77 54 0 
O 35 34 0 
O 71 54 0 
7
Atoms. Timestep: 1730
N 65 96 0 
N 99 99 0 
N 43 33 0 
N 32 86 0 
N 76 54 0 
O 34 34 0 
O 70 54 0 
7
Atoms. Timestep: 1731
N 64 96 0 
N 0 99 0 
N 42 33 0 
N 31 86 0 
N 75 54 0 
O 33 34 0 
O 69 54 0 
7
Atoms. Timestep: 1732
N 65 96 0 
N 99 99 0 
N 41 33 0 
N 32 86 0 
N 74 54 0 
O 32 34 0 
O 68 54 0 
7
Atoms. Timestep: 1733
N 64 96 0 
N 0 99 0 
N 40 33 0 
N 31 86 0 
N 73 54 0 
O 31 34 0 
O 67 54 0 
7
Atoms. Timestep: 1734
N 65 96 0 
N 99 99 0 
N 39 33 0 
N 32 86 0 
N 72 54 0 
O 30 34 0 
O 66 54 0 
7
Atoms. Timestep: 1735
N 64 96 0 
N 0 99 0 
N 38 33 0 
N 31 86 0 
N 71 54 0 
O 29 34 0 
O 65 54 0 
7
Atoms. Timestep: 1736
N 65 96 0 
N 99 99 0 
N 37 33 0 
N 32 86 0 
N 70 54 0 
O 28 34 0 
O 64 54 0 
7
Atoms. Timestep: 1737
N 64 96 0 
N 0 99 0 
N 36 33 0 
N 31 86 0 
N 69 54 0 
O 27 34 0 
O 63 54 0 
7
Atoms. Timestep: 1738
N 65 96 0 
N 99 99 0 
N 35 33 0 
N 32 86 0 
N 68 54 0 
O 26 34 0 
O 62 54 0 
7
Atoms. Timestep: 1739
N 64 96 0 
N 0 99 0 
N 34 33 0 
N 31 86 0 
N 67 54 0 
O 25 34 0 
O 61 54 0 
7
Atoms. Timestep: 1740
N 65 96 0 
N 99 99 0 
N 33 33 0 
N 32 86 0 
N 66 54 0 
O 24 34 0 
O 60 54 0 
7
Atoms. Timestep: 1741
N 64 96 0 
N 0 99 0 
N 32 33 0 
N 31 86 0 
N 65 54 0 
O 23 34 0 
O 59 54 0 
7
Atoms. Timestep: 1742
N 65 96 0 
N 99 99 0 
N 32 34 0 
N 32 86 0 
N 65 55 0 
O 22 34 0 
O 58 54 0 
7
Atoms. Timestep: 1743
N 64 96 0 
N 0 99 0 
N 31 34 0 
N 31 86 0 
N 64 55 0 
O 21 34 0 
O 57 54 0 
7
Atoms. Timestep: 1744
N 65 96 0 
N 99 99 0 
N 30 34 0 
N 32 86 0 
N 63 55 0 
O 20 34 0 
O 56 54 0 
7
Atoms. Timestep: 1745
N 66 96 0 
N 0 99 0 
N 29 34 0 
N 32 85 0 
N 62 55 0 
O 19 34 0 
O 55 54 0 
7
Atoms. Timestep: 1746
N 67 96 0 
N 1 99 0 
N 28 34 0 
N 33 85 0 
N 61 55 0 
O 18 34 0 
O 54 54 0 
7
Atoms. Timestep: 1747
N 68 96 0 
N 2 99 0 
N 27 34 0 
N 34 85 0 
N 60 55 0 
O 17 34 0 
O 53 54 0 
7
Atoms. Timestep: 1748
N 69 96 0 
N 3 99 0 
N 26 34 0 
N 35 85 0 
N 59 55 0 
O 16 34 0 
O 52 54 0 
7
Atoms. Timestep: 1749
N 70 96 0 
N 4 99 0 
N 25 34 0 
N 36 85 0 
N 58 55 0 
O 15 34 0 
O 51 54 0 
7
Atoms. Timestep: 1750
N 71 96 0 
N 5 99 0 
N 24 34 0 
N 37 85 0 
N 57 55 0 
O 14 34 0 
O 50 54 0 
7
Atoms. Timestep: 1751
N 70 96 0 
N 6 99 0 
N 23 34 0 
N 37 84 0 
N 56 55 0 
O 13 34 0 
O 49 54 0 
7
Atoms. Timestep: 1752
N 69 96 0 
N 5 99 0 
N 22 34 0 
N 37 83 0 
N 55 55 0 
O 12 34 0 
O 48 54 0 
7
Atoms. Timestep: 1753
N 70 96 0 
N 5 0 0 
N 21 34 0 
N 37 82 0 
N 54 55 0 
O 11 34 0 
O 47 54 0 
7
Atoms. Timestep: 1754
N 69 96 0 
N 5 1 0 
N 20 34 0 
N 37 81 0 
N 53 55 0 
O 10 34 0 
O 46 54 0 
7
Atoms. Timestep: 1755
N 70 96 0 
N 5 2 0 
N 19 34 0 
N 37 80 0 
N 52 55 0 
O 9 34 0 
O 45 54 0 
7
Atoms. Timestep: 1756
N 69 96 0 
N 5 3 0 
N 18 34 0 
N 37 79 0 
N 51 55 0 
O 8 34 0 
O 44 54 0 
7
Atoms. Timestep: 1757
N 68 96 0 
N 5 4 0 
N 17 34 0 
N 37 78 0 
N 50 55 0 
O 7 34 0 
O 43 54 0 
7
Atoms. Timestep: 1758
N 69 96 0 
N 5 5 0 
N 16 34 0 
N 37 77 0 
N 49 55 0 
O 6 34 0 
O 42 54 0 
7
Atoms. Timestep: 1759
N 68 96 0 
N 5 6 0 
N 15 34 0 
N 37 76 0 
N 48 55 0 
O 5 34 0 
O 41 54 0 
7
Atoms. Timestep: 1760
N 69 96 0 
N 5 7 0 
N 14 34 0 
N 37 75 0 
N 47 55 0 
O 4 34 0 
O 40 54 0 
7
Atoms. Timestep: 1761
N 68 96 0 
N 5 8 0 
N 13 34 0 
N 37 76 0 
N 46 55 0 
O 3 34 0 
O 39 54 0 
7
Atoms. Timestep: 1762
N 69 96 0 
N 5 7 0 
N 12 34 0 
N 37 77 0 
N 45 55 0 
O 2 34 0 
O 38 54 0 
7
Atoms. Timestep: 1763
N 70 96 0 
N 5 6 0 
N 11 34 0 
N 37 78 0 
N 44 55 0 
O 1 34 0 
O 37 54 0 
7
Atoms. Timestep: 1764
N 69 96 0 
N 5 5 0 
N 10 34 0 
N 37 79 0 
N 43 55 0 
O 0 34 0 
O 36 54 0 
7
Atoms. Timestep: 1765
N 70 96 0 
N 5 4 0 
N 9 34 0 
N 37 80 0 
N 42 55 0 
O 99 34 0 
O 35 54 0 
7
Atoms. Timestep: 1766
N 69 96 0 
N 5 3 0 
N 8 34 0 
N 37 81 0 
N 41 55 0 
O 98 34 0 
O 34 54 0 
7
Atoms. Timestep: 1767
N 70 96 0 
N 5 2 0 
N 7 34 0 
N 37 82 0 
N 40 55 0 
O 97 34 0 
O 33 54 0 
7
Atoms. Timestep: 1768
N 69 96 0 
N 5 1 0 
N 6 34 0 
N 37 83 0 
N 39 55 0 
O 96 34 0 
O 32 54 0 
7
Atoms. Timestep: 1769
N 70 96 0 
N 5 0 0 
N 5 34 0 
N 37 84 0 
N 38 55 0 
O 95 34 0 
O 31 54 0 
7
Atoms. Timestep: 1770
N 71 96 0 
N 5 99 0 
N 5 33 0 
N 37 85 0 
N 37 55 0 
O 94 34 0 
O 30 54 0 
7
Atoms. Timestep: 1771
N 70 96 0 
N 6 99 0 
N 4 33 0 
N 37 86 0 
N 36 55 0 
O 93 34 0 
O 29 54 0 
7
Atoms. Timestep: 1772
N 71 96 0 
N 5 99 0 
N 3 33 0 
N 37 87 0 
N 35 55 0 
O 92 34 0 
O 28 54 0 
7
Atoms. Timestep: 1773
N 70 96 0 
N 4 99 0 
N 2 33 0 
N 37 88 0 
N 34 55 0 
O 91 34 0 
O 27 54 0 
7
Atoms. Timestep: 1774
N 69 96 0 
N 3 99 0 
N 1 33 0 
N 36 88 0 
N 33 55 0 
O 90 34 0 
O 26 54 0 
7
Atoms. Timestep: 1775
N 68 96 0 
N 2 99 0 
N 0 33 0 
N 35 88 0 
N 32 55 0 
O 89 34 0 
O 25 54 0 
7
Atoms. Timestep: 1776
N 67 96 0 
N 1 99 0 
N 99 33 0 
N 34 88 0 
N 31 55 0 
O 88 34 0 
O 24 54 0 
7
Atoms. Timestep: 1777
N 66 96 0 
N 0 99 0 
N 98 33 0 
N 33 88 0 
N 30 55 0 
O 87 34 0 
O 23 54 0 
7
Atoms. Timestep: 1778
N 65 96 0 
N 99 99 0 
N 97 33 0 
N 32 88 0 
N 29 55 0 
O 86 34 0 
O 22 54 0 
7
Atoms. Timestep: 1779
N 64 96 0 
N 98 99 0 
N 96 33 0 
N 31 88 0 
N 28 55 0 
O 85 34 0 
O 21 54 0 
7
Atoms. Timestep: 1780
N 63 96 0 
N 97 99 0 
N 95 33 0 
N 30 88 0 
N 27 55 0 
O 84 34 0 
O 20 54 0 
7
Atoms. Timestep: 1781
N 62 96 0 
N 96 99 0 
N 94 33 0 
N 29 88 0 
N 26 55 0 
O 83 34 0 
O 19 54 0 
7
Atoms. Timestep: 1782
N 61 96 0 
N 95 99 0 
N 93 33 0 
N 28 88 0 
N 25 55 0 
O 82 34 0 
O 18 54 0 
7
Atoms. Timestep: 1783
N 60 96 0 
N 94 99 0 
N 92 33 0 
N 27 88 0 
N 24 55 0 
O 81 34 0 
O 17 54 0 
7
Atoms. Timestep: 1784
N 59 96 0 
N 93 99 0 
N 91 33 0 
N 26 88 0 
N 23 55 0 
O 80 34 0 
O 16 54 0 
7
Atoms. Timestep: 1785
N 58 96 0 
N 92 99 0 
N 90 33 0 
N 25 88 0 
N 22 55 0 
O 79 34 0 
O 15 54 0 
7
Atoms. Timestep: 1786
N 57 96 0 
N 91 99 0 
N 89 33 0 
N 24 88 0 
N 21 55 0 
O 78 34 0 
O 14 54 0 
7
Atoms. Timestep: 1787
N 56 96 0 
N 90 99 0 
N 88 33 0 
N 23 88 0 
N 20 55 0 
O 77 34 0 
O 13 54 0 
7
Atoms. Timestep: 1788
N 55 96 0 
N 89 99 0 
N 87 33 0 
N 22 88 0 
N 19 55 0 
O 76 34 0 
O 12 54 0 
7
Atoms. Timestep: 1789
N 54 96 0 
N 88 99 0 
N 86 33 0 
N 21 88 0 
N 18 55 0 
O 75 34 0 
O 11 54 0 
7
Atoms. Timestep: 1790
N 53 96 0 
N 87 99 0 
N 85 33 0 
N 20 88 0 
N 17 55 0 
O 74 34 0 
O 10 54 0 
7
Atoms. Timestep: 1791
N 52 96 0 
N 86 99 0 
N 84 33 0 
N 19 88 0 
N 16 55 0 
O 73 34 0 
O 9 54 0 
7
Atoms. Timestep: 1792
N 51 96 0 
N 85 99 0 
N 83 33 0 
N 18 88 0 
N 15 55 0 
O 72 34 0 
O 8 54 0 
7
Atoms. Timestep: 1793
N 50 96 0 
N 84 99 0 
N 82 33 0 
N 17 88 0 
N 14 55 0 
O 71 34 0 
O 7 54 0 
7
Atoms. Timestep: 1794
N 49 96 0 
N 83 99 0 
N 81 33 0 
N 16 88 0 
N 13 55 0 
O 70 34 0 
O 6 54 0 
7
Atoms. Timestep: 1795
N 48 96 0 
N 82 99 0 
N 80 33 0 
N 15 88 0 
N 12 55 0 
O 69 34 0 
O 5 54 0 
7
Atoms. Timestep: 1796
N 47 96 0 
N 81 99 0 
N 79 33 0 
N 14 88 0 
N 11 55 0 
O 68 34 0 
O 4 54 0 
7
Atoms. Timestep: 1797
N 46 96 0 
N 80 99 0 
N 78 33 0 
N 13 88 0 
N 10 55 0 
O 67 34 0 
O 3 54 0 
7
Atoms. Timestep: 1798
N 47 96 0 
N 81 99 0 
N 77 33 0 
N 13 87 0 
N 9 55 0 
O 66 34 0 
O 2 54 0 
7
Atoms. Timestep: 1799
N 46 96 0 
N 80 99 0 
N 76 33 0 
N 13 88 0 
N 8 55 0 
O 65 34 0 
O 1 54 0 
7
Atoms. Timestep: 1800
N 45 96 0 
N 79 99 0 
N 75 33 0 
N 12 88 0 
N 7 55 0 
O 64 34 0 
O 0 54 0 
7
Atoms. Timestep: 1801
N 44 96 0 
N 78 99 0 
N 74 33 0 
N 11 88 0 
N 6 55 0 
O 63 34 0 
O 99 54 0 
7
Atoms. Timestep: 1802
N 43 96 0 
N 77 99 0 
N 73 33 0 
N 10 88 0 
N 5 55 0 
O 62 34 0 
O 98 54 0 
7
Atoms. Timestep: 1803
N 42 96 0 
N 76 99 0 
N 72 33 0 
N 9 88 0 
N 4 55 0 
O 61 34 0 
O 97 54 0 
7
Atoms. Timestep: 1804
N 41 96 0 
N 75 99 0 
N 71 33 0 
N 8 88 0 
N 3 55 0 
O 60 34 0 
O 96 54 0 
7
Atoms. Timestep: 1805
N 40 96 0 
N 74 99 0 
N 70 33 0 
N 7 88 0 
N 2 55 0 
O 59 34 0 
O 95 54 0 
7
Atoms. Timestep: 1806
N 39 96 0 
N 73 99 0 
N 69 33 0 
N 6 88 0 
N 1 55 0 
O 58 34 0 
O 94 54 0 
7
Atoms. Timestep: 1807
N 38 96 0 
N 72 99 0 
N 68 33 0 
N 5 88 0 
N 0 55 0 
O 57 34 0 
O 93 54 0 
7
Atoms. Timestep: 1808
N 37 96 0 
N 71 99 0 
N 67 33 0 
N 4 88 0 
N 99 55 0 
O 56 34 0 
O 92 54 0 
7
Atoms. Timestep: 1809
N 36 96 0 
N 70 99 0 
N 66 33 0 
N 3 88 0 
N 98 55 0 
O 55 34 0 
O 91 54 0 
7
Atoms. Timestep: 1810
N 35 96 0 
N 69 99 0 
N 65 33 0 
N 2 88 0 
N 97 55 0 
O 54 34 0 
O 90 54 0 
7
Atoms. Timestep: 1811
N 34 96 0 
N 68 99 0 
N 64 33 0 
N 1 88 0 
N 96 55 0 
O 53 34 0 
O 89 54 0 
7
Atoms. Timestep: 1812
N 33 96 0 
N 67 99 0 
N 63 33 0 
N 0 88 0 
N 95 55 0 
O 52 34 0 
O 88 54 0 
7
Atoms. Timestep: 1813
N 32 96 0 
N 66 99 0 
N 62 33 0 
N 99 88 0 
N 94 55 0 
O 51 34 0 
O 87 54 0 
7
Atoms. Timestep: 1814
N 31 96 0 
N 65 99 0 
N 61 33 0 
N 98 88 0 
N 93 55 0 
O 50 34 0 
O 86 54 0 
7
Atoms. Timestep: 1815
N 30 96 0 
N 64 99 0 
N 60 33 0 
N 97 88 0 
N 92 55 0 
O 49 34 0 
O 85 54 0 
7
Atoms. Timestep: 1816
N 29 96 0 
N 63 99 0 
N 59 33 0 
N 96 88 0 
N 91 55 0 
O 48 34 0 
O 84 54 0 
7
Atoms. Timestep: 1817
N 28 96 0 
N 62 99 0 
N 58 33 0 
N 95 88 0 
N 90 55 0 
O 47 34 0 
O 83 54 0 
7
Atoms. Timestep: 1818
N 27 96 0 
N 61 99 0 
N 57 33 0 
N 94 88 0 
N 89 55 0 
O 46 34 0 
O 82 54 0 
7
Atoms. Timestep: 1819
N 26 96 0 
N 60 99 0 
N 56 33 0 
N 93 88 0 
N 88 55 0 
O 45 34 0 
O 81 54 0 
7
Atoms. Timestep: 1820
N 25 96 0 
N 59 99 0 
N 56 34 0 
N 92 88 0 
N 87 55 0 
O 44 34 0 
O 80 54 0 
7
Atoms. Timestep: 1821
N 26 96 0 
N 60 99 0 
N 55 34 0 
N 93 88 0 
N 86 55 0 
O 43 34 0 
O 79 54 0 
7
Atoms. Timestep: 1822
N 25 96 0 
N 59 99 0 
N 54 34 0 
N 92 88 0 
N 85 55 0 
O 42 34 0 
O 78 54 0 
7
Atoms. Timestep: 1823
N 24 96 0 
N 58 99 0 
N 53 34 0 
N 91 88 0 
N 84 55 0 
O 41 34 0 
O 77 54 0 
7
Atoms. Timestep: 1824
N 23 96 0 
N 57 99 0 
N 52 34 0 
N 90 88 0 
N 83 55 0 
O 40 34 0 
O 76 54 0 
7
Atoms. Timestep: 1825
N 22 96 0 
N 56 99 0 
N 51 34 0 
N 89 88 0 
N 82 55 0 
O 39 34 0 
O 75 54 0 
7
Atoms. Timestep: 1826
N 21 96 0 
N 55 99 0 
N 50 34 0 
N 88 88 0 
N 81 55 0 
O 38 34 0 
O 74 54 0 
7
Atoms. Timestep: 1827
N 20 96 0 
N 54 99 0 
N 49 34 0 
N 87 88 0 
N 80 55 0 
O 37 34 0 
O 73 54 0 
7
Atoms. Timestep: 1828
N 19 96 0 
N 53 99 0 
N 48 34 0 
N 86 88 0 
N 79 55 0 
O 36 34 0 
O 72 54 0 
7
Atoms. Timestep: 1829
N 18 96 0 
N 52 99 0 
N 47 34 0 
N 85 88 0 
N 78 55 0 
O 35 34 0 
O 71 54 0 
7
Atoms. Timestep: 1830
N 17 96 0 
N 51 99 0 
N 46 34 0 
N 84 88 0 
N 77 55 0 
O 34 34 0 
O 70 54 0 
7
Atoms. Timestep: 1831
N 16 96 0 
N 50 99 0 
N 45 34 0 
N 83 88 0 
N 76 55 0 
O 33 34 0 
O 69 54 0 
7
Atoms. Timestep: 1832
N 15 96 0 
N 49 99 0 
N 44 34 0 
N 82 88 0 
N 75 55 0 
O 32 34 0 
O 68 54 0 
7
Atoms. Timestep: 1833
N 14 96 0 
N 48 99 0 
N 43 34 0 
N 81 88 0 
N 74 55 0 
O 31 34 0 
O 67 54 0 
7
Atoms. Timestep: 1834
N 13 96 0 
N 47 99 0 
N 42 34 0 
N 80 88 0 
N 73 55 0 
O 30 34 0 
O 66 54 0 
7
Atoms. Timestep: 1835
N 12 96 0 
N 46 99 0 
N 41 34 0 
N 79 88 0 
N 72 55 0 
O 29 34 0 
O 65 54 0 
7
Atoms. Timestep: 1836
N 11 96 0 
N 45 99 0 
N 40 34 0 
N 78 88 0 
N 71 55 0 
O 28 34 0 
O 64 54 0 
7
Atoms. Timestep: 1837
N 10 96 0 
N 44 99 0 
N 39 34 0 
N 77 88 0 
N 70 55 0 
O 27 34 0 
O 63 54 0 
7
Atoms. Timestep: 1838
N 9 96 0 
N 43 99 0 
N 38 34 0 
N 76 88 0 
N 69 55 0 
O 26 34 0 
O 62 54 0 
7
Atoms. Timestep: 1839
N 8 96 0 
N 42 99 0 
N 37 34 0 
N 75 88 0 
N 68 55 0 
O 25 34 0 
O 61 54 0 
7
Atoms. Timestep: 1840
N 7 96 0 
N 41 99 0 
N 36 34 0 
N 74 88 0 
N 67 55 0 
O 24 34 0 
O 60 54 0 
7
Atoms. Timestep: 1841
N 6 96 0 
N 40 99 0 
N 35 34 0 
N 73 88 0 
N 66 55 0 
O 23 34 0 
O 59 54 0 
7
Atoms. Timestep: 1842
N 5 96 0 
N 39 99 0 
N 34 34 0 
N 72 88 0 
N 65 55 0 
O 22 34 0 
O 58 54 0 
7
Atoms. Timestep: 1843
N 4 96 0 
N 38 99 0 
N 33 34 0 
N 71 88 0 
N 64 55 0 
O 21 34 0 
O 57 54 0 
7
Atoms. Timestep: 1844
N 3 96 0 
N 37 99 0 
N 32 34 0 
N 70 88 0 
N 63 55 0 
O 20 34 0 
O 56 54 0 
7
Atoms. Timestep: 1845
N 2 96 0 
N 36 99 0 
N 31 34 0 
N 69 88 0 
N 62 55 0 
O 19 34 0 
O 55 54 0 
7
Atoms. Timestep: 1846
N 1 96 0 
N 35 99 0 
N 30 34 0 
N 68 88 0 
N 61 55 0 
O 18 34 0 
O 54 54 0 
7
Atoms. Timestep: 1847
N 0 96 0 
N 34 99 0 
N 29 34 0 
N 67 88 0 
N 60 55 0 
O 17 34 0 
O 53 54 0 
7
Atoms. Timestep: 1848
N 99 96 0 
N 33 99 0 
N 28 34 0 
N 66 88 0 
N 59 55 0 
O 16 34 0 
O 52 54 0 
7
Atoms. Timestep: 1849
N 98 96 0 
N 32 99 0 
N 27 34 0 
N 65 88 0 
N 58 55 0 
O 15 34 0 
O 51 54 0 
7
Atoms. Timestep: 1850
N 97 96 0 
N 32 98 0 
N 26 34 0 
N 64 88 0 
N 57 55 0 
O 14 34 0 
O 50 54 0 
7
Atoms. Timestep: 1851
N 96 96 0 
N 31 98 0 
N 25 34 0 
N 63 88 0 
N 56 55 0 
O 13 34 0 
O 49 54 0 
7
Atoms. Timestep: 1852
N 95 96 0 
N 30 98 0 
N 24 34 0 
N 62 88 0 
N 55 55 0 
O 12 34 0 
O 48 54 0 
7
Atoms. Timestep: 1853
N 94 96 0 
N 29 98 0 
N 23 34 0 
N 61 88 0 
N 54 55 0 
O 11 34 0 
O 47 54 0 
7
Atoms. Timestep: 1854
N 95 96 0 
N 30 98 0 
N 22 34 0 
N 60 88 0 
N 53 55 0 
O 10 34 0 
O 46 54 0 
7
Atoms. Timestep: 1855
N 94 96 0 
N 29 98 0 
N 21 34 0 
N 61 88 0 
N 52 55 0 
O 9 34 0 
O 45 54 0 
7
Atoms. Timestep: 1856
N 93 96 0 
N 28 98 0 
N 20 34 0 
N 60 88 0 
N 51 55 0 
O 8 34 0 
O 44 54 0 
7
Atoms. Timestep: 1857
N 92 96 0 
N 27 98 0 
N 19 34 0 
N 59 88 0 
N 50 55 0 
O 7 34 0 
O 43 54 0 
7
Atoms. Timestep: 1858
N 91 96 0 
N 26 98 0 
N 18 34 0 
N 58 88 0 
N 49 55 0 
O 6 34 0 
O 42 54 0 
7
Atoms. Timestep: 1859
N 90 96 0 
N 25 98 0 
N 17 34 0 
N 57 88 0 
N 48 55 0 
O 5 34 0 
O 41 54 0 
7
Atoms. Timestep: 1860
N 89 96 0 
N 24 98 0 
N 16 34 0 
N 56 88 0 
N 47 55 0 
O 4 34 0 
O 40 54 0 
7
Atoms. Timestep: 1861
N 88 96 0 
N 23 98 0 
N 15 34 0 
N 55 88 0 
N 46 55 0 
O 3 34 0 
O 39 54 0 
7
Atoms. Timestep: 1862
N 87 96 0 
N 22 98 0 
N 14 34 0 
N 54 88 0 
N 45 55 0 
O 2 34 0 
O 38 54 0 
7
Atoms. Timestep: 1863
N 86 96 0 
N 21 98 0 
N 13 34 0 
N 53 88 0 
N 44 55 0 
O 1 34 0 
O 37 54 0 
7
Atoms. Timestep: 1864
N 85 96 0 
N 20 98 0 
N 12 34 0 
N 52 88 0 
N 43 55 0 
O 0 34 0 
O 36 54 0 
7
Atoms. Timestep: 1865
N 84 96 0 
N 19 98 0 
N 11 34 0 
N 51 88 0 
N 42 55 0 
O 99 34 0 
O 35 54 0 
7
Atoms. Timestep: 1866
N 83 96 0 
N 18 98 0 
N 10 34 0 
N 50 88 0 
N 41 55 0 
O 98 34 0 
O 34 54 0 
7
Atoms. Timestep: 1867
N 82 96 0 
N 17 98 0 
N 9 34 0 
N 49 88 0 
N 40 55 0 
O 97 34 0 
O 33 54 0 
7
Atoms. Timestep: 1868
N 81 96 0 
N 16 98 0 
N 8 34 0 
N 48 88 0 
N 39 55 0 
O 96 34 0 
O 32 54 0 
7
Atoms. Timestep: 1869
N 80 96 0 
N 15 98 0 
N 7 34 0 
N 47 88 0 
N 38 55 0 
O 95 34 0 
O 31 54 0 
7
Atoms. Timestep: 1870
N 79 96 0 
N 14 98 0 
N 6 34 0 
N 46 88 0 
N 37 55 0 
O 94 34 0 
O 30 54 0 
7
Atoms. Timestep: 1871
N 78 96 0 
N 13 98 0 
N 5 34 0 
N 45 88 0 
N 36 55 0 
O 93 34 0 
O 29 54 0 
7
Atoms. Timestep: 1872
N 79 96 0 
N 14 98 0 
N 4 34 0 
N 44 88 0 
N 35 55 0 
O 92 34 0 
O 28 54 0 
7
Atoms. Timestep: 1873
N 78 96 0 
N 13 98 0 
N 3 34 0 
N 45 88 0 
N 34 55 0 
O 91 34 0 
O 27 54 0 
7
Atoms. Timestep: 1874
N 77 96 0 
N 12 98 0 
N 2 34 0 
N 44 88 0 
N 33 55 0 
O 90 34 0 
O 26 54 0 
7
Atoms. Timestep: 1875
N 76 96 0 
N 11 98 0 
N 1 34 0 
N 43 88 0 
N 32 55 0 
O 89 34 0 
O 25 54 0 
7
Atoms. Timestep: 1876
N 75 96 0 
N 10 98 0 
N 0 34 0 
N 42 88 0 
N 31 55 0 
O 88 34 0 
O 24 54 0 
7
Atoms. Timestep: 1877
N 74 96 0 
N 9 98 0 
N 99 34 0 
N 41 88 0 
N 30 55 0 
O 87 34 0 
O 23 54 0 
7
Atoms. Timestep: 1878
N 73 96 0 
N 8 98 0 
N 98 34 0 
N 40 88 0 
N 29 55 0 
O 86 34 0 
O 22 54 0 
7
Atoms. Timestep: 1879
N 72 96 0 
N 7 98 0 
N 97 34 0 
N 39 88 0 
N 28 55 0 
O 85 34 0 
O 21 54 0 
7
Atoms. Timestep: 1880
N 71 96 0 
N 6 98 0 
N 96 34 0 
N 38 88 0 
N 27 55 0 
O 84 34 0 
O 20 54 0 
7
Atoms. Timestep: 1881
N 70 96 0 
N 5 98 0 
N 95 34 0 
N 37 88 0 
N 26 55 0 
O 83 34 0 
O 19 54 0 
7
Atoms. Timestep: 1882
N 69 96 0 
N 4 98 0 
N 94 34 0 
N 36 88 0 
N 25 55 0 
O 82 34 0 
O 18 54 0 
7
Atoms. Timestep: 1883
N 68 96 0 
N 3 98 0 
N 93 34 0 
N 35 88 0 
N 24 55 0 
O 81 34 0 
O 17 54 0 
7
Atoms. Timestep: 1884
N 67 96 0 
N 2 98 0 
N 92 34 0 
N 34 88 0 
N 23 55 0 
O 80 34 0 
O 16 54 0 
7
Atoms. Timestep: 1885
N 66 96 0 
N 1 98 0 
N 91 34 0 
N 33 88 0 
N 22 55 0 
O 79 34 0 
O 15 54 0 
7
Atoms. Timestep: 1886
N 65 96 0 
N 0 98 0 
N 90 34 0 
N 32 88 0 
N 21 55 0 
O 78 34 0 
O 14 54 0 
7
Atoms. Timestep: 1887
N 64 96 0 
N 99 98 0 
N 89 34 0 
N 31 88 0 
N 20 55 0 
O 77 34 0 
O 13 54 0 
7
Atoms. Timestep: 1888
N 63 96 0 
N 98 98 0 
N 88 34 0 
N 30 88 0 
N 19 55 0 
O 76 34 0 
O 12 54 0 
7
Atoms. Timestep: 1889
N 62 96 0 
N 97 98 0 
N 87 34 0 
N 29 88 0 
N 18 55 0 
O 75 34 0 
O 11 54 0 
7
Atoms. Timestep: 1890
N 61 96 0 
N 96 98 0 
N 86 34 0 
N 28 88 0 
N 17 55 0 
O 74 34 0 
O 10 54 0 
7
Atoms. Timestep: 1891
N 62 96 0 
N 96 99 0 
N 85 34 0 
N 27 88 0 
N 16 55 0 
O 73 34 0 
O 9 54 0 
7
Atoms. Timestep: 1892
N 61 96 0 
N 95 99 0 
N 84 34 0 
N 28 88 0 
N 15 55 0 
O 72 34 0 
O 8 54 0 
7
Atoms. Timestep: 1893
N 60 96 0 
N 94 99 0 
N 83 34 0 
N 27 88 0 
N 14 55 0 
O 71 34 0 
O 7 54 0 
7
Atoms. Timestep: 1894
N 59 96 0 
N 93 99 0 
N 82 34 0 
N 26 88 0 
N 13 55 0 
O 70 34 0 
O 6 54 0 
7
Atoms. Timestep: 1895
N 58 96 0 
N 92 99 0 
N 81 34 0 
N 25 88 0 
N 12 55 0 
O 69 34 0 
O 5 54 0 
7
Atoms. Timestep: 1896
N 57 96 0 
N 91 99 0 
N 80 34 0 
N 24 88 0 
N 11 55 0 
O 68 34 0 
O 4 54 0 
7
Atoms. Timestep: 1897
N 56 96 0 
N 90 99 0 
N 79 34 0 
N 23 88 0 
N 10 55 0 
O 67 34 0 
O 3 54 0 
7
Atoms. Timestep: 1898
N 55 96 0 
N 89 99 0 
N 78 34 0 
N 22 88 0 
N 9 55 0 
O 66 34 0 
O 2 54 0 
7
Atoms. Timestep: 1899
N 54 96 0 
N 88 99 0 
N 77 34 0 
N 21 88 0 
N 8 55 0 
O 65 34 0 
O 1 54 0 
7
Atoms. Timestep: 1900
N 53 96 0 
N 87 99 0 
N 76 34 0 
N 20 88 0 
N 7 55 0 
O 64 34 0 
O 0 54 0 
7
Atoms. Timestep: 1901
N 52 96 0 
N 86 99 0 
N 75 34 0 
N 19 88 0 
N 6 55 0 
O 63 34 0 
O 99 54 0 
7
Atoms. Timestep: 1902
N 51 96 0 
N 85 99 0 
N 74 34 0 
N 18 88 0 
N 5 55 0 
O 62 34 0 
O 98 54 0 
7
Atoms. Timestep: 1903
N 50 96 0 
N 84 99 0 
N 73 34 0 
N 17 88 0 
N 4 55 0 
O 61 34 0 
O 97 54 0 
7
Atoms. Timestep: 1904
N 49 96 0 
N 83 99 0 
N 72 34 0 
N 16 88 0 
N 3 55 0 
O 60 34 0 
O 96 54 0 
7
Atoms. Timestep: 1905
N 48 96 0 
N 82 99 0 
N 71 34 0 
N 15 88 0 
N 2 55 0 
O 59 34 0 
O 95 54 0 
7
Atoms. Timestep: 1906
N 47 96 0 
N 81 99 0 
N 70 34 0 
N 14 88 0 
N 1 55 0 
O 58 34 0 
O 94 54 0 
7
Atoms. Timestep: 1907
N 46 96 0 
N 80 99 0 
N 69 34 0 
N 13 88 0 
N 0 55 0 
O 57 34 0 
O 93 54 0 
7
Atoms. Timestep: 1908
N 45 96 0 
N 79 99 0 
N 68 34 0 
N 12 88 0 
N 99 55 0 
O 56 34 0 
O 92 54 0 
7
Atoms. Timestep: 1909
N 44 96 0 
N 78 99 0 
N 67 34 0 
N 11 88 0 
N 98 55 0 
O 55 34 0 
O 91 54 0 
7
Atoms. Timestep: 1910
N 43 96 0 
N 77 99 0 
N 66 34 0 
N 10 88 0 
N 97 55 0 
O 54 34 0 
O 90 54 0 
7
Atoms. Timestep: 1911
N 42 96 0 
N 76 99 0 
N 65 34 0 
N 9 88 0 
N 96 55 0 
O 53 34 0 
O 89 54 0 
7
Atoms. Timestep: 1912
N 41 96 0 
N 75 99 0 
N 64 34 0 
N 8 88 0 
N 95 55 0 
O 52 34 0 
O 88 54 0 
7
Atoms. Timestep: 1913
N 40 96 0 
N 74 99 0 
N 63 34 0 
N 7 88 0 
N 94 55 0 
O 51 34 0 
O 87 54 0 
7
Atoms. Timestep: 1914
N 39 96 0 
N 73 99 0 
N 62 34 0 
N 6 88 0 
N 93 55 0 
O 50 34 0 
O 86 54 0 
7
Atoms. Timestep: 1915
N 38 96 0 
N 72 99 0 
N 61 34 0 
N 5 88 0 
N 92 55 0 
O 49 34 0 
O 85 54 0 
7
Atoms. Timestep: 1916
N 37 96 0 
N 71 99 0 
N 60 34 0 
N 4 88 0 
N 91 55 0 
O 48 34 0 
O 84 54 0 
7
Atoms. Timestep: 1917
N 36 96 0 
N 70 99 0 
N 59 34 0 
N 3 88 0 
N 90 55 0 
O 47 34 0 
O 83 54 0 
7
Atoms. Timestep: 1918
N 35 96 0 
N 69 99 0 
N 58 34 0 
N 2 88 0 
N 89 55 0 
O 46 34 0 
O 82 54 0 
7
Atoms. Timestep: 1919
N 34 96 0 
N 68 99 0 
N 57 34 0 
N 1 88 0 
N 88 55 0 
O 45 34 0 
O 81 54 0 
7
Atoms. Timestep: 1920
N 33 96 0 
N 67 99 0 
N 56 34 0 
N 0 88 0 
N 87 55 0 
O 44 34 0 
O 80 54 0 
7
Atoms. Timestep: 1921
N 32 96 0 
N 66 99 0 
N 55 34 0 
N 99 88 0 
N 86 55 0 
O 43 34 0 
O 79 54 0 
7
Atoms. Timestep: 1922
N 31 96 0 
N 65 99 0 
N 54 34 0 
N 98 88 0 
N 85 55 0 
O 42 34 0 
O 78 54 0 
7
Atoms. Timestep: 1923
N 30 96 0 
N 64 99 0 
N 53 34 0 
N 97 88 0 
N 84 55 0 
O 41 34 0 
O 77 54 0 
7
Atoms. Timestep: 1924
N 29 96 0 
N 63 99 0 
N 52 34 0 
N 96 88 0 
N 83 55 0 
O 40 34 0 
O 76 54 0 
7
Atoms. Timestep: 1925
N 28 96 0 
N 62 99 0 
N 51 34 0 
N 95 88 0 
N 82 55 0 
O 39 34 0 
O 75 54 0 
7
Atoms. Timestep: 1926
N 27 96 0 
N 61 99 0 
N 50 34 0 
N 94 88 0 
N 81 55 0 
O 38 34 0 
O 74 54 0 
7
Atoms. Timestep: 1927
N 26 96 0 
N 60 99 0 
N 49 34 0 
N 93 88 0 
N 80 55 0 
O 37 34 0 
O 73 54 0 
7
Atoms. Timestep: 1928
N 25 96 0 
N 59 99 0 
N 48 34 0 
N 92 88 0 
N 79 55 0 
O 36 34 0 
O 72 54 0 
7
Atoms. Timestep: 1929
N 24 96 0 
N 58 99 0 
N 47 34 0 
N 91 88 0 
N 78 55 0 
O 35 34 0 
O 71 54 0 
7
Atoms. Timestep: 1930
N 23 96 0 
N 57 99 0 
N 46 34 0 
N 90 88 0 
N 77 55 0 
O 34 34 0 
O 70 54 0 
7
Atoms. Timestep: 1931
N 22 96 0 
N 56 99 0 
N 45 34 0 
N 89 88 0 
N 76 55 0 
O 33 34 0 
O 69 54 0 
7
Atoms. Timestep: 1932
N 21 96 0 
N 55 99 0 
N 44 34 0 
N 88 88 0 
N 75 55 0 
O 32 34 0 
O 68 54 0 
7
Atoms. Timestep: 1933
N 20 96 0 
N 54 99 0 
N 43 34 0 
N 87 88 0 
N 74 55 0 
O 31 34 0 
O 67 54 0 
7
Atoms. Timestep: 1934
N 19 96 0 
N 53 99 0 
N 42 34 0 
N 86 88 0 
N 73 55 0 
O 30 34 0 
O 66 54 0 
7
Atoms. Timestep: 1935
N 18 96 0 
N 52 99 0 
N 41 34 0 
N 85 88 0 
N 72 55 0 
O 29 34 0 
O 65 54 0 
7
Atoms. Timestep: 1936
N 17 96 0 
N 51 99 0 
N 40 34 0 
N 84 88 0 
N 71 55 0 
O 28 34 0 
O 64 54 0 
7
Atoms. Timestep: 1937
N 16 96 0 
N 50 99 0 
N 39 34 0 
N 83 88 0 
N 70 55 0 
O 27 34 0 
O 63 54 0 
7
Atoms. Timestep: 1938
N 15 96 0 
N 49 99 0 
N 38 34 0 
N 82 88 0 
N 69 55 0 
O 26 34 0 
O 62 54 0 
7
Atoms. Timestep: 1939
N 14 96 0 
N 48 99 0 
N 37 34 0 
N 81 88 0 
N 68 55 0 
O 25 34 0 
O 61 54 0 
7
Atoms. Timestep: 1940
N 13 96 0 
N 47 99 0 
N 36 34 0 
N 80 88 0 
N 67 55 0 
O 24 34 0 
O 60 54 0 
7
Atoms. Timestep: 1941
N 12 96 0 
N 46 99 0 
N 35 34 0 
N 79 88 0 
N 66 55 0 
O 23 34 0 
O 59 54 0 
7
Atoms. Timestep: 1942
N 11 96 0 
N 45 99 0 
N 34 34 0 
N 78 88 0 
N 65 55 0 
O 22 34 0 
O 58 54 0 
7
Atoms. Timestep: 1943
N 10 96 0 
N 44 99 0 
N 33 34 0 
N 77 88 0 
N 64 55 0 
O 21 34 0 
O 57 54 0 
7
Atoms. Timestep: 1944
N 9 96 0 
N 43 99 0 
N 32 34 0 
N 76 88 0 
N 63 55 0 
O 20 34 0 
O 56 54 0 
7
Atoms. Timestep: 1945
N 8 96 0 
N 42 99 0 
N 31 34 0 
N 75 88 0 
N 62 55 0 
O 19 34 0 
O 55 54 0 
7
Atoms. Timestep: 1946
N 7 96 0 
N 41 99 0 
N 30 34 0 
N 74 88 0 
N 61 55 0 
O 18 34 0 
O 54 54 0 
7
Atoms. Timestep: 1947
N 6 96 0 
N 40 99 0 
N 29 34 0 
N 73 88 0 
N 60 55 0 
O 17 34 0 
O 53 54 0 
7
Atoms. Timestep: 1948
N 5 96 0 
N 39 99 0 
N 28 34 0 
N 72 88 0 
N 59 55 0 
O 16 34 0 
O 52 54 0 
7
Atoms. Timestep: 1949
N 4 96 0 
N 38 99 0 
N 27 34 0 
N 71 88 0 
N 58 55 0 
O 15 34 0 
O 51 54 0 
7
Atoms. Timestep: 1950
N 3 96 0 
N 37 99 0 
N 26 34 0 
N 70 88 0 
N 57 55 0 
O 14 34 0 
O 50 54 0 
7
Atoms. Timestep: 1951
N 2 96 0 
N 36 99 0 
N 25 34 0 
N 69 88 0 
N 56 55 0 
O 13 34 0 
O 49 54 0 
7
Atoms. Timestep: 1952
N 1 96 0 
N 35 99 0 
N 24 34 0 
N 68 88 0 
N 55 55 0 
O 12 34 0 
O 48 54 0 
7
Atoms. Timestep: 1953
N 2 96 0 
N 36 99 0 
N 23 34 0 
N 69 88 0 
N 54 55 0 
O 11 34 0 
O 47 54 0 
7
Atoms. Timestep: 1954
N 1 96 0 
N 35 99 0 
N 22 34 0 
N 68 88 0 
N 53 55 0 
O 10 34 0 
O 46 54 0 
7
Atoms. Timestep: 1955
N 0 96 0 
N 34 99 0 
N 21 34 0 
N 67 88 0 
N 52 55 0 
O 9 34 0 
O 45 54 0 
7
Atoms. Timestep: 1956
N 99 96 0 
N 33 99 0 
N 20 34 0 
N 66 88 0 
N 51 55 0 
O 8 34 0 
O 44 54 0 
7
Atoms. Timestep: 1957
N 98 96 0 
N 32 99 0 
N 19 34 0 
N 65 88 0 
N 50 55 0 
O 7 34 0 
O 43 54 0 
7
Atoms. Timestep: 1958
N 97 96 0 
N 31 99 0 
N 18 34 0 
N 64 88 0 
N 49 55 0 
O 6 34 0 
O 42 54 0 
7
Atoms. Timestep: 1959
N 96 96 0 
N 30 99 0 
N 17 34 0 
N 63 88 0 
N 48 55 0 
O 5 34 0 
O 41 54 0 
7
Atoms. Timestep: 1960
N 95 96 0 
N 29 99 0 
N 16 34 0 
N 62 88 0 
N 48 56 0 
O 4 34 0 
O 40 54 0 
7
Atoms. Timestep: 1961
N 94 96 0 
N 28 99 0 
N 15 34 0 
N 61 88 0 
N 47 56 0 
O 3 34 0 
O 39 54 0 
7
Atoms. Timestep: 1962
N 95 96 0 
N 29 99 0 
N 14 34 0 
N 61 89 0 
N 46 56 0 
O 2 34 0 
O 38 54 0 
7
Atoms. Timestep: 1963
N 96 96 0 
N 30 99 0 
N 13 34 0 
N 62 89 0 
N 45 56 0 
O 1 34 0 
O 37 54 0 
7
Atoms. Timestep: 1964
N 97 96 0 
N 31 99 0 
N 12 34 0 
N 63 89 0 
N 44 56 0 
O 0 34 0 
O 36 54 0 
7
Atoms. Timestep: 1965
N 98 96 0 
N 32 99 0 
N 11 34 0 
N 64 89 0 
N 43 56 0 
O 99 34 0 
O 35 54 0 
7
Atoms. Timestep: 1966
N 99 96 0 
N 33 99 0 
N 11 33 0 
N 65 89 0 
N 42 56 0 
O 98 34 0 
O 34 54 0 
7
Atoms. Timestep: 1967
N 0 96 0 
N 34 99 0 
N 10 33 0 
N 66 89 0 
N 41 56 0 
O 97 34 0 
O 33 54 0 
7
Atoms. Timestep: 1968
N 1 96 0 
N 35 99 0 
N 9 33 0 
N 67 89 0 
N 40 56 0 
O 96 34 0 
O 32 54 0 
7
Atoms. Timestep: 1969
N 2 96 0 
N 36 99 0 
N 8 33 0 
N 68 89 0 
N 40 57 0 
O 95 34 0 
O 31 54 0 
7
Atoms. Timestep: 1970
N 3 96 0 
N 37 99 0 
N 7 33 0 
N 69 89 0 
N 39 57 0 
O 94 34 0 
O 30 54 0 
7
Atoms. Timestep: 1971
N 4 96 0 
N 38 99 0 
N 6 33 0 
N 70 89 0 
N 38 57 0 
O 93 34 0 
O 29 54 0 
7
Atoms. Timestep: 1972
N 5 96 0 
N 39 99 0 
N 5 33 0 
N 71 89 0 
N 37 57 0 
O 92 34 0 
O 28 54 0 
7
Atoms. Timestep: 1973
N 6 96 0 
N 40 99 0 
N 4 33 0 
N 72 89 0 
N 36 57 0 
O 91 34 0 
O 27 54 0 
7
Atoms. Timestep: 1974
N 7 96 0 
N 41 99 0 
N 3 33 0 
N 73 89 0 
N 35 57 0 
O 90 34 0 
O 26 54 0 
7
Atoms. Timestep: 1975
N 8 96 0 
N 42 99 0 
N 2 33 0 
N 74 89 0 
N 34 57 0 
O 89 34 0 
O 25 54 0 
7
Atoms. Timestep: 1976
N 9 96 0 
N 43 99 0 
N 1 33 0 
N 75 89 0 
N 33 57 0 
O 88 34 0 
O 24 54 0 
7
Atoms. Timestep: 1977
N 10 96 0 
N 44 99 0 
N 0 33 0 
N 76 89 0 
N 32 57 0 
O 87 34 0 
O 23 54 0 
7
Atoms. Timestep: 1978
N 11 96 0 
N 45 99 0 
N 99 33 0 
N 77 89 0 
N 31 57 0 
O 86 34 0 
O 22 54 0 
7
Atoms. Timestep: 1979
N 12 96 0 
N 46 99 0 
N 98 33 0 
N 78 89 0 
N 30 57 0 
O 85 34 0 
O 21 54 0 
7
Atoms. Timestep: 1980
N 13 96 0 
N 47 99 0 
N 99 33 0 
N 79 89 0 
N 29 57 0 
O 84 34 0 
O 20 54 0 
7
Atoms. Timestep: 1981
N 14 96 0 
N 48 99 0 
N 98 33 0 
N 80 89 0 
N 28 57 0 
O 83 34 0 
O 19 54 0 
7
Atoms. Timestep: 1982
N 15 96 0 
N 49 99 0 
N 97 33 0 
N 81 89 0 
N 27 57 0 
O 82 34 0 
O 18 54 0 
7
Atoms. Timestep: 1983
N 16 96 0 
N 50 99 0 
N 96 33 0 
N 82 89 0 
N 26 57 0 
O 81 34 0 
O 17 54 0 
7
Atoms. Timestep: 1984
N 17 96 0 
N 51 99 0 
N 95 33 0 
N 83 89 0 
N 25 57 0 
O 80 34 0 
O 16 54 0 
7
Atoms. Timestep: 1985
N 18 96 0 
N 52 99 0 
N 94 33 0 
N 84 89 0 
N 24 57 0 
O 79 34 0 
O 15 54 0 
7
Atoms. Timestep: 1986
N 19 96 0 
N 53 99 0 
N 93 33 0 
N 85 89 0 
N 23 57 0 
O 78 34 0 
O 14 54 0 
7
Atoms. Timestep: 1987
N 20 96 0 
N 54 99 0 
N 92 33 0 
N 86 89 0 
N 22 57 0 
O 77 34 0 
O 13 54 0 
7
Atoms. Timestep: 1988
N 21 96 0 
N 55 99 0 
N 91 33 0 
N 87 89 0 
N 21 57 0 
O 76 34 0 
O 12 54 0 
7
Atoms. Timestep: 1989
N 22 96 0 
N 56 99 0 
N 90 33 0 
N 88 89 0 
N 20 57 0 
O 75 34 0 
O 11 54 0 
7
Atoms. Timestep: 1990
N 23 96 0 
N 57 99 0 
N 89 33 0 
N 89 89 0 
N 19 57 0 
O 74 34 0 
O 10 54 0 
7
Atoms. Timestep: 1991
N 24 96 0 
N 58 99 0 
N 88 33 0 
N 90 89 0 
N 18 57 0 
O 73 34 0 
O 9 54 0 
7
Atoms. Timestep: 1992
N 25 96 0 
N 59 99 0 
N 87 33 0 
N 91 89 0 
N 17 57 0 
O 72 34 0 
O 8 54 0 
7
Atoms. Timestep: 1993
N 26 96 0 
N 60 99 0 
N 86 33 0 
N 92 89 0 
N 16 57 0 
O 71 34 0 
O 7 54 0 
7
Atoms. Timestep: 1994
N 27 96 0 
N 61 99 0 
N 85 33 0 
N 93 89 0 
N 15 57 0 
O 70 34 0 
O 6 54 0 
7
Atoms. Timestep: 1995
N 28 96 0 
N 62 99 0 
N 84 33 0 
N 94 89 0 
N 14 57 0 
O 69 34 0 
O 5 54 0 
7
Atoms. Timestep: 1996
N 29 96 0 
N 63 99 0 
N 83 33 0 
N 95 89 0 
N 13 57 0 
O 68 34 0 
O 4 54 0 
7
Atoms. Timestep: 1997
N 30 96 0 
N 64 99 0 
N 82 33 0 
N 96 89 0 
N 12 57 0 
O 67 34 0 
O 3 54 0 
7
Atoms. Timestep: 1998
N 31 96 0 
N 65 99 0 
N 81 33 0 
N 97 89 0 
N 11 57 0 
O 66 34 0 
O 2 54 0 
7
Atoms. Timestep: 1999
N 32 96 0 
N 66 99 0 
N 80 33 0 
N 98 89 0 
N 10 57 0 
O 65 34 0 
O 1 54 0 
7
Atoms. Timestep: 2000
N 33 96 0 
N 67 99 0 
N 79 33 0 
N 99 89 0 
N 9 57 0 
O 64 34 0 
O 0 54 0 
7
Atoms. Timestep: 2001
N 34 96 0 
N 68 99 0 
N 78 33 0 
N 0 89 0 
N 8 57 0 
O 63 34 0 
O 99 54 0 
7
Atoms. Timestep: 2002
N 33 96 0 
N 67 99 0 
N 77 33 0 
N 0 90 0 
N 7 57 0 
O 62 34 0 
O 98 54 0 
7
Atoms. Timestep: 2003
N 32 96 0 
N 66 99 0 
N 76 33 0 
N 99 90 0 
N 6 57 0 
O 61 34 0 
O 97 54 0 
7
Atoms. Timestep: 2004
N 31 96 0 
N 65 99 0 
N 75 33 0 
N 98 90 0 
N 5 57 0 
O 60 34 0 
O 96 54 0 
7
Atoms. Timestep: 2005
N 30 96 0 
N 64 99 0 
N 74 33 0 
N 97 90 0 
N 4 57 0 
O 59 34 0 
O 95 54 0 
7
Atoms. Timestep: 2006
N 29 96 0 
N 63 99 0 
N 73 33 0 
N 96 90 0 
N 3 57 0 
O 58 34 0 
O 94 54 0 
7
Atoms. Timestep: 2007
N 28 96 0 
N 62 99 0 
N 72 33 0 
N 95 90 0 
N 2 57 0 
O 57 34 0 
O 93 54 0 
7
Atoms. Timestep: 2008
N 27 96 0 
N 61 99 0 
N 71 33 0 
N 94 90 0 
N 1 57 0 
O 56 34 0 
O 92 54 0 
7
Atoms. Timestep: 2009
N 26 96 0 
N 60 99 0 
N 70 33 0 
N 93 90 0 
N 0 57 0 
O 55 34 0 
O 91 54 0 
7
Atoms. Timestep: 2010
N 25 96 0 
N 59 99 0 
N 69 33 0 
N 92 90 0 
N 99 57 0 
O 54 34 0 
O 90 54 0 
7
Atoms. Timestep: 2011
N 26 96 0 
N 58 99 0 
N 68 33 0 
N 91 90 0 
N 98 57 0 
O 53 34 0 
O 89 54 0 
7
Atoms. Timestep: 2012
N 25 96 0 
N 59 99 0 
N 67 33 0 
N 91 91 0 
N 97 57 0 
O 52 34 0 
O 88 54 0 
7
Atoms. Timestep: 2013
N 24 96 0 
N 58 99 0 
N 66 33 0 
N 92 91 0 
N 96 57 0 
O 51 34 0 
O 87 54 0 
7
Atoms. Timestep: 2014
N 23 96 0 
N 57 99 0 
N 65 33 0 
N 91 91 0 
N 95 57 0 
O 50 34 0 
O 86 54 0 
7
Atoms. Timestep: 2015
N 22 96 0 
N 56 99 0 
N 64 33 0 
N 90 91 0 
N 94 57 0 
O 49 34 0 
O 85 54 0 
7
Atoms. Timestep: 2016
N 21 96 0 
N 55 99 0 
N 63 33 0 
N 89 91 0 
N 93 57 0 
O 48 34 0 
O 84 54 0 
7
Atoms. Timestep: 2017
N 20 96 0 
N 54 99 0 
N 62 33 0 
N 88 91 0 
N 92 57 0 
O 47 34 0 
O 83 54 0 
7
Atoms. Timestep: 2018
N 19 96 0 
N 53 99 0 
N 61 33 0 
N 87 91 0 
N 91 57 0 
O 46 34 0 
O 82 54 0 
7
Atoms. Timestep: 2019
N 18 96 0 
N 52 99 0 
N 60 33 0 
N 86 91 0 
N 90 57 0 
O 45 34 0 
O 81 54 0 
7
Atoms. Timestep: 2020
N 17 96 0 
N 51 99 0 
N 59 33 0 
N 85 91 0 
N 89 57 0 
O 44 34 0 
O 80 54 0 
7
Atoms. Timestep: 2021
N 16 96 0 
N 50 99 0 
N 58 33 0 
N 84 91 0 
N 88 57 0 
O 43 34 0 
O 79 54 0 
7
Atoms. Timestep: 2022
N 15 96 0 
N 49 99 0 
N 57 33 0 
N 83 91 0 
N 87 57 0 
O 42 34 0 
O 78 54 0 
7
Atoms. Timestep: 2023
N 14 96 0 
N 48 99 0 
N 56 33 0 
N 82 91 0 
N 86 57 0 
O 41 34 0 
O 77 54 0 
7
Atoms. Timestep: 2024
N 13 96 0 
N 47 99 0 
N 55 33 0 
N 81 91 0 
N 85 57 0 
O 40 34 0 
O 76 54 0 
7
Atoms. Timestep: 2025
N 12 96 0 
N 46 99 0 
N 54 33 0 
N 80 91 0 
N 84 57 0 
O 39 34 0 
O 75 54 0 
7
Atoms. Timestep: 2026
N 11 96 0 
N 45 99 0 
N 53 33 0 
N 79 91 0 
N 83 57 0 
O 38 34 0 
O 74 54 0 
7
Atoms. Timestep: 2027
N 10 96 0 
N 44 99 0 
N 52 33 0 
N 78 91 0 
N 82 57 0 
O 37 34 0 
O 73 54 0 
7
Atoms. Timestep: 2028
N 9 96 0 
N 43 99 0 
N 51 33 0 
N 77 91 0 
N 81 57 0 
O 36 34 0 
O 72 54 0 
7
Atoms. Timestep: 2029
N 8 96 0 
N 42 99 0 
N 50 33 0 
N 76 91 0 
N 80 57 0 
O 35 34 0 
O 71 54 0 
7
Atoms. Timestep: 2030
N 7 96 0 
N 41 99 0 
N 49 33 0 
N 75 91 0 
N 79 57 0 
O 34 34 0 
O 70 54 0 
7
Atoms. Timestep: 2031
N 6 96 0 
N 40 99 0 
N 48 33 0 
N 74 91 0 
N 78 57 0 
O 33 34 0 
O 69 54 0 
7
Atoms. Timestep: 2032
N 5 96 0 
N 39 99 0 
N 47 33 0 
N 73 91 0 
N 77 57 0 
O 32 34 0 
O 68 54 0 
7
Atoms. Timestep: 2033
N 4 96 0 
N 38 99 0 
N 46 33 0 
N 72 91 0 
N 76 57 0 
O 31 34 0 
O 67 54 0 
7
Atoms. Timestep: 2034
N 3 96 0 
N 37 99 0 
N 45 33 0 
N 71 91 0 
N 75 57 0 
O 30 34 0 
O 66 54 0 
7
Atoms. Timestep: 2035
N 2 96 0 
N 36 99 0 
N 44 33 0 
N 70 91 0 
N 74 57 0 
O 29 34 0 
O 65 54 0 
7
Atoms. Timestep: 2036
N 1 96 0 
N 35 99 0 
N 43 33 0 
N 69 91 0 
N 73 57 0 
O 28 34 0 
O 64 54 0 
7
Atoms. Timestep: 2037
N 0 96 0 
N 34 99 0 
N 42 33 0 
N 68 91 0 
N 72 57 0 
O 27 34 0 
O 63 54 0 
7
Atoms. Timestep: 2038
N 99 96 0 
N 33 99 0 
N 41 33 0 
N 67 91 0 
N 71 57 0 
O 26 34 0 
O 62 54 0 
7
Atoms. Timestep: 2039
N 98 96 0 
N 32 99 0 
N 40 33 0 
N 66 91 0 
N 70 57 0 
O 25 34 0 
O 61 54 0 
7
Atoms. Timestep: 2040
N 97 96 0 
N 31 99 0 
N 39 33 0 
N 65 91 0 
N 69 57 0 
O 24 34 0 
O 60 54 0 
7
Atoms. Timestep: 2041
N 96 96 0 
N 30 99 0 
N 38 33 0 
N 64 91 0 
N 68 57 0 
O 23 34 0 
O 59 54 0 
7
Atoms. Timestep: 2042
N 95 96 0 
N 29 99 0 
N 37 33 0 
N 63 91 0 
N 67 57 0 
O 22 34 0 
O 58 54 0 
7
Atoms. Timestep: 2043
N 94 96 0 
N 28 99 0 
N 36 33 0 
N 62 91 0 
N 66 57 0 
O 21 34 0 
O 57 54 0 
7
Atoms. Timestep: 2044
N 93 96 0 
N 27 99 0 
N 35 33 0 
N 61 91 0 
N 65 57 0 
O 20 34 0 
O 56 54 0 
7
Atoms. Timestep: 2045
N 92 96 0 
N 26 99 0 
N 34 33 0 
N 60 91 0 
N 64 57 0 
O 19 34 0 
O 55 54 0 
7
Atoms. Timestep: 2046
N 91 96 0 
N 25 99 0 
N 33 33 0 
N 59 91 0 
N 63 57 0 
O 18 34 0 
O 54 54 0 
7
Atoms. Timestep: 2047
N 90 96 0 
N 24 99 0 
N 32 33 0 
N 58 91 0 
N 62 57 0 
O 17 34 0 
O 53 54 0 
7
Atoms. Timestep: 2048
N 89 96 0 
N 23 99 0 
N 31 33 0 
N 57 91 0 
N 61 57 0 
O 16 34 0 
O 52 54 0 
7
Atoms. Timestep: 2049
N 88 96 0 
N 22 99 0 
N 30 33 0 
N 56 91 0 
N 60 57 0 
O 15 34 0 
O 51 54 0 
7
Atoms. Timestep: 2050
N 87 96 0 
N 21 99 0 
N 29 33 0 
N 55 91 0 
N 59 57 0 
O 14 34 0 
O 50 54 0 
7
Atoms. Timestep: 2051
N 86 96 0 
N 20 99 0 
N 28 33 0 
N 54 91 0 
N 58 57 0 
O 13 34 0 
O 49 54 0 
7
Atoms. Timestep: 2052
N 85 96 0 
N 19 99 0 
N 27 33 0 
N 53 91 0 
N 57 57 0 
O 12 34 0 
O 48 54 0 
7
Atoms. Timestep: 2053
N 84 96 0 
N 18 99 0 
N 26 33 0 
N 52 91 0 
N 56 57 0 
O 11 34 0 
O 47 54 0 
7
Atoms. Timestep: 2054
N 83 96 0 
N 17 99 0 
N 25 33 0 
N 51 91 0 
N 55 57 0 
O 10 34 0 
O 46 54 0 
7
Atoms. Timestep: 2055
N 82 96 0 
N 16 99 0 
N 24 33 0 
N 50 91 0 
N 54 57 0 
O 9 34 0 
O 45 54 0 
7
Atoms. Timestep: 2056
N 81 96 0 
N 15 99 0 
N 23 33 0 
N 49 91 0 
N 53 57 0 
O 8 34 0 
O 44 54 0 
7
Atoms. Timestep: 2057
N 80 96 0 
N 14 99 0 
N 22 33 0 
N 48 91 0 
N 52 57 0 
O 7 34 0 
O 43 54 0 
7
Atoms. Timestep: 2058
N 79 96 0 
N 13 99 0 
N 21 33 0 
N 47 91 0 
N 51 57 0 
O 6 34 0 
O 42 54 0 
7
Atoms. Timestep: 2059
N 78 96 0 
N 12 99 0 
N 20 33 0 
N 46 91 0 
N 50 57 0 
O 5 34 0 
O 41 54 0 
7
Atoms. Timestep: 2060
N 77 96 0 
N 11 99 0 
N 19 33 0 
N 45 91 0 
N 49 57 0 
O 4 34 0 
O 40 54 0 
7
Atoms. Timestep: 2061
N 76 96 0 
N 10 99 0 
N 18 33 0 
N 44 91 0 
N 48 57 0 
O 3 34 0 
O 39 54 0 
7
Atoms. Timestep: 2062
N 75 96 0 
N 9 99 0 
N 17 33 0 
N 43 91 0 
N 47 57 0 
O 2 34 0 
O 38 54 0 
7
Atoms. Timestep: 2063
N 74 96 0 
N 8 99 0 
N 16 33 0 
N 42 91 0 
N 46 57 0 
O 1 34 0 
O 37 54 0 
7
Atoms. Timestep: 2064
N 73 96 0 
N 7 99 0 
N 15 33 0 
N 41 91 0 
N 45 57 0 
O 0 34 0 
O 36 54 0 
7
Atoms. Timestep: 2065
N 72 96 0 
N 6 99 0 
N 14 33 0 
N 40 91 0 
N 44 57 0 
O 99 34 0 
O 35 54 0 
7
Atoms. Timestep: 2066
N 71 96 0 
N 5 99 0 
N 13 33 0 
N 39 91 0 
N 43 57 0 
O 98 34 0 
O 34 54 0 
7
Atoms. Timestep: 2067
N 70 96 0 
N 4 99 0 
N 12 33 0 
N 38 91 0 
N 42 57 0 
O 97 34 0 
O 33 54 0 
7
Atoms. Timestep: 2068
N 69 96 0 
N 3 99 0 
N 11 33 0 
N 37 91 0 
N 41 57 0 
O 96 34 0 
O 32 54 0 
7
Atoms. Timestep: 2069
N 68 96 0 
N 2 99 0 
N 10 33 0 
N 36 91 0 
N 40 57 0 
O 95 34 0 
O 31 54 0 
7
Atoms. Timestep: 2070
N 67 96 0 
N 1 99 0 
N 9 33 0 
N 35 91 0 
N 39 57 0 
O 94 34 0 
O 30 54 0 
7
Atoms. Timestep: 2071
N 66 96 0 
N 0 99 0 
N 8 33 0 
N 34 91 0 
N 38 57 0 
O 93 34 0 
O 29 54 0 
7
Atoms. Timestep: 2072
N 65 96 0 
N 99 99 0 
N 7 33 0 
N 33 91 0 
N 37 57 0 
O 92 34 0 
O 28 54 0 
7
Atoms. Timestep: 2073
N 64 96 0 
N 98 99 0 
N 6 33 0 
N 32 91 0 
N 36 57 0 
O 91 34 0 
O 27 54 0 
7
Atoms. Timestep: 2074
N 63 96 0 
N 97 99 0 
N 5 33 0 
N 31 91 0 
N 35 57 0 
O 90 34 0 
O 26 54 0 
7
Atoms. Timestep: 2075
N 62 96 0 
N 96 99 0 
N 4 33 0 
N 30 91 0 
N 34 57 0 
O 89 34 0 
O 25 54 0 
7
Atoms. Timestep: 2076
N 61 96 0 
N 95 99 0 
N 3 33 0 
N 29 91 0 
N 33 57 0 
O 88 34 0 
O 24 54 0 
7
Atoms. Timestep: 2077
N 60 96 0 
N 94 99 0 
N 2 33 0 
N 28 91 0 
N 32 57 0 
O 87 34 0 
O 23 54 0 
7
Atoms. Timestep: 2078
N 59 96 0 
N 93 99 0 
N 1 33 0 
N 27 91 0 
N 31 57 0 
O 86 34 0 
O 22 54 0 
7
Atoms. Timestep: 2079
N 58 96 0 
N 92 99 0 
N 0 33 0 
N 26 91 0 
N 30 57 0 
O 85 34 0 
O 21 54 0 
7
Atoms. Timestep: 2080
N 57 96 0 
N 91 99 0 
N 99 33 0 
N 25 91 0 
N 29 57 0 
O 84 34 0 
O 20 54 0 
7
Atoms. Timestep: 2081
N 56 96 0 
N 90 99 0 
N 98 33 0 
N 24 91 0 
N 28 57 0 
O 83 34 0 
O 19 54 0 
7
Atoms. Timestep: 2082
N 55 96 0 
N 89 99 0 
N 97 33 0 
N 23 91 0 
N 27 57 0 
O 82 34 0 
O 18 54 0 
7
Atoms. Timestep: 2083
N 54 96 0 
N 88 99 0 
N 96 33 0 
N 22 91 0 
N 26 57 0 
O 81 34 0 
O 17 54 0 
7
Atoms. Timestep: 2084
N 53 96 0 
N 87 99 0 
N 95 33 0 
N 21 91 0 
N 25 57 0 
O 80 34 0 
O 16 54 0 
7
Atoms. Timestep: 2085
N 52 96 0 
N 86 99 0 
N 94 33 0 
N 20 91 0 
N 24 57 0 
O 79 34 0 
O 15 54 0 
7
Atoms. Timestep: 2086
N 51 96 0 
N 85 99 0 
N 93 33 0 
N 19 91 0 
N 23 57 0 
O 78 34 0 
O 14 54 0 
7
Atoms. Timestep: 2087
N 50 96 0 
N 84 99 0 
N 92 33 0 
N 18 91 0 
N 22 57 0 
O 77 34 0 
O 13 54 0 
7
Atoms. Timestep: 2088
N 49 96 0 
N 83 99 0 
N 91 33 0 
N 17 91 0 
N 21 57 0 
O 76 34 0 
O 12 54 0 
7
Atoms. Timestep: 2089
N 48 96 0 
N 82 99 0 
N 90 33 0 
N 16 91 0 
N 20 57 0 
O 75 34 0 
O 11 54 0 
7
Atoms. Timestep: 2090
N 47 96 0 
N 81 99 0 
N 89 33 0 
N 15 91 0 
N 19 57 0 
O 74 34 0 
O 10 54 0 
7
Atoms. Timestep: 2091
N 46 96 0 
N 80 99 0 
N 88 33 0 
N 14 91 0 
N 18 57 0 
O 73 34 0 
O 9 54 0 
7
Atoms. Timestep: 2092
N 45 96 0 
N 79 99 0 
N 87 33 0 
N 13 91 0 
N 17 57 0 
O 72 34 0 
O 8 54 0 
7
Atoms. Timestep: 2093
N 44 96 0 
N 78 99 0 
N 86 33 0 
N 12 91 0 
N 16 57 0 
O 71 34 0 
O 7 54 0 
7
Atoms. Timestep: 2094
N 43 96 0 
N 77 99 0 
N 85 33 0 
N 11 91 0 
N 15 57 0 
O 70 34 0 
O 6 54 0 
7
Atoms. Timestep: 2095
N 42 96 0 
N 76 99 0 
N 84 33 0 
N 10 91 0 
N 14 57 0 
O 69 34 0 
O 5 54 0 
7
Atoms. Timestep: 2096
N 41 96 0 
N 75 99 0 
N 83 33 0 
N 9 91 0 
N 13 57 0 
O 68 34 0 
O 4 54 0 
7
Atoms. Timestep: 2097
N 42 96 0 
N 76 99 0 
N 82 33 0 
N 10 91 0 
N 12 57 0 
O 67 34 0 
O 3 54 0 
7
Atoms. Timestep: 2098
N 41 96 0 
N 75 99 0 
N 81 33 0 
N 9 91 0 
N 11 57 0 
O 66 34 0 
O 2 54 0 
7
Atoms. Timestep: 2099
N 40 96 0 
N 74 99 0 
N 80 33 0 
N 8 91 0 
N 10 57 0 
O 65 34 0 
O 1 54 0 
7
Atoms. Timestep: 2100
N 39 96 0 
N 73 99 0 
N 79 33 0 
N 7 91 0 
N 9 57 0 
O 64 34 0 
O 0 54 0 
7
Atoms. Timestep: 2101
N 38 96 0 
N 72 99 0 
N 78 33 0 
N 6 91 0 
N 8 57 0 
O 63 34 0 
O 99 54 0 
7
Atoms. Timestep: 2102
N 37 96 0 
N 71 99 0 
N 77 33 0 
N 5 91 0 
N 7 57 0 
O 62 34 0 
O 98 54 0 
7
Atoms. Timestep: 2103
N 36 96 0 
N 70 99 0 
N 76 33 0 
N 4 91 0 
N 6 57 0 
O 61 34 0 
O 97 54 0 
7
Atoms. Timestep: 2104
N 35 96 0 
N 69 99 0 
N 75 33 0 
N 3 91 0 
N 5 57 0 
O 60 34 0 
O 96 54 0 
7
Atoms. Timestep: 2105
N 34 96 0 
N 68 99 0 
N 74 33 0 
N 2 91 0 
N 4 57 0 
O 59 34 0 
O 95 54 0 
7
Atoms. Timestep: 2106
N 33 96 0 
N 67 99 0 
N 73 33 0 
N 1 91 0 
N 3 57 0 
O 58 34 0 
O 94 54 0 
7
Atoms. Timestep: 2107
N 32 96 0 
N 66 99 0 
N 72 33 0 
N 0 91 0 
N 2 57 0 
O 57 34 0 
O 93 54 0 
7
Atoms. Timestep: 2108
N 31 96 0 
N 65 99 0 
N 71 33 0 
N 99 91 0 
N 1 57 0 
O 56 34 0 
O 92 54 0 
7
Atoms. Timestep: 2109
N 30 96 0 
N 64 99 0 
N 70 33 0 
N 98 91 0 
N 0 57 0 
O 55 34 0 
O 91 54 0 
7
Atoms. Timestep: 2110
N 29 96 0 
N 63 99 0 
N 69 33 0 
N 97 91 0 
N 99 57 0 
O 54 34 0 
O 90 54 0 
7
Atoms. Timestep: 2111
N 28 96 0 
N 62 99 0 
N 68 33 0 
N 96 91 0 
N 98 57 0 
O 53 34 0 
O 89 54 0 
7
Atoms. Timestep: 2112
N 27 96 0 
N 61 99 0 
N 67 33 0 
N 95 91 0 
N 97 57 0 
O 52 34 0 
O 88 54 0 
7
Atoms. Timestep: 2113
N 26 96 0 
N 60 99 0 
N 66 33 0 
N 94 91 0 
N 96 57 0 
O 51 34 0 
O 87 54 0 
7
Atoms. Timestep: 2114
N 25 96 0 
N 59 99 0 
N 65 33 0 
N 93 91 0 
N 95 57 0 
O 50 34 0 
O 86 54 0 
7
Atoms. Timestep: 2115
N 24 96 0 
N 58 99 0 
N 64 33 0 
N 92 91 0 
N 94 57 0 
O 49 34 0 
O 85 54 0 
7
Atoms. Timestep: 2116
N 23 96 0 
N 57 99 0 
N 63 33 0 
N 91 91 0 
N 93 57 0 
O 48 34 0 
O 84 54 0 
7
Atoms. Timestep: 2117
N 22 96 0 
N 56 99 0 
N 62 33 0 
N 90 91 0 
N 92 57 0 
O 47 34 0 
O 83 54 0 
7
Atoms. Timestep: 2118
N 21 96 0 
N 55 99 0 
N 61 33 0 
N 89 91 0 
N 91 57 0 
O 46 34 0 
O 82 54 0 
7
Atoms. Timestep: 2119
N 20 96 0 
N 54 99 0 
N 60 33 0 
N 88 91 0 
N 90 57 0 
O 45 34 0 
O 81 54 0 
7
Atoms. Timestep: 2120
N 19 96 0 
N 53 99 0 
N 59 33 0 
N 87 91 0 
N 89 57 0 
O 44 34 0 
O 80 54 0 
7
Atoms. Timestep: 2121
N 18 96 0 
N 52 99 0 
N 58 33 0 
N 86 91 0 
N 88 57 0 
O 43 34 0 
O 79 54 0 
7
Atoms. Timestep: 2122
N 17 96 0 
N 51 99 0 
N 57 33 0 
N 85 91 0 
N 87 57 0 
O 42 34 0 
O 78 54 0 
7
Atoms. Timestep: 2123
N 16 96 0 
N 50 99 0 
N 56 33 0 
N 84 91 0 
N 86 57 0 
O 41 34 0 
O 77 54 0 
7
Atoms. Timestep: 2124
N 15 96 0 
N 49 99 0 
N 55 33 0 
N 83 91 0 
N 85 57 0 
O 40 34 0 
O 76 54 0 
7
Atoms. Timestep: 2125
N 14 96 0 
N 48 99 0 
N 54 33 0 
N 82 91 0 
N 84 57 0 
O 39 34 0 
O 75 54 0 
7
Atoms. Timestep: 2126
N 13 96 0 
N 47 99 0 
N 53 33 0 
N 81 91 0 
N 83 57 0 
O 38 34 0 
O 74 54 0 
7
Atoms. Timestep: 2127
N 12 96 0 
N 46 99 0 
N 52 33 0 
N 80 91 0 
N 82 57 0 
O 37 34 0 
O 73 54 0 
7
Atoms. Timestep: 2128
N 11 96 0 
N 45 99 0 
N 51 33 0 
N 79 91 0 
N 81 57 0 
O 36 34 0 
O 72 54 0 
7
Atoms. Timestep: 2129
N 10 96 0 
N 44 99 0 
N 50 33 0 
N 78 91 0 
N 80 57 0 
O 35 34 0 
O 71 54 0 
7
Atoms. Timestep: 2130
N 9 96 0 
N 43 99 0 
N 49 33 0 
N 77 91 0 
N 79 57 0 
O 34 34 0 
O 70 54 0 
7
Atoms. Timestep: 2131
N 8 96 0 
N 42 99 0 
N 48 33 0 
N 76 91 0 
N 78 57 0 
O 33 34 0 
O 69 54 0 
7
Atoms. Timestep: 2132
N 7 96 0 
N 41 99 0 
N 47 33 0 
N 75 91 0 
N 77 57 0 
O 32 34 0 
O 68 54 0 
7
Atoms. Timestep: 2133
N 6 96 0 
N 40 99 0 
N 46 33 0 
N 74 91 0 
N 76 57 0 
O 31 34 0 
O 67 54 0 
7
Atoms. Timestep: 2134
N 5 96 0 
N 39 99 0 
N 45 33 0 
N 73 91 0 
N 75 57 0 
O 30 34 0 
O 66 54 0 
7
Atoms. Timestep: 2135
N 4 96 0 
N 38 99 0 
N 44 33 0 
N 72 91 0 
N 74 57 0 
O 29 34 0 
O 65 54 0 
7
Atoms. Timestep: 2136
N 3 96 0 
N 37 99 0 
N 43 33 0 
N 71 91 0 
N 73 57 0 
O 28 34 0 
O 64 54 0 
7
Atoms. Timestep: 2137
N 2 96 0 
N 36 99 0 
N 42 33 0 
N 70 91 0 
N 72 57 0 
O 27 34 0 
O 63 54 0 
7
Atoms. Timestep: 2138
N 1 96 0 
N 35 99 0 
N 41 33 0 
N 69 91 0 
N 71 57 0 
O 26 34 0 
O 62 54 0 
7
Atoms. Timestep: 2139
N 0 96 0 
N 34 99 0 
N 40 33 0 
N 68 91 0 
N 70 57 0 
O 25 34 0 
O 61 54 0 
7
Atoms. Timestep: 2140
N 99 96 0 
N 33 99 0 
N 39 33 0 
N 67 91 0 
N 69 57 0 
O 24 34 0 
O 60 54 0 
7
Atoms. Timestep: 2141
N 98 96 0 
N 32 99 0 
N 38 33 0 
N 66 91 0 
N 68 57 0 
O 23 34 0 
O 59 54 0 
7
Atoms. Timestep: 2142
N 97 96 0 
N 31 99 0 
N 37 33 0 
N 65 91 0 
N 69 57 0 
O 22 34 0 
O 58 54 0 
7
Atoms. Timestep: 2143
N 96 96 0 
N 30 99 0 
N 36 33 0 
N 64 91 0 
N 68 57 0 
O 21 34 0 
O 57 54 0 
7
Atoms. Timestep: 2144
N 95 96 0 
N 29 99 0 
N 35 33 0 
N 63 91 0 
N 67 57 0 
O 20 34 0 
O 56 54 0 
7
Atoms. Timestep: 2145
N 94 96 0 
N 28 99 0 
N 34 33 0 
N 62 91 0 
N 66 57 0 
O 19 34 0 
O 55 54 0 
7
Atoms. Timestep: 2146
N 93 96 0 
N 27 99 0 
N 33 33 0 
N 61 91 0 
N 65 57 0 
O 18 34 0 
O 54 54 0 
7
Atoms. Timestep: 2147
N 92 96 0 
N 26 99 0 
N 32 33 0 
N 60 91 0 
N 64 57 0 
O 17 34 0 
O 53 54 0 
7
Atoms. Timestep: 2148
N 91 96 0 
N 25 99 0 
N 31 33 0 
N 59 91 0 
N 63 57 0 
O 16 34 0 
O 52 54 0 
7
Atoms. Timestep: 2149
N 90 96 0 
N 24 99 0 
N 30 33 0 
N 58 91 0 
N 62 57 0 
O 15 34 0 
O 51 54 0 
7
Atoms. Timestep: 2150
N 89 96 0 
N 23 99 0 
N 29 33 0 
N 57 91 0 
N 61 57 0 
O 14 34 0 
O 50 54 0 
7
Atoms. Timestep: 2151
N 89 95 0 
N 22 99 0 
N 28 33 0 
N 56 91 0 
N 60 57 0 
O 13 34 0 
O 49 54 0 
7
Atoms. Timestep: 2152
N 88 95 0 
N 23 99 0 
N 27 33 0 
N 55 91 0 
N 59 57 0 
O 12 34 0 
O 48 54 0 
7
Atoms. Timestep: 2153
N 89 95 0 
N 22 99 0 
N 26 33 0 
N 56 91 0 
N 58 57 0 
O 11 34 0 
O 47 54 0 
7
Atoms. Timestep: 2154
N 88 95 0 
N 23 99 0 
N 25 33 0 
N 55 91 0 
N 57 57 0 
O 10 34 0 
O 46 54 0 
7
Atoms. Timestep: 2155
N 89 95 0 
N 22 99 0 
N 24 33 0 
N 56 91 0 
N 56 57 0 
O 9 34 0 
O 45 54 0 
7
Atoms. Timestep: 2156
N 88 95 0 
N 23 99 0 
N 23 33 0 
N 55 91 0 
N 55 57 0 
O 8 34 0 
O 44 54 0 
7
Atoms. Timestep: 2157
N 89 95 0 
N 22 99 0 
N 22 33 0 
N 56 91 0 
N 54 57 0 
O 7 34 0 
O 43 54 0 
7
Atoms. Timestep: 2158
N 88 95 0 
N 23 99 0 
N 21 33 0 
N 55 91 0 
N 53 57 0 
O 6 34 0 
O 42 54 0 
7
Atoms. Timestep: 2159
N 89 95 0 
N 22 99 0 
N 21 34 0 
N 56 91 0 
N 52 57 0 
O 5 34 0 
O 41 54 0 
7
Atoms. Timestep: 2160
N 88 95 0 
N 23 99 0 
N 20 34 0 
N 55 91 0 
N 51 57 0 
O 4 34 0 
O 40 54 0 
7
Atoms. Timestep: 2161
N 89 95 0 
N 22 99 0 
N 19 34 0 
N 56 91 0 
N 50 57 0 
O 3 34 0 
O 39 54 0 
7
Atoms. Timestep: 2162
N 88 95 0 
N 23 99 0 
N 18 34 0 
N 55 91 0 
N 49 57 0 
O 2 34 0 
O 38 54 0 
7
Atoms. Timestep: 2163
N 89 95 0 
N 22 99 0 
N 17 34 0 
N 56 91 0 
N 48 57 0 
O 1 34 0 
O 37 54 0 
7
Atoms. Timestep: 2164
N 88 95 0 
N 23 99 0 
N 16 34 0 
N 55 91 0 
N 47 57 0 
O 0 34 0 
O 36 54 0 
7
Atoms. Timestep: 2165
N 89 95 0 
N 22 99 0 
N 15 34 0 
N 56 91 0 
N 46 57 0 
O 99 34 0 
O 35 54 0 
7
Atoms. Timestep: 2166
N 88 95 0 
N 23 99 0 
N 14 34 0 
N 55 91 0 
N 45 57 0 
O 98 34 0 
O 34 54 0 
7
Atoms. Timestep: 2167
N 89 95 0 
N 22 99 0 
N 13 34 0 
N 56 91 0 
N 44 57 0 
O 97 34 0 
O 33 54 0 
7
Atoms. Timestep: 2168
N 88 95 0 
N 23 99 0 
N 12 34 0 
N 55 91 0 
N 43 57 0 
O 96 34 0 
O 32 54 0 
7
Atoms. Timestep: 2169
N 89 95 0 
N 22 99 0 
N 11 34 0 
N 56 91 0 
N 42 57 0 
O 95 34 0 
O 31 54 0 
7
Atoms. Timestep: 2170
N 88 95 0 
N 23 99 0 
N 10 34 0 
N 55 91 0 
N 41 57 0 
O 94 34 0 
O 30 54 0 
7
Atoms. Timestep: 2171
N 89 95 0 
N 22 99 0 
N 9 34 0 
N 56 91 0 
N 40 57 0 
O 93 34 0 
O 29 54 0 
7
Atoms. Timestep: 2172
N 88 95 0 
N 23 99 0 
N 8 34 0 
N 55 91 0 
N 39 57 0 
O 92 34 0 
O 28 54 0 
7
Atoms. Timestep: 2173
N 89 95 0 
N 22 99 0 
N 7 34 0 
N 56 91 0 
N 38 57 0 
O 91 34 0 
O 27 54 0 
7
Atoms. Timestep: 2174
N 88 95 0 
N 23 99 0 
N 6 34 0 
N 55 91 0 
N 37 57 0 
O 90 34 0 
O 26 54 0 
7
Atoms. Timestep: 2175
N 89 95 0 
N 22 99 0 
N 5 34 0 
N 56 91 0 
N 36 57 0 
O 89 34 0 
O 25 54 0 
7
Atoms. Timestep: 2176
N 88 95 0 
N 23 99 0 
N 4 34 0 
N 55 91 0 
N 35 57 0 
O 88 34 0 
O 24 54 0 
7
Atoms. Timestep: 2177
N 89 95 0 
N 22 99 0 
N 3 34 0 
N 56 91 0 
N 34 57 0 
O 87 34 0 
O 23 54 0 
7
Atoms. Timestep: 2178
N 88 95 0 
N 23 99 0 
N 2 34 0 
N 55 91 0 
N 33 57 0 
O 86 34 0 
O 22 54 0 
7
Atoms. Timestep: 2179
N 89 95 0 
N 22 99 0 
N 1 34 0 
N 56 91 0 
N 32 57 0 
O 85 34 0 
O 21 54 0 
7
Atoms. Timestep: 2180
N 88 95 0 
N 23 99 0 
N 0 34 0 
N 55 91 0 
N 31 57 0 
O 84 34 0 
O 20 54 0 
7
Atoms. Timestep: 2181
N 89 95 0 
N 22 99 0 
N 99 34 0 
N 55 90 0 
N 30 57 0 
O 83 34 0 
O 19 54 0 
7
Atoms. Timestep: 2182
N 88 95 0 
N 23 99 0 
N 98 34 0 
N 54 90 0 
N 29 57 0 
O 82 34 0 
O 18 54 0 
7
Atoms. Timestep: 2183
N 89 95 0 
N 22 99 0 
N 97 34 0 
N 55 90 0 
N 28 57 0 
O 81 34 0 
O 17 54 0 
7
Atoms. Timestep: 2184
N 90 95 0 
N 23 99 0 
N 96 34 0 
N 56 90 0 
N 27 57 0 
O 80 34 0 
O 16 54 0 
7
Atoms. Timestep: 2185
N 89 95 0 
N 24 99 0 
N 95 34 0 
N 55 90 0 
N 26 57 0 
O 79 34 0 
O 15 54 0 
7
Atoms. Timestep: 2186
N 90 95 0 
N 23 99 0 
N 94 34 0 
N 56 90 0 
N 25 57 0 
O 78 34 0 
O 14 54 0 
7
Atoms. Timestep: 2187
N 89 95 0 
N 24 99 0 
N 93 34 0 
N 55 90 0 
N 24 57 0 
O 77 34 0 
O 13 54 0 
7
Atoms. Timestep: 2188
N 90 95 0 
N 23 99 0 
N 92 34 0 
N 56 90 0 
N 23 57 0 
O 76 34 0 
O 12 54 0 
7
Atoms. Timestep: 2189
N 90 96 0 
N 24 99 0 
N 91 34 0 
N 55 90 0 
N 22 57 0 
O 75 34 0 
O 11 54 0 
7
Atoms. Timestep: 2190
N 89 96 0 
N 23 99 0 
N 90 34 0 
N 56 90 0 
N 21 57 0 
O 74 34 0 
O 10 54 0 
7
Atoms. Timestep: 2191
N 88 96 0 
N 22 99 0 
N 89 34 0 
N 55 90 0 
N 20 57 0 
O 73 34 0 
O 9 54 0 
7
Atoms. Timestep: 2192
N 87 96 0 
N 21 99 0 
N 88 34 0 
N 54 90 0 
N 19 57 0 
O 72 34 0 
O 8 54 0 
7
Atoms. Timestep: 2193
N 86 96 0 
N 20 99 0 
N 87 34 0 
N 53 90 0 
N 18 57 0 
O 71 34 0 
O 7 54 0 
7
Atoms. Timestep: 2194
N 85 96 0 
N 19 99 0 
N 86 34 0 
N 52 90 0 
N 17 57 0 
O 70 34 0 
O 6 54 0 
7
Atoms. Timestep: 2195
N 84 96 0 
N 18 99 0 
N 85 34 0 
N 51 90 0 
N 16 57 0 
O 69 34 0 
O 5 54 0 
7
Atoms. Timestep: 2196
N 83 96 0 
N 17 99 0 
N 84 34 0 
N 50 90 0 
N 15 57 0 
O 68 34 0 
O 4 54 0 
7
Atoms. Timestep: 2197
N 82 96 0 
N 16 99 0 
N 83 34 0 
N 49 90 0 
N 14 57 0 
O 67 34 0 
O 3 54 0 
7
Atoms. Timestep: 2198
N 81 96 0 
N 15 99 0 
N 82 34 0 
N 48 90 0 
N 13 57 0 
O 66 34 0 
O 2 54 0 
7
Atoms. Timestep: 2199
N 80 96 0 
N 14 99 0 
N 81 34 0 
N 47 90 0 
N 13 56 0 
O 65 34 0 
O 1 54 0 
7
Atoms. Timestep: 2200
N 79 96 0 
N 13 99 0 
N 80 34 0 
N 46 90 0 
N 12 56 0 
O 64 34 0 
O 0 54 0 
7
Atoms. Timestep: 2201
N 78 96 0 
N 12 99 0 
N 79 34 0 
N 46 91 0 
N 11 56 0 
O 63 34 0 
O 99 54 0 
7
Atoms. Timestep: 2202
N 77 96 0 
N 11 99 0 
N 78 34 0 
N 45 91 0 
N 10 56 0 
O 62 34 0 
O 98 54 0 
7
Atoms. Timestep: 2203
N 76 96 0 
N 10 99 0 
N 77 34 0 
N 44 91 0 
N 9 56 0 
O 61 34 0 
O 97 54 0 
7
Atoms. Timestep: 2204
N 75 96 0 
N 9 99 0 
N 76 34 0 
N 43 91 0 
N 8 56 0 
O 60 34 0 
O 96 54 0 
7
Atoms. Timestep: 2205
N 74 96 0 
N 8 99 0 
N 75 34 0 
N 42 91 0 
N 7 56 0 
O 59 34 0 
O 95 54 0 
7
Atoms. Timestep: 2206
N 73 96 0 
N 7 99 0 
N 74 34 0 
N 41 91 0 
N 6 56 0 
O 58 34 0 
O 94 54 0 
7
Atoms. Timestep: 2207
N 72 96 0 
N 6 99 0 
N 73 34 0 
N 40 91 0 
N 5 56 0 
O 57 34 0 
O 93 54 0 
7
Atoms. Timestep: 2208
N 71 96 0 
N 5 99 0 
N 72 34 0 
N 39 91 0 
N 4 56 0 
O 56 34 0 
O 92 54 0 
7
Atoms. Timestep: 2209
N 70 96 0 
N 4 99 0 
N 71 34 0 
N 38 91 0 
N 3 56 0 
O 55 34 0 
O 91 54 0 
7
Atoms. Timestep: 2210
N 69 96 0 
N 3 99 0 
N 70 34 0 
N 37 91 0 
N 2 56 0 
O 54 34 0 
O 90 54 0 
7
Atoms. Timestep: 2211
N 68 96 0 
N 2 99 0 
N 69 34 0 
N 36 91 0 
N 1 56 0 
O 53 34 0 
O 89 54 0 
7
Atoms. Timestep: 2212
N 67 96 0 
N 1 99 0 
N 68 34 0 
N 35 91 0 
N 0 56 0 
O 52 34 0 
O 88 54 0 
7
Atoms. Timestep: 2213
N 66 96 0 
N 0 99 0 
N 67 34 0 
N 34 91 0 
N 99 56 0 
O 51 34 0 
O 87 54 0 
7
Atoms. Timestep: 2214
N 65 96 0 
N 99 99 0 
N 66 34 0 
N 33 91 0 
N 98 56 0 
O 50 34 0 
O 86 54 0 
7
Atoms. Timestep: 2215
N 64 96 0 
N 98 99 0 
N 65 34 0 
N 32 91 0 
N 97 56 0 
O 49 34 0 
O 85 54 0 
7
Atoms. Timestep: 2216
N 63 96 0 
N 97 99 0 
N 64 34 0 
N 31 91 0 
N 96 56 0 
O 48 34 0 
O 84 54 0 
7
Atoms. Timestep: 2217
N 62 96 0 
N 96 99 0 
N 63 34 0 
N 30 91 0 
N 95 56 0 
O 47 34 0 
O 83 54 0 
7
Atoms. Timestep: 2218
N 61 96 0 
N 95 99 0 
N 62 34 0 
N 29 91 0 
N 94 56 0 
O 46 34 0 
O 82 54 0 
7
Atoms. Timestep: 2219
N 60 96 0 
N 94 99 0 
N 61 34 0 
N 28 91 0 
N 93 56 0 
O 45 34 0 
O 81 54 0 
7
Atoms. Timestep: 2220
N 59 96 0 
N 93 99 0 
N 60 34 0 
N 27 91 0 
N 92 56 0 
O 44 34 0 
O 80 54 0 
7
Atoms. Timestep: 2221
N 58 96 0 
N 92 99 0 
N 59 34 0 
N 26 91 0 
N 91 56 0 
O 43 34 0 
O 79 54 0 
7
Atoms. Timestep: 2222
N 57 96 0 
N 91 99 0 
N 58 34 0 
N 25 91 0 
N 90 56 0 
O 42 34 0 
O 78 54 0 
7
Atoms. Timestep: 2223
N 56 96 0 
N 90 99 0 
N 57 34 0 
N 24 91 0 
N 89 56 0 
O 41 34 0 
O 77 54 0 
7
Atoms. Timestep: 2224
N 55 96 0 
N 89 99 0 
N 56 34 0 
N 23 91 0 
N 88 56 0 
O 40 34 0 
O 76 54 0 
7
Atoms. Timestep: 2225
N 55 95 0 
N 88 99 0 
N 55 34 0 
N 22 91 0 
N 87 56 0 
O 39 34 0 
O 75 54 0 
7
Atoms. Timestep: 2226
N 54 95 0 
N 89 99 0 
N 54 34 0 
N 21 91 0 
N 86 56 0 
O 38 34 0 
O 74 54 0 
7
Atoms. Timestep: 2227
N 55 95 0 
N 88 99 0 
N 53 34 0 
N 22 91 0 
N 85 56 0 
O 37 34 0 
O 73 54 0 
7
Atoms. Timestep: 2228
N 54 95 0 
N 89 99 0 
N 52 34 0 
N 21 91 0 
N 84 56 0 
O 36 34 0 
O 72 54 0 
7
Atoms. Timestep: 2229
N 55 95 0 
N 88 99 0 
N 51 34 0 
N 22 91 0 
N 83 56 0 
O 35 34 0 
O 71 54 0 
7
Atoms. Timestep: 2230
N 54 95 0 
N 89 99 0 
N 50 34 0 
N 21 91 0 
N 82 56 0 
O 34 34 0 
O 70 54 0 
7
Atoms. Timestep: 2231
N 55 95 0 
N 88 99 0 
N 49 34 0 
N 22 91 0 
N 81 56 0 
O 33 34 0 
O 69 54 0 
7
Atoms. Timestep: 2232
N 54 95 0 
N 89 99 0 
N 48 34 0 
N 21 91 0 
N 80 56 0 
O 32 34 0 
O 68 54 0 
7
Atoms. Timestep: 2233
N 55 95 0 
N 88 99 0 
N 47 34 0 
N 22 91 0 
N 79 56 0 
O 31 34 0 
O 67 54 0 
7
Atoms. Timestep: 2234
N 54 95 0 
N 89 99 0 
N 46 34 0 
N 21 91 0 
N 78 56 0 
O 30 34 0 
O 66 54 0 
7
Atoms. Timestep: 2235
N 55 95 0 
N 88 99 0 
N 45 34 0 
N 22 91 0 
N 78 57 0 
O 29 34 0 
O 65 54 0 
7
Atoms. Timestep: 2236
N 54 95 0 
N 89 99 0 
N 44 34 0 
N 21 91 0 
N 77 57 0 
O 28 34 0 
O 64 54 0 
7
Atoms. Timestep: 2237
N 55 95 0 
N 88 99 0 
N 43 34 0 
N 22 91 0 
N 76 57 0 
O 27 34 0 
O 63 54 0 
7
Atoms. Timestep: 2238
N 54 95 0 
N 89 99 0 
N 42 34 0 
N 21 91 0 
N 75 57 0 
O 26 34 0 
O 62 54 0 
7
Atoms. Timestep: 2239
N 55 95 0 
N 88 99 0 
N 41 34 0 
N 22 91 0 
N 74 57 0 
O 25 34 0 
O 61 54 0 
7
Atoms. Timestep: 2240
N 54 95 0 
N 89 99 0 
N 40 34 0 
N 21 91 0 
N 73 57 0 
O 24 34 0 
O 60 54 0 
7
Atoms. Timestep: 2241
N 55 95 0 
N 88 99 0 
N 39 34 0 
N 22 91 0 
N 72 57 0 
O 23 34 0 
O 59 54 0 
7
Atoms. Timestep: 2242
N 54 95 0 
N 89 99 0 
N 38 34 0 
N 21 91 0 
N 71 57 0 
O 22 34 0 
O 58 54 0 
7
Atoms. Timestep: 2243
N 55 95 0 
N 88 99 0 
N 37 34 0 
N 22 91 0 
N 70 57 0 
O 21 34 0 
O 57 54 0 
7
Atoms. Timestep: 2244
N 54 95 0 
N 89 99 0 
N 36 34 0 
N 21 91 0 
N 69 57 0 
O 20 34 0 
O 56 54 0 
7
Atoms. Timestep: 2245
N 55 95 0 
N 88 99 0 
N 35 34 0 
N 22 91 0 
N 68 57 0 
O 19 34 0 
O 55 54 0 
7
Atoms. Timestep: 2246
N 54 95 0 
N 89 99 0 
N 34 34 0 
N 21 91 0 
N 67 57 0 
O 18 34 0 
O 54 54 0 
7
Atoms. Timestep: 2247
N 55 95 0 
N 88 99 0 
N 33 34 0 
N 22 91 0 
N 66 57 0 
O 17 34 0 
O 53 54 0 
7
Atoms. Timestep: 2248
N 54 95 0 
N 89 99 0 
N 32 34 0 
N 21 91 0 
N 65 57 0 
O 16 34 0 
O 52 54 0 
7
Atoms. Timestep: 2249
N 55 95 0 
N 88 99 0 
N 31 34 0 
N 22 91 0 
N 64 57 0 
O 15 34 0 
O 51 54 0 
7
Atoms. Timestep: 2250
N 54 95 0 
N 89 99 0 
N 30 34 0 
N 21 91 0 
N 63 57 0 
O 14 34 0 
O 50 54 0 
7
Atoms. Timestep: 2251
N 55 95 0 
N 88 99 0 
N 29 34 0 
N 22 91 0 
N 62 57 0 
O 13 34 0 
O 49 54 0 
7
Atoms. Timestep: 2252
N 54 95 0 
N 89 99 0 
N 28 34 0 
N 21 91 0 
N 61 57 0 
O 12 34 0 
O 48 54 0 
7
Atoms. Timestep: 2253
N 55 95 0 
N 88 99 0 
N 27 34 0 
N 22 91 0 
N 60 57 0 
O 11 34 0 
O 47 54 0 
7
Atoms. Timestep: 2254
N 54 95 0 
N 89 99 0 
N 26 34 0 
N 21 91 0 
N 59 57 0 
O 10 34 0 
O 46 54 0 
7
Atoms. Timestep: 2255
N 55 95 0 
N 88 99 0 
N 25 34 0 
N 22 91 0 
N 58 57 0 
O 9 34 0 
O 45 54 0 
7
Atoms. Timestep: 2256
N 54 95 0 
N 89 99 0 
N 24 34 0 
N 21 91 0 
N 57 57 0 
O 8 34 0 
O 44 54 0 
7
Atoms. Timestep: 2257
N 55 95 0 
N 88 99 0 
N 23 34 0 
N 22 91 0 
N 56 57 0 
O 7 34 0 
O 43 54 0 
7
Atoms. Timestep: 2258
N 54 95 0 
N 89 99 0 
N 22 34 0 
N 21 91 0 
N 55 57 0 
O 6 34 0 
O 42 54 0 
7
Atoms. Timestep: 2259
N 55 95 0 
N 88 99 0 
N 21 34 0 
N 22 91 0 
N 54 57 0 
O 5 34 0 
O 41 54 0 
7
Atoms. Timestep: 2260
N 54 95 0 
N 89 99 0 
N 20 34 0 
N 21 91 0 
N 53 57 0 
O 4 34 0 
O 40 54 0 
7
Atoms. Timestep: 2261
N 55 95 0 
N 88 99 0 
N 19 34 0 
N 22 91 0 
N 52 57 0 
O 3 34 0 
O 39 54 0 
7
Atoms. Timestep: 2262
N 54 95 0 
N 89 99 0 
N 18 34 0 
N 21 91 0 
N 51 57 0 
O 2 34 0 
O 38 54 0 
7
Atoms. Timestep: 2263
N 55 95 0 
N 88 99 0 
N 17 34 0 
N 22 91 0 
N 50 57 0 
O 1 34 0 
O 37 54 0 
7
Atoms. Timestep: 2264
N 54 95 0 
N 89 99 0 
N 16 34 0 
N 21 91 0 
N 49 57 0 
O 0 34 0 
O 36 54 0 
7
Atoms. Timestep: 2265
N 55 95 0 
N 88 99 0 
N 15 34 0 
N 22 91 0 
N 48 57 0 
O 99 34 0 
O 35 54 0 
7
Atoms. Timestep: 2266
N 54 95 0 
N 89 99 0 
N 14 34 0 
N 21 91 0 
N 47 57 0 
O 98 34 0 
O 34 54 0 
7
Atoms. Timestep: 2267
N 55 95 0 
N 88 99 0 
N 13 34 0 
N 22 91 0 
N 46 57 0 
O 97 34 0 
O 33 54 0 
7
Atoms. Timestep: 2268
N 54 95 0 
N 89 99 0 
N 12 34 0 
N 21 91 0 
N 45 57 0 
O 96 34 0 
O 32 54 0 
7
Atoms. Timestep: 2269
N 55 95 0 
N 88 99 0 
N 11 34 0 
N 22 91 0 
N 44 57 0 
O 95 34 0 
O 31 54 0 
7
Atoms. Timestep: 2270
N 54 95 0 
N 89 99 0 
N 10 34 0 
N 21 91 0 
N 43 57 0 
O 94 34 0 
O 30 54 0 
7
Atoms. Timestep: 2271
N 55 95 0 
N 88 99 0 
N 9 34 0 
N 22 91 0 
N 42 57 0 
O 93 34 0 
O 29 54 0 
7
Atoms. Timestep: 2272
N 54 95 0 
N 89 99 0 
N 8 34 0 
N 21 91 0 
N 41 57 0 
O 92 34 0 
O 28 54 0 
7
Atoms. Timestep: 2273
N 55 95 0 
N 88 99 0 
N 7 34 0 
N 22 91 0 
N 40 57 0 
O 91 34 0 
O 27 54 0 
7
Atoms. Timestep: 2274
N 54 95 0 
N 89 99 0 
N 6 34 0 
N 21 91 0 
N 39 57 0 
O 90 34 0 
O 26 54 0 
7
Atoms. Timestep: 2275
N 55 95 0 
N 88 99 0 
N 5 34 0 
N 22 91 0 
N 38 57 0 
O 89 34 0 
O 25 54 0 
7
Atoms. Timestep: 2276
N 54 95 0 
N 89 99 0 
N 4 34 0 
N 21 91 0 
N 37 57 0 
O 88 34 0 
O 24 54 0 
7
Atoms. Timestep: 2277
N 55 95 0 
N 88 99 0 
N 3 34 0 
N 22 91 0 
N 36 57 0 
O 87 34 0 
O 23 54 0 
7
Atoms. Timestep: 2278
N 54 95 0 
N 89 99 0 
N 2 34 0 
N 21 91 0 
N 35 57 0 
O 86 34 0 
O 22 54 0 
7
Atoms. Timestep: 2279
N 55 95 0 
N 88 99 0 
N 1 34 0 
N 22 91 0 
N 34 57 0 
O 85 34 0 
O 21 54 0 
7
Atoms. Timestep: 2280
N 54 95 0 
N 89 99 0 
N 0 34 0 
N 21 91 0 
N 33 57 0 
O 84 34 0 
O 20 54 0 
7
Atoms. Timestep: 2281
N 54 96 0 
N 88 99 0 
N 99 34 0 
N 22 91 0 
N 32 57 0 
O 83 34 0 
O 19 54 0 
7
Atoms. Timestep: 2282
N 53 96 0 
N 87 99 0 
N 98 34 0 
N 21 91 0 
N 31 57 0 
O 82 34 0 
O 18 54 0 
7
Atoms. Timestep: 2283
N 52 96 0 
N 86 99 0 
N 97 34 0 
N 20 91 0 
N 30 57 0 
O 81 34 0 
O 17 54 0 
7
Atoms. Timestep: 2284
N 51 96 0 
N 85 99 0 
N 96 34 0 
N 19 91 0 
N 29 57 0 
O 80 34 0 
O 16 54 0 
7
Atoms. Timestep: 2285
N 50 96 0 
N 84 99 0 
N 95 34 0 
N 18 91 0 
N 28 57 0 
O 79 34 0 
O 15 54 0 
7
Atoms. Timestep: 2286
N 49 96 0 
N 83 99 0 
N 94 34 0 
N 17 91 0 
N 27 57 0 
O 78 34 0 
O 14 54 0 
7
Atoms. Timestep: 2287
N 48 96 0 
N 82 99 0 
N 93 34 0 
N 16 91 0 
N 26 57 0 
O 77 34 0 
O 13 54 0 
7
Atoms. Timestep: 2288
N 47 96 0 
N 81 99 0 
N 92 34 0 
N 15 91 0 
N 25 57 0 
O 76 34 0 
O 12 54 0 
7
Atoms. Timestep: 2289
N 46 96 0 
N 80 99 0 
N 91 34 0 
N 14 91 0 
N 24 57 0 
O 75 34 0 
O 11 54 0 
7
Atoms. Timestep: 2290
N 45 96 0 
N 79 99 0 
N 90 34 0 
N 13 91 0 
N 23 57 0 
O 74 34 0 
O 10 54 0 
7
Atoms. Timestep: 2291
N 44 96 0 
N 78 99 0 
N 89 34 0 
N 12 91 0 
N 22 57 0 
O 73 34 0 
O 9 54 0 
7
Atoms. Timestep: 2292
N 43 96 0 
N 77 99 0 
N 88 34 0 
N 11 91 0 
N 21 57 0 
O 72 34 0 
O 8 54 0 
7
Atoms. Timestep: 2293
N 42 96 0 
N 76 99 0 
N 87 34 0 
N 10 91 0 
N 20 57 0 
O 71 34 0 
O 7 54 0 
7
Atoms. Timestep: 2294
N 41 96 0 
N 75 99 0 
N 86 34 0 
N 9 91 0 
N 19 57 0 
O 70 34 0 
O 6 54 0 
7
Atoms. Timestep: 2295
N 40 96 0 
N 74 99 0 
N 85 34 0 
N 8 91 0 
N 18 57 0 
O 69 34 0 
O 5 54 0 
7
Atoms. Timestep: 2296
N 39 96 0 
N 73 99 0 
N 84 34 0 
N 7 91 0 
N 17 57 0 
O 68 34 0 
O 4 54 0 
7
Atoms. Timestep: 2297
N 38 96 0 
N 72 99 0 
N 83 34 0 
N 6 91 0 
N 16 57 0 
O 67 34 0 
O 3 54 0 
7
Atoms. Timestep: 2298
N 39 96 0 
N 73 99 0 
N 82 34 0 
N 5 91 0 
N 15 57 0 
O 66 34 0 
O 2 54 0 
7
Atoms. Timestep: 2299
N 38 96 0 
N 72 99 0 
N 81 34 0 
N 6 91 0 
N 14 57 0 
O 65 34 0 
O 1 54 0 
7
Atoms. Timestep: 2300
N 37 96 0 
N 71 99 0 
N 80 34 0 
N 5 91 0 
N 13 57 0 
O 64 34 0 
O 0 54 0 
7
Atoms. Timestep: 2301
N 36 96 0 
N 70 99 0 
N 79 34 0 
N 4 91 0 
N 12 57 0 
O 63 34 0 
O 99 54 0 
7
Atoms. Timestep: 2302
N 35 96 0 
N 69 99 0 
N 78 34 0 
N 3 91 0 
N 11 57 0 
O 62 34 0 
O 98 54 0 
7
Atoms. Timestep: 2303
N 34 96 0 
N 68 99 0 
N 77 34 0 
N 2 91 0 
N 10 57 0 
O 61 34 0 
O 97 54 0 
7
Atoms. Timestep: 2304
N 33 96 0 
N 67 99 0 
N 76 34 0 
N 1 91 0 
N 9 57 0 
O 60 34 0 
O 96 54 0 
7
Atoms. Timestep: 2305
N 32 96 0 
N 66 99 0 
N 75 34 0 
N 0 91 0 
N 8 57 0 
O 59 34 0 
O 95 54 0 
7
Atoms. Timestep: 2306
N 31 96 0 
N 65 99 0 
N 74 34 0 
N 99 91 0 
N 7 57 0 
O 58 34 0 
O 94 54 0 
7
Atoms. Timestep: 2307
N 30 96 0 
N 64 99 0 
N 73 34 0 
N 98 91 0 
N 7 56 0 
O 57 34 0 
O 93 54 0 
7
Atoms. Timestep: 2308
N 29 96 0 
N 63 99 0 
N 72 34 0 
N 97 91 0 
N 6 56 0 
O 56 34 0 
O 92 54 0 
7
Atoms. Timestep: 2309
N 28 96 0 
N 62 99 0 
N 71 34 0 
N 96 91 0 
N 5 56 0 
O 55 34 0 
O 91 54 0 
7
Atoms. Timestep: 2310
N 27 96 0 
N 61 99 0 
N 70 34 0 
N 95 91 0 
N 4 56 0 
O 54 34 0 
O 90 54 0 
7
Atoms. Timestep: 2311
N 26 96 0 
N 60 99 0 
N 69 34 0 
N 94 91 0 
N 3 56 0 
O 53 34 0 
O 89 54 0 
7
Atoms. Timestep: 2312
N 25 96 0 
N 59 99 0 
N 68 34 0 
N 93 91 0 
N 2 56 0 
O 52 34 0 
O 88 54 0 
7
Atoms. Timestep: 2313
N 24 96 0 
N 58 99 0 
N 67 34 0 
N 92 91 0 
N 1 56 0 
O 51 34 0 
O 87 54 0 
7
Atoms. Timestep: 2314
N 23 96 0 
N 57 99 0 
N 66 34 0 
N 91 91 0 
N 0 56 0 
O 50 34 0 
O 86 54 0 
7
Atoms. Timestep: 2315
N 22 96 0 
N 56 99 0 
N 65 34 0 
N 90 91 0 
N 99 56 0 
O 49 34 0 
O 85 54 0 
7
Atoms. Timestep: 2316
N 21 96 0 
N 55 99 0 
N 64 34 0 
N 89 91 0 
N 98 56 0 
O 48 34 0 
O 84 54 0 
7
Atoms. Timestep: 2317
N 20 96 0 
N 54 99 0 
N 63 34 0 
N 88 91 0 
N 97 56 0 
O 47 34 0 
O 83 54 0 
7
Atoms. Timestep: 2318
N 19 96 0 
N 53 99 0 
N 62 34 0 
N 87 91 0 
N 96 56 0 
O 46 34 0 
O 82 54 0 
7
Atoms. Timestep: 2319
N 18 96 0 
N 52 99 0 
N 61 34 0 
N 86 91 0 
N 95 56 0 
O 45 34 0 
O 81 54 0 
7
Atoms. Timestep: 2320
N 17 96 0 
N 51 99 0 
N 60 34 0 
N 85 91 0 
N 94 56 0 
O 44 34 0 
O 80 54 0 
7
Atoms. Timestep: 2321
N 16 96 0 
N 50 99 0 
N 59 34 0 
N 84 91 0 
N 93 56 0 
O 43 34 0 
O 79 54 0 
7
Atoms. Timestep: 2322
N 15 96 0 
N 49 99 0 
N 58 34 0 
N 83 91 0 
N 92 56 0 
O 42 34 0 
O 78 54 0 
7
Atoms. Timestep: 2323
N 14 96 0 
N 48 99 0 
N 57 34 0 
N 82 91 0 
N 91 56 0 
O 41 34 0 
O 77 54 0 
7
Atoms. Timestep: 2324
N 13 96 0 
N 47 99 0 
N 56 34 0 
N 81 91 0 
N 90 56 0 
O 40 34 0 
O 76 54 0 
7
Atoms. Timestep: 2325
N 12 96 0 
N 46 99 0 
N 55 34 0 
N 80 91 0 
N 89 56 0 
O 39 34 0 
O 75 54 0 
7
Atoms. Timestep: 2326
N 11 96 0 
N 45 99 0 
N 54 34 0 
N 79 91 0 
N 88 56 0 
O 38 34 0 
O 74 54 0 
7
Atoms. Timestep: 2327
N 10 96 0 
N 44 99 0 
N 53 34 0 
N 78 91 0 
N 87 56 0 
O 37 34 0 
O 73 54 0 
7
Atoms. Timestep: 2328
N 9 96 0 
N 43 99 0 
N 52 34 0 
N 77 91 0 
N 86 56 0 
O 36 34 0 
O 72 54 0 
7
Atoms. Timestep: 2329
N 8 96 0 
N 42 99 0 
N 51 34 0 
N 76 91 0 
N 85 56 0 
O 35 34 0 
O 71 54 0 
7
Atoms. Timestep: 2330
N 7 96 0 
N 41 99 0 
N 50 34 0 
N 75 91 0 
N 84 56 0 
O 34 34 0 
O 70 54 0 
7
Atoms. Timestep: 2331
N 6 96 0 
N 40 99 0 
N 49 34 0 
N 74 91 0 
N 83 56 0 
O 33 34 0 
O 69 54 0 
7
Atoms. Timestep: 2332
N 5 96 0 
N 39 99 0 
N 48 34 0 
N 73 91 0 
N 82 56 0 
O 32 34 0 
O 68 54 0 
7
Atoms. Timestep: 2333
N 4 96 0 
N 38 99 0 
N 47 34 0 
N 72 91 0 
N 81 56 0 
O 31 34 0 
O 67 54 0 
7
Atoms. Timestep: 2334
N 3 96 0 
N 37 99 0 
N 46 34 0 
N 71 91 0 
N 80 56 0 
O 30 34 0 
O 66 54 0 
7
Atoms. Timestep: 2335
N 2 96 0 
N 36 99 0 
N 45 34 0 
N 70 91 0 
N 79 56 0 
O 29 34 0 
O 65 54 0 
7
Atoms. Timestep: 2336
N 3 96 0 
N 37 99 0 
N 44 34 0 
N 70 90 0 
N 78 56 0 
O 28 34 0 
O 64 54 0 
7
Atoms. Timestep: 2337
N 2 96 0 
N 36 99 0 
N 43 34 0 
N 69 90 0 
N 77 56 0 
O 27 34 0 
O 63 54 0 
7
Atoms. Timestep: 2338
N 1 96 0 
N 35 99 0 
N 42 34 0 
N 68 90 0 
N 76 56 0 
O 26 34 0 
O 62 54 0 
7
Atoms. Timestep: 2339
N 0 96 0 
N 34 99 0 
N 41 34 0 
N 67 90 0 
N 75 56 0 
O 25 34 0 
O 61 54 0 
7
Atoms. Timestep: 2340
N 99 96 0 
N 33 99 0 
N 40 34 0 
N 66 90 0 
N 74 56 0 
O 24 34 0 
O 60 54 0 
7
Atoms. Timestep: 2341
N 98 96 0 
N 32 99 0 
N 39 34 0 
N 65 90 0 
N 73 56 0 
O 23 34 0 
O 59 54 0 
7
Atoms. Timestep: 2342
N 97 96 0 
N 31 99 0 
N 39 33 0 
N 64 90 0 
N 72 56 0 
O 22 34 0 
O 58 54 0 
7
Atoms. Timestep: 2343
N 96 96 0 
N 30 99 0 
N 38 33 0 
N 63 90 0 
N 71 56 0 
O 21 34 0 
O 57 54 0 
7
Atoms. Timestep: 2344
N 95 96 0 
N 29 99 0 
N 37 33 0 
N 62 90 0 
N 70 56 0 
O 20 34 0 
O 56 54 0 
7
Atoms. Timestep: 2345
N 94 96 0 
N 28 99 0 
N 36 33 0 
N 61 90 0 
N 69 56 0 
O 19 34 0 
O 55 54 0 
7
Atoms. Timestep: 2346
N 93 96 0 
N 27 99 0 
N 35 33 0 
N 60 90 0 
N 68 56 0 
O 18 34 0 
O 54 54 0 
7
Atoms. Timestep: 2347
N 92 96 0 
N 26 99 0 
N 34 33 0 
N 59 90 0 
N 67 56 0 
O 17 34 0 
O 53 54 0 
7
Atoms. Timestep: 2348
N 91 96 0 
N 25 99 0 
N 33 33 0 
N 58 90 0 
N 66 56 0 
O 16 34 0 
O 52 54 0 
7
Atoms. Timestep: 2349
N 90 96 0 
N 24 99 0 
N 32 33 0 
N 57 90 0 
N 65 56 0 
O 15 34 0 
O 51 54 0 
7
Atoms. Timestep: 2350
N 89 96 0 
N 23 99 0 
N 31 33 0 
N 56 90 0 
N 64 56 0 
O 14 34 0 
O 50 54 0 
7
Atoms. Timestep: 2351
N 88 96 0 
N 22 99 0 
N 30 33 0 
N 55 90 0 
N 63 56 0 
O 13 34 0 
O 49 54 0 
7
Atoms. Timestep: 2352
N 87 96 0 
N 21 99 0 
N 29 33 0 
N 54 90 0 
N 62 56 0 
O 12 34 0 
O 48 54 0 
7
Atoms. Timestep: 2353
N 86 96 0 
N 20 99 0 
N 28 33 0 
N 53 90 0 
N 61 56 0 
O 11 34 0 
O 47 54 0 
7
Atoms. Timestep: 2354
N 85 96 0 
N 19 99 0 
N 27 33 0 
N 52 90 0 
N 60 56 0 
O 10 34 0 
O 46 54 0 
7
Atoms. Timestep: 2355
N 84 96 0 
N 18 99 0 
N 26 33 0 
N 51 90 0 
N 59 56 0 
O 9 34 0 
O 45 54 0 
7
Atoms. Timestep: 2356
N 83 96 0 
N 17 99 0 
N 25 33 0 
N 50 90 0 
N 58 56 0 
O 8 34 0 
O 44 54 0 
7
Atoms. Timestep: 2357
N 82 96 0 
N 16 99 0 
N 24 33 0 
N 49 90 0 
N 57 56 0 
O 7 34 0 
O 43 54 0 
7
Atoms. Timestep: 2358
N 81 96 0 
N 15 99 0 
N 23 33 0 
N 48 90 0 
N 56 56 0 
O 6 34 0 
O 42 54 0 
7
Atoms. Timestep: 2359
N 80 96 0 
N 14 99 0 
N 22 33 0 
N 47 90 0 
N 55 56 0 
O 5 34 0 
O 41 54 0 
7
Atoms. Timestep: 2360
N 79 96 0 
N 13 99 0 
N 21 33 0 
N 46 90 0 
N 54 56 0 
O 4 34 0 
O 40 54 0 
7
Atoms. Timestep: 2361
N 78 96 0 
N 12 99 0 
N 20 33 0 
N 45 90 0 
N 53 56 0 
O 3 34 0 
O 39 54 0 
7
Atoms. Timestep: 2362
N 77 96 0 
N 11 99 0 
N 19 33 0 
N 44 90 0 
N 52 56 0 
O 2 34 0 
O 38 54 0 
7
Atoms. Timestep: 2363
N 76 96 0 
N 10 99 0 
N 18 33 0 
N 43 90 0 
N 51 56 0 
O 1 34 0 
O 37 54 0 
7
Atoms. Timestep: 2364
N 75 96 0 
N 9 99 0 
N 17 33 0 
N 42 90 0 
N 50 56 0 
O 0 34 0 
O 36 54 0 
7
Atoms. Timestep: 2365
N 74 96 0 
N 8 99 0 
N 18 33 0 
N 41 90 0 
N 49 56 0 
O 99 34 0 
O 35 54 0 
7
Atoms. Timestep: 2366
N 73 96 0 
N 7 99 0 
N 17 33 0 
N 40 90 0 
N 48 56 0 
O 98 34 0 
O 34 54 0 
7
Atoms. Timestep: 2367
N 72 96 0 
N 6 99 0 
N 16 33 0 
N 39 90 0 
N 47 56 0 
O 97 34 0 
O 33 54 0 
7
Atoms. Timestep: 2368
N 71 96 0 
N 5 99 0 
N 15 33 0 
N 38 90 0 
N 46 56 0 
O 96 34 0 
O 32 54 0 
7
Atoms. Timestep: 2369
N 70 96 0 
N 4 99 0 
N 14 33 0 
N 37 90 0 
N 45 56 0 
O 95 34 0 
O 31 54 0 
7
Atoms. Timestep: 2370
N 69 96 0 
N 3 99 0 
N 13 33 0 
N 36 90 0 
N 44 56 0 
O 94 34 0 
O 30 54 0 
7
Atoms. Timestep: 2371
N 68 96 0 
N 2 99 0 
N 12 33 0 
N 35 90 0 
N 43 56 0 
O 93 34 0 
O 29 54 0 
7
Atoms. Timestep: 2372
N 67 96 0 
N 1 99 0 
N 11 33 0 
N 34 90 0 
N 42 56 0 
O 92 34 0 
O 28 54 0 
7
Atoms. Timestep: 2373
N 66 96 0 
N 0 99 0 
N 10 33 0 
N 33 90 0 
N 41 56 0 
O 91 34 0 
O 27 54 0 
7
Atoms. Timestep: 2374
N 65 96 0 
N 99 99 0 
N 9 33 0 
N 32 90 0 
N 40 56 0 
O 90 34 0 
O 26 54 0 
7
Atoms. Timestep: 2375
N 64 96 0 
N 98 99 0 
N 8 33 0 
N 31 90 0 
N 39 56 0 
O 89 34 0 
O 25 54 0 
7
Atoms. Timestep: 2376
N 63 96 0 
N 97 99 0 
N 7 33 0 
N 30 90 0 
N 38 56 0 
O 88 34 0 
O 24 54 0 
7
Atoms. Timestep: 2377
N 62 96 0 
N 96 99 0 
N 6 33 0 
N 29 90 0 
N 37 56 0 
O 87 34 0 
O 23 54 0 
7
Atoms. Timestep: 2378
N 61 96 0 
N 95 99 0 
N 5 33 0 
N 28 90 0 
N 36 56 0 
O 86 34 0 
O 22 54 0 
7
Atoms. Timestep: 2379
N 60 96 0 
N 94 99 0 
N 4 33 0 
N 27 90 0 
N 35 56 0 
O 85 34 0 
O 21 54 0 
7
Atoms. Timestep: 2380
N 59 96 0 
N 93 99 0 
N 3 33 0 
N 26 90 0 
N 34 56 0 
O 84 34 0 
O 20 54 0 
7
Atoms. Timestep: 2381
N 58 96 0 
N 92 99 0 
N 2 33 0 
N 25 90 0 
N 33 56 0 
O 83 34 0 
O 19 54 0 
7
Atoms. Timestep: 2382
N 57 96 0 
N 91 99 0 
N 1 33 0 
N 24 90 0 
N 32 56 0 
O 82 34 0 
O 18 54 0 
7
Atoms. Timestep: 2383
N 56 96 0 
N 90 99 0 
N 0 33 0 
N 23 90 0 
N 31 56 0 
O 81 34 0 
O 17 54 0 
7
Atoms. Timestep: 2384
N 55 96 0 
N 89 99 0 
N 99 33 0 
N 22 90 0 
N 30 56 0 
O 80 34 0 
O 16 54 0 
7
Atoms. Timestep: 2385
N 54 96 0 
N 88 99 0 
N 98 33 0 
N 21 90 0 
N 29 56 0 
O 79 34 0 
O 15 54 0 
7
Atoms. Timestep: 2386
N 53 96 0 
N 87 99 0 
N 97 33 0 
N 20 90 0 
N 28 56 0 
O 78 34 0 
O 14 54 0 
7
Atoms. Timestep: 2387
N 52 96 0 
N 86 99 0 
N 96 33 0 
N 19 90 0 
N 27 56 0 
O 77 34 0 
O 13 54 0 
7
Atoms. Timestep: 2388
N 51 96 0 
N 85 99 0 
N 95 33 0 
N 18 90 0 
N 26 56 0 
O 76 34 0 
O 12 54 0 
7
Atoms. Timestep: 2389
N 50 96 0 
N 84 99 0 
N 94 33 0 
N 17 90 0 
N 25 56 0 
O 75 34 0 
O 11 54 0 
7
Atoms. Timestep: 2390
N 49 96 0 
N 83 99 0 
N 93 33 0 
N 16 90 0 
N 24 56 0 
O 74 34 0 
O 10 54 0 
7
Atoms. Timestep: 2391
N 48 96 0 
N 82 99 0 
N 92 33 0 
N 15 90 0 
N 23 56 0 
O 73 34 0 
O 9 54 0 
7
Atoms. Timestep: 2392
N 47 96 0 
N 81 99 0 
N 91 33 0 
N 14 90 0 
N 22 56 0 
O 72 34 0 
O 8 54 0 
7
Atoms. Timestep: 2393
N 46 96 0 
N 81 98 0 
N 90 33 0 
N 13 90 0 
N 21 56 0 
O 71 34 0 
O 7 54 0 
7
Atoms. Timestep: 2394
N 47 96 0 
N 80 98 0 
N 89 33 0 
N 14 90 0 
N 20 56 0 
O 70 34 0 
O 6 54 0 
7
Atoms. Timestep: 2395
N 46 96 0 
N 81 98 0 
N 88 33 0 
N 13 90 0 
N 19 56 0 
O 69 34 0 
O 5 54 0 
7
Atoms. Timestep: 2396
N 47 96 0 
N 80 98 0 
N 87 33 0 
N 14 90 0 
N 18 56 0 
O 68 34 0 
O 4 54 0 
7
Atoms. Timestep: 2397
N 46 96 0 
N 81 98 0 
N 86 33 0 
N 13 90 0 
N 17 56 0 
O 67 34 0 
O 3 54 0 
7
Atoms. Timestep: 2398
N 47 96 0 
N 80 98 0 
N 85 33 0 
N 14 90 0 
N 16 56 0 
O 66 34 0 
O 2 54 0 
7
Atoms. Timestep: 2399
N 46 96 0 
N 81 98 0 
N 84 33 0 
N 13 90 0 
N 15 56 0 
O 65 34 0 
O 1 54 0 
7
Atoms. Timestep: 2400
N 47 96 0 
N 80 98 0 
N 83 33 0 
N 14 90 0 
N 14 56 0 
O 64 34 0 
O 0 54 0 
7
Atoms. Timestep: 2401
N 46 96 0 
N 81 98 0 
N 82 33 0 
N 13 90 0 
N 13 56 0 
O 63 34 0 
O 99 54 0 
7
Atoms. Timestep: 2402
N 47 96 0 
N 80 98 0 
N 81 33 0 
N 14 90 0 
N 12 56 0 
O 62 34 0 
O 98 54 0 
7
Atoms. Timestep: 2403
N 46 96 0 
N 81 98 0 
N 80 33 0 
N 13 90 0 
N 11 56 0 
O 61 34 0 
O 97 54 0 
7
Atoms. Timestep: 2404
N 47 96 0 
N 80 98 0 
N 79 33 0 
N 14 90 0 
N 10 56 0 
O 60 34 0 
O 96 54 0 
7
Atoms. Timestep: 2405
N 46 96 0 
N 81 98 0 
N 78 33 0 
N 13 90 0 
N 9 56 0 
O 59 34 0 
O 95 54 0 
7
Atoms. Timestep: 2406
N 47 96 0 
N 80 98 0 
N 77 33 0 
N 14 90 0 
N 8 56 0 
O 58 34 0 
O 94 54 0 
7
Atoms. Timestep: 2407
N 46 96 0 
N 81 98 0 
N 76 33 0 
N 13 90 0 
N 7 56 0 
O 57 34 0 
O 93 54 0 
7
Atoms. Timestep: 2408
N 47 96 0 
N 80 98 0 
N 75 33 0 
N 14 90 0 
N 6 56 0 
O 56 34 0 
O 92 54 0 
7
Atoms. Timestep: 2409
N 46 96 0 
N 81 98 0 
N 74 33 0 
N 13 90 0 
N 5 56 0 
O 55 34 0 
O 91 54 0 
7
Atoms. Timestep: 2410
N 47 96 0 
N 80 98 0 
N 73 33 0 
N 14 90 0 
N 4 56 0 
O 54 34 0 
O 90 54 0 
7
Atoms. Timestep: 2411
N 46 96 0 
N 81 98 0 
N 72 33 0 
N 13 90 0 
N 3 56 0 
O 53 34 0 
O 89 54 0 
7
Atoms. Timestep: 2412
N 47 96 0 
N 80 98 0 
N 71 33 0 
N 14 90 0 
N 2 56 0 
O 52 34 0 
O 88 54 0 
7
Atoms. Timestep: 2413
N 46 96 0 
N 81 98 0 
N 70 33 0 
N 13 90 0 
N 1 56 0 
O 51 34 0 
O 87 54 0 
7
Atoms. Timestep: 2414
N 47 96 0 
N 80 98 0 
N 69 33 0 
N 14 90 0 
N 0 56 0 
O 50 34 0 
O 86 54 0 
7
Atoms. Timestep: 2415
N 47 97 0 
N 81 98 0 
N 68 33 0 
N 13 90 0 
N 99 56 0 
O 49 34 0 
O 85 54 0 
7
Atoms. Timestep: 2416
N 46 97 0 
N 80 98 0 
N 67 33 0 
N 14 90 0 
N 98 56 0 
O 48 34 0 
O 84 54 0 
7
Atoms. Timestep: 2417
N 45 97 0 
N 79 98 0 
N 66 33 0 
N 13 90 0 
N 97 56 0 
O 47 34 0 
O 83 54 0 
7
Atoms. Timestep: 2418
N 44 97 0 
N 78 98 0 
N 65 33 0 
N 12 90 0 
N 96 56 0 
O 46 34 0 
O 82 54 0 
7
Atoms. Timestep: 2419
N 43 97 0 
N 77 98 0 
N 64 33 0 
N 11 90 0 
N 97 56 0 
O 45 34 0 
O 81 54 0 
7
Atoms. Timestep: 2420
N 42 97 0 
N 76 98 0 
N 63 33 0 
N 10 90 0 
N 96 56 0 
O 44 34 0 
O 80 54 0 
7
Atoms. Timestep: 2421
N 41 97 0 
N 75 98 0 
N 62 33 0 
N 9 90 0 
N 95 56 0 
O 43 34 0 
O 79 54 0 
7
Atoms. Timestep: 2422
N 40 97 0 
N 74 98 0 
N 61 33 0 
N 8 90 0 
N 94 56 0 
O 42 34 0 
O 78 54 0 
7
Atoms. Timestep: 2423
N 39 97 0 
N 73 98 0 
N 60 33 0 
N 7 90 0 
N 93 56 0 
O 41 34 0 
O 77 54 0 
7
Atoms. Timestep: 2424
N 38 97 0 
N 72 98 0 
N 59 33 0 
N 6 90 0 
N 92 56 0 
O 40 34 0 
O 76 54 0 
7
Atoms. Timestep: 2425
N 37 97 0 
N 71 98 0 
N 58 33 0 
N 5 90 0 
N 91 56 0 
O 39 34 0 
O 75 54 0 
7
Atoms. Timestep: 2426
N 36 97 0 
N 70 98 0 
N 57 33 0 
N 4 90 0 
N 90 56 0 
O 38 34 0 
O 74 54 0 
7
Atoms. Timestep: 2427
N 35 97 0 
N 69 98 0 
N 56 33 0 
N 3 90 0 
N 89 56 0 
O 37 34 0 
O 73 54 0 
7
Atoms. Timestep: 2428
N 34 97 0 
N 68 98 0 
N 55 33 0 
N 2 90 0 
N 88 56 0 
O 36 34 0 
O 72 54 0 
7
Atoms. Timestep: 2429
N 33 97 0 
N 67 98 0 
N 54 33 0 
N 1 90 0 
N 87 56 0 
O 35 34 0 
O 71 54 0 
7
Atoms. Timestep: 2430
N 32 97 0 
N 66 98 0 
N 53 33 0 
N 0 90 0 
N 86 56 0 
O 34 34 0 
O 70 54 0 
7
Atoms. Timestep: 2431
N 31 97 0 
N 65 98 0 
N 52 33 0 
N 99 90 0 
N 85 56 0 
O 33 34 0 
O 69 54 0 
7
Atoms. Timestep: 2432
N 30 97 0 
N 64 98 0 
N 51 33 0 
N 98 90 0 
N 84 56 0 
O 32 34 0 
O 68 54 0 
7
Atoms. Timestep: 2433
N 29 97 0 
N 63 98 0 
N 50 33 0 
N 97 90 0 
N 83 56 0 
O 31 34 0 
O 67 54 0 
7
Atoms. Timestep: 2434
N 28 97 0 
N 62 98 0 
N 49 33 0 
N 96 90 0 
N 82 56 0 
O 30 34 0 
O 66 54 0 
7
Atoms. Timestep: 2435
N 27 97 0 
N 61 98 0 
N 48 33 0 
N 95 90 0 
N 81 56 0 
O 29 34 0 
O 65 54 0 
7
Atoms. Timestep: 2436
N 26 97 0 
N 60 98 0 
N 47 33 0 
N 94 90 0 
N 80 56 0 
O 28 34 0 
O 64 54 0 
7
Atoms. Timestep: 2437
N 25 97 0 
N 59 98 0 
N 46 33 0 
N 93 90 0 
N 79 56 0 
O 27 34 0 
O 63 54 0 
7
Atoms. Timestep: 2438
N 24 97 0 
N 58 98 0 
N 45 33 0 
N 92 90 0 
N 78 56 0 
O 26 34 0 
O 62 54 0 
7
Atoms. Timestep: 2439
N 23 97 0 
N 57 98 0 
N 44 33 0 
N 91 90 0 
N 77 56 0 
O 25 34 0 
O 61 54 0 
7
Atoms. Timestep: 2440
N 22 97 0 
N 56 98 0 
N 43 33 0 
N 90 90 0 
N 76 56 0 
O 24 34 0 
O 60 54 0 
7
Atoms. Timestep: 2441
N 21 97 0 
N 55 98 0 
N 42 33 0 
N 89 90 0 
N 75 56 0 
O 23 34 0 
O 59 54 0 
7
Atoms. Timestep: 2442
N 20 97 0 
N 54 98 0 
N 41 33 0 
N 88 90 0 
N 74 56 0 
O 22 34 0 
O 58 54 0 
7
Atoms. Timestep: 2443
N 19 97 0 
N 53 98 0 
N 40 33 0 
N 87 90 0 
N 73 56 0 
O 21 34 0 
O 57 54 0 
7
Atoms. Timestep: 2444
N 18 97 0 
N 52 98 0 
N 39 33 0 
N 86 90 0 
N 72 56 0 
O 20 34 0 
O 56 54 0 
7
Atoms. Timestep: 2445
N 17 97 0 
N 51 98 0 
N 38 33 0 
N 85 90 0 
N 71 56 0 
O 19 34 0 
O 55 54 0 
7
Atoms. Timestep: 2446
N 16 97 0 
N 50 98 0 
N 37 33 0 
N 84 90 0 
N 70 56 0 
O 18 34 0 
O 54 54 0 
7
Atoms. Timestep: 2447
N 15 97 0 
N 49 98 0 
N 36 33 0 
N 83 90 0 
N 69 56 0 
O 17 34 0 
O 53 54 0 
7
Atoms. Timestep: 2448
N 14 97 0 
N 48 98 0 
N 35 33 0 
N 82 90 0 
N 68 56 0 
O 16 34 0 
O 52 54 0 
7
Atoms. Timestep: 2449
N 13 97 0 
N 47 98 0 
N 34 33 0 
N 81 90 0 
N 67 56 0 
O 15 34 0 
O 51 54 0 
7
Atoms. Timestep: 2450
N 12 97 0 
N 46 98 0 
N 33 33 0 
N 80 90 0 
N 66 56 0 
O 14 34 0 
O 50 54 0 
7
Atoms. Timestep: 2451
N 11 97 0 
N 45 98 0 
N 32 33 0 
N 79 90 0 
N 65 56 0 
O 13 34 0 
O 49 54 0 
7
Atoms. Timestep: 2452
N 10 97 0 
N 44 98 0 
N 31 33 0 
N 78 90 0 
N 64 56 0 
O 12 34 0 
O 48 54 0 
7
Atoms. Timestep: 2453
N 9 97 0 
N 43 98 0 
N 30 33 0 
N 77 90 0 
N 63 56 0 
O 11 34 0 
O 47 54 0 
7
Atoms. Timestep: 2454
N 8 97 0 
N 42 98 0 
N 29 33 0 
N 76 90 0 
N 62 56 0 
O 10 34 0 
O 46 54 0 
7
Atoms. Timestep: 2455
N 7 97 0 
N 41 98 0 
N 28 33 0 
N 75 90 0 
N 61 56 0 
O 9 34 0 
O 45 54 0 
7
Atoms. Timestep: 2456
N 6 97 0 
N 40 98 0 
N 27 33 0 
N 74 90 0 
N 60 56 0 
O 8 34 0 
O 44 54 0 
7
Atoms. Timestep: 2457
N 5 97 0 
N 39 98 0 
N 26 33 0 
N 73 90 0 
N 59 56 0 
O 7 34 0 
O 43 54 0 
7
Atoms. Timestep: 2458
N 4 97 0 
N 38 98 0 
N 25 33 0 
N 72 90 0 
N 58 56 0 
O 6 34 0 
O 42 54 0 
7
Atoms. Timestep: 2459
N 3 97 0 
N 37 98 0 
N 24 33 0 
N 71 90 0 
N 57 56 0 
O 5 34 0 
O 41 54 0 
7
Atoms. Timestep: 2460
N 2 97 0 
N 36 98 0 
N 23 33 0 
N 70 90 0 
N 56 56 0 
O 4 34 0 
O 40 54 0 
7
Atoms. Timestep: 2461
N 1 97 0 
N 35 98 0 
N 22 33 0 
N 69 90 0 
N 55 56 0 
O 3 34 0 
O 39 54 0 
7
Atoms. Timestep: 2462
N 0 97 0 
N 34 98 0 
N 21 33 0 
N 68 90 0 
N 54 56 0 
O 2 34 0 
O 38 54 0 
7
Atoms. Timestep: 2463
N 99 97 0 
N 33 98 0 
N 20 33 0 
N 67 90 0 
N 53 56 0 
O 1 34 0 
O 37 54 0 
7
Atoms. Timestep: 2464
N 98 97 0 
N 32 98 0 
N 19 33 0 
N 66 90 0 
N 52 56 0 
O 0 34 0 
O 36 54 0 
7
Atoms. Timestep: 2465
N 97 97 0 
N 31 98 0 
N 18 33 0 
N 65 90 0 
N 51 56 0 
O 99 34 0 
O 35 54 0 
7
Atoms. Timestep: 2466
N 96 97 0 
N 30 98 0 
N 18 32 0 
N 64 90 0 
N 50 56 0 
O 98 34 0 
O 34 54 0 
7
Atoms. Timestep: 2467
N 95 97 0 
N 29 98 0 
N 17 32 0 
N 63 90 0 
N 49 56 0 
O 97 34 0 
O 33 54 0 
7
Atoms. Timestep: 2468
N 94 97 0 
N 28 98 0 
N 16 32 0 
N 62 90 0 
N 48 56 0 
O 96 34 0 
O 32 54 0 
7
Atoms. Timestep: 2469
N 93 97 0 
N 27 98 0 
N 15 32 0 
N 61 90 0 
N 47 56 0 
O 95 34 0 
O 31 54 0 
7
Atoms. Timestep: 2470
N 92 97 0 
N 26 98 0 
N 14 32 0 
N 60 90 0 
N 46 56 0 
O 94 34 0 
O 30 54 0 
7
Atoms. Timestep: 2471
N 91 97 0 
N 25 98 0 
N 13 32 0 
N 59 90 0 
N 45 56 0 
O 93 34 0 
O 29 54 0 
7
Atoms. Timestep: 2472
N 90 97 0 
N 24 98 0 
N 12 32 0 
N 58 90 0 
N 44 56 0 
O 92 34 0 
O 28 54 0 
7
Atoms. Timestep: 2473
N 91 97 0 
N 25 98 0 
N 11 32 0 
N 59 90 0 
N 43 56 0 
O 91 34 0 
O 27 54 0 
7
Atoms. Timestep: 2474
N 90 97 0 
N 24 98 0 
N 10 32 0 
N 58 90 0 
N 42 56 0 
O 90 34 0 
O 26 54 0 
7
Atoms. Timestep: 2475
N 89 97 0 
N 23 98 0 
N 9 32 0 
N 57 90 0 
N 41 56 0 
O 89 34 0 
O 25 54 0 
7
Atoms. Timestep: 2476
N 88 97 0 
N 22 98 0 
N 8 32 0 
N 56 90 0 
N 40 56 0 
O 88 34 0 
O 24 54 0 
7
Atoms. Timestep: 2477
N 87 97 0 
N 21 98 0 
N 7 32 0 
N 55 90 0 
N 39 56 0 
O 87 34 0 
O 23 54 0 
7
Atoms. Timestep: 2478
N 86 97 0 
N 20 98 0 
N 6 32 0 
N 54 90 0 
N 38 56 0 
O 86 34 0 
O 22 54 0 
7
Atoms. Timestep: 2479
N 85 97 0 
N 19 98 0 
N 5 32 0 
N 53 90 0 
N 37 56 0 
O 85 34 0 
O 21 54 0 
7
Atoms. Timestep: 2480
N 84 97 0 
N 18 98 0 
N 4 32 0 
N 52 90 0 
N 36 56 0 
O 84 34 0 
O 20 54 0 
7
Atoms. Timestep: 2481
N 83 97 0 
N 17 98 0 
N 3 32 0 
N 51 90 0 
N 35 56 0 
O 83 34 0 
O 19 54 0 
7
Atoms. Timestep: 2482
N 82 97 0 
N 16 98 0 
N 2 32 0 
N 50 90 0 
N 34 56 0 
O 82 34 0 
O 18 54 0 
7
Atoms. Timestep: 2483
N 81 97 0 
N 15 98 0 
N 1 32 0 
N 49 90 0 
N 33 56 0 
O 81 34 0 
O 17 54 0 
7
Atoms. Timestep: 2484
N 80 97 0 
N 14 98 0 
N 0 32 0 
N 48 90 0 
N 32 56 0 
O 80 34 0 
O 16 54 0 
7
Atoms. Timestep: 2485
N 79 97 0 
N 13 98 0 
N 99 32 0 
N 47 90 0 
N 31 56 0 
O 79 34 0 
O 15 54 0 
7
Atoms. Timestep: 2486
N 78 97 0 
N 12 98 0 
N 98 32 0 
N 46 90 0 
N 30 56 0 
O 78 34 0 
O 14 54 0 
7
Atoms. Timestep: 2487
N 77 97 0 
N 11 98 0 
N 97 32 0 
N 45 90 0 
N 29 56 0 
O 77 34 0 
O 13 54 0 
7
Atoms. Timestep: 2488
N 76 97 0 
N 10 98 0 
N 96 32 0 
N 44 90 0 
N 28 56 0 
O 76 34 0 
O 12 54 0 
7
Atoms. Timestep: 2489
N 75 97 0 
N 9 98 0 
N 95 32 0 
N 43 90 0 
N 27 56 0 
O 75 34 0 
O 11 54 0 
7
Atoms. Timestep: 2490
N 76 97 0 
N 10 98 0 
N 94 32 0 
N 44 90 0 
N 26 56 0 
O 74 34 0 
O 10 54 0 
7
Atoms. Timestep: 2491
N 75 97 0 
N 9 98 0 
N 93 32 0 
N 43 90 0 
N 25 56 0 
O 73 34 0 
O 9 54 0 
7
Atoms. Timestep: 2492
N 74 97 0 
N 8 98 0 
N 92 32 0 
N 42 90 0 
N 24 56 0 
O 72 34 0 
O 8 54 0 
7
Atoms. Timestep: 2493
N 73 97 0 
N 7 98 0 
N 91 32 0 
N 41 90 0 
N 23 56 0 
O 71 34 0 
O 7 54 0 
7
Atoms. Timestep: 2494
N 72 97 0 
N 6 98 0 
N 90 32 0 
N 40 90 0 
N 22 56 0 
O 70 34 0 
O 6 54 0 
7
Atoms. Timestep: 2495
N 71 97 0 
N 5 98 0 
N 89 32 0 
N 39 90 0 
N 21 56 0 
O 69 34 0 
O 5 54 0 
7
Atoms. Timestep: 2496
N 70 97 0 
N 4 98 0 
N 88 32 0 
N 38 90 0 
N 20 56 0 
O 68 34 0 
O 4 54 0 
7
Atoms. Timestep: 2497
N 69 97 0 
N 3 98 0 
N 87 32 0 
N 37 90 0 
N 19 56 0 
O 67 34 0 
O 3 54 0 
7
Atoms. Timestep: 2498
N 68 97 0 
N 2 98 0 
N 86 32 0 
N 36 90 0 
N 18 56 0 
O 66 34 0 
O 2 54 0 
7
Atoms. Timestep: 2499
N 67 97 0 
N 1 98 0 
N 85 32 0 
N 35 90 0 
N 17 56 0 
O 65 34 0 
O 1 54 0 
7
Atoms. Timestep: 2500
N 66 97 0 
N 0 98 0 
N 84 32 0 
N 34 90 0 
N 16 56 0 
O 64 34 0 
O 0 54 0 
7
Atoms. Timestep: 2501
N 65 97 0 
N 99 98 0 
N 83 32 0 
N 33 90 0 
N 15 56 0 
O 63 34 0 
O 99 54 0 
7
Atoms. Timestep: 2502
N 64 97 0 
N 98 98 0 
N 82 32 0 
N 32 90 0 
N 14 56 0 
O 62 34 0 
O 98 54 0 
7
Atoms. Timestep: 2503
N 63 97 0 
N 97 98 0 
N 81 32 0 
N 31 90 0 
N 13 56 0 
O 61 34 0 
O 97 54 0 
7
Atoms. Timestep: 2504
N 62 97 0 
N 96 98 0 
N 80 32 0 
N 30 90 0 
N 12 56 0 
O 60 34 0 
O 96 54 0 
7
Atoms. Timestep: 2505
N 61 97 0 
N 95 98 0 
N 79 32 0 
N 29 90 0 
N 11 56 0 
O 59 34 0 
O 95 54 0 
7
Atoms. Timestep: 2506
N 60 97 0 
N 94 98 0 
N 78 32 0 
N 28 90 0 
N 10 56 0 
O 58 34 0 
O 94 54 0 
7
Atoms. Timestep: 2507
N 59 97 0 
N 93 98 0 
N 77 32 0 
N 27 90 0 
N 9 56 0 
O 57 34 0 
O 93 54 0 
7
Atoms. Timestep: 2508
N 58 97 0 
N 92 98 0 
N 76 32 0 
N 26 90 0 
N 8 56 0 
O 56 34 0 
O 92 54 0 
7
Atoms. Timestep: 2509
N 57 97 0 
N 91 98 0 
N 75 32 0 
N 25 90 0 
N 7 56 0 
O 55 34 0 
O 91 54 0 
7
Atoms. Timestep: 2510
N 56 97 0 
N 90 98 0 
N 74 32 0 
N 24 90 0 
N 6 56 0 
O 54 34 0 
O 90 54 0 
7
Atoms. Timestep: 2511
N 55 97 0 
N 89 98 0 
N 73 32 0 
N 23 90 0 
N 5 56 0 
O 53 34 0 
O 89 54 0 
7
Atoms. Timestep: 2512
N 54 97 0 
N 88 98 0 
N 72 32 0 
N 22 90 0 
N 4 56 0 
O 52 34 0 
O 88 54 0 
7
Atoms. Timestep: 2513
N 53 97 0 
N 87 98 0 
N 71 32 0 
N 21 90 0 
N 3 56 0 
O 51 34 0 
O 87 54 0 
7
Atoms. Timestep: 2514
N 52 97 0 
N 86 98 0 
N 70 32 0 
N 20 90 0 
N 2 56 0 
O 50 34 0 
O 86 54 0 
7
Atoms. Timestep: 2515
N 53 97 0 
N 86 99 0 
N 69 32 0 
N 19 90 0 
N 1 56 0 
O 49 34 0 
O 85 54 0 
7
Atoms. Timestep: 2516
N 52 97 0 
N 87 99 0 
N 68 32 0 
N 18 90 0 
N 0 56 0 
O 48 34 0 
O 84 54 0 
7
Atoms. Timestep: 2517
N 53 97 0 
N 86 99 0 
N 67 32 0 
N 19 90 0 
N 99 56 0 
O 47 34 0 
O 83 54 0 
7
Atoms. Timestep: 2518
N 52 97 0 
N 87 99 0 
N 66 32 0 
N 18 90 0 
N 98 56 0 
O 46 34 0 
O 82 54 0 
7
Atoms. Timestep: 2519
N 53 97 0 
N 86 99 0 
N 65 32 0 
N 19 90 0 
N 97 56 0 
O 45 34 0 
O 81 54 0 
7
Atoms. Timestep: 2520
N 52 97 0 
N 87 99 0 
N 64 32 0 
N 18 90 0 
N 96 56 0 
O 44 34 0 
O 80 54 0 
7
Atoms. Timestep: 2521
N 53 97 0 
N 86 99 0 
N 63 32 0 
N 19 90 0 
N 95 56 0 
O 43 34 0 
O 79 54 0 
7
Atoms. Timestep: 2522
N 52 97 0 
N 87 99 0 
N 62 32 0 
N 18 90 0 
N 94 56 0 
O 42 34 0 
O 78 54 0 
7
Atoms. Timestep: 2523
N 53 97 0 
N 86 99 0 
N 61 32 0 
N 19 90 0 
N 93 56 0 
O 41 34 0 
O 77 54 0 
7
Atoms. Timestep: 2524
N 52 97 0 
N 87 99 0 
N 60 32 0 
N 18 90 0 
N 92 56 0 
O 40 34 0 
O 76 54 0 
7
Atoms. Timestep: 2525
N 53 97 0 
N 86 99 0 
N 59 32 0 
N 19 90 0 
N 91 56 0 
O 39 34 0 
O 75 54 0 
7
Atoms. Timestep: 2526
N 52 97 0 
N 87 99 0 
N 58 32 0 
N 18 90 0 
N 90 56 0 
O 38 34 0 
O 74 54 0 
7
Atoms. Timestep: 2527
N 53 97 0 
N 86 99 0 
N 57 32 0 
N 19 90 0 
N 89 56 0 
O 37 34 0 
O 73 54 0 
7
Atoms. Timestep: 2528
N 52 97 0 
N 87 99 0 
N 56 32 0 
N 18 90 0 
N 88 56 0 
O 36 34 0 
O 72 54 0 
7
Atoms. Timestep: 2529
N 53 97 0 
N 86 99 0 
N 55 32 0 
N 19 90 0 
N 87 56 0 
O 35 34 0 
O 71 54 0 
7
Atoms. Timestep: 2530
N 52 97 0 
N 87 99 0 
N 54 32 0 
N 18 90 0 
N 86 56 0 
O 34 34 0 
O 70 54 0 
7
Atoms. Timestep: 2531
N 53 97 0 
N 86 99 0 
N 53 32 0 
N 19 90 0 
N 85 56 0 
O 33 34 0 
O 69 54 0 
7
Atoms. Timestep: 2532
N 52 97 0 
N 87 99 0 
N 52 32 0 
N 18 90 0 
N 84 56 0 
O 32 34 0 
O 68 54 0 
7
Atoms. Timestep: 2533
N 53 97 0 
N 86 99 0 
N 51 32 0 
N 19 90 0 
N 83 56 0 
O 31 34 0 
O 67 54 0 
7
Atoms. Timestep: 2534
N 52 97 0 
N 87 99 0 
N 50 32 0 
N 18 90 0 
N 82 56 0 
O 30 34 0 
O 66 54 0 
7
Atoms. Timestep: 2535
N 53 97 0 
N 86 99 0 
N 49 32 0 
N 19 90 0 
N 81 56 0 
O 29 34 0 
O 65 54 0 
7
Atoms. Timestep: 2536
N 52 97 0 
N 87 99 0 
N 48 32 0 
N 18 90 0 
N 80 56 0 
O 28 34 0 
O 64 54 0 
7
Atoms. Timestep: 2537
N 53 97 0 
N 86 99 0 
N 47 32 0 
N 19 90 0 
N 79 56 0 
O 27 34 0 
O 63 54 0 
7
Atoms. Timestep: 2538
N 52 97 0 
N 87 99 0 
N 46 32 0 
N 18 90 0 
N 78 56 0 
O 26 34 0 
O 62 54 0 
7
Atoms. Timestep: 2539
N 53 97 0 
N 86 99 0 
N 45 32 0 
N 19 90 0 
N 77 56 0 
O 25 34 0 
O 61 54 0 
7
Atoms. Timestep: 2540
N 52 97 0 
N 87 99 0 
N 44 32 0 
N 18 90 0 
N 76 56 0 
O 24 34 0 
O 60 54 0 
7
Atoms. Timestep: 2541
N 53 97 0 
N 86 99 0 
N 43 32 0 
N 19 90 0 
N 75 56 0 
O 23 34 0 
O 59 54 0 
7
Atoms. Timestep: 2542
N 52 97 0 
N 87 99 0 
N 42 32 0 
N 18 90 0 
N 74 56 0 
O 22 34 0 
O 58 54 0 
7
Atoms. Timestep: 2543
N 53 97 0 
N 86 99 0 
N 41 32 0 
N 19 90 0 
N 73 56 0 
O 21 34 0 
O 57 54 0 
7
Atoms. Timestep: 2544
N 52 97 0 
N 87 99 0 
N 40 32 0 
N 18 90 0 
N 72 56 0 
O 20 34 0 
O 56 54 0 
7
Atoms. Timestep: 2545
N 53 97 0 
N 86 99 0 
N 39 32 0 
N 19 90 0 
N 71 56 0 
O 19 34 0 
O 55 54 0 
7
Atoms. Timestep: 2546
N 52 97 0 
N 87 99 0 
N 38 32 0 
N 18 90 0 
N 70 56 0 
O 18 34 0 
O 54 54 0 
7
Atoms. Timestep: 2547
N 53 97 0 
N 86 99 0 
N 37 32 0 
N 19 90 0 
N 69 56 0 
O 17 34 0 
O 53 54 0 
7
Atoms. Timestep: 2548
N 52 97 0 
N 87 99 0 
N 36 32 0 
N 18 90 0 
N 68 56 0 
O 16 34 0 
O 52 54 0 
7
Atoms. Timestep: 2549
N 53 97 0 
N 86 99 0 
N 35 32 0 
N 19 90 0 
N 67 56 0 
O 15 34 0 
O 51 54 0 
7
Atoms. Timestep: 2550
N 52 97 0 
N 87 99 0 
N 34 32 0 
N 18 90 0 
N 66 56 0 
O 14 34 0 
O 50 54 0 
7
Atoms. Timestep: 2551
N 53 97 0 
N 86 99 0 
N 33 32 0 
N 19 90 0 
N 65 56 0 
O 13 34 0 
O 49 54 0 
7
Atoms. Timestep: 2552
N 52 97 0 
N 87 99 0 
N 32 32 0 
N 18 90 0 
N 64 56 0 
O 12 34 0 
O 48 54 0 
7
Atoms. Timestep: 2553
N 53 97 0 
N 86 99 0 
N 31 32 0 
N 19 90 0 
N 63 56 0 
O 11 34 0 
O 47 54 0 
7
Atoms. Timestep: 2554
N 52 97 0 
N 87 99 0 
N 30 32 0 
N 18 90 0 
N 62 56 0 
O 10 34 0 
O 46 54 0 
7
Atoms. Timestep: 2555
N 53 97 0 
N 86 99 0 
N 29 32 0 
N 19 90 0 
N 61 56 0 
O 9 34 0 
O 45 54 0 
7
Atoms. Timestep: 2556
N 52 97 0 
N 87 99 0 
N 28 32 0 
N 18 90 0 
N 60 56 0 
O 8 34 0 
O 44 54 0 
7
Atoms. Timestep: 2557
N 53 97 0 
N 86 99 0 
N 27 32 0 
N 19 90 0 
N 59 56 0 
O 7 34 0 
O 43 54 0 
7
Atoms. Timestep: 2558
N 52 97 0 
N 87 99 0 
N 26 32 0 
N 18 90 0 
N 58 56 0 
O 6 34 0 
O 42 54 0 
7
Atoms. Timestep: 2559
N 53 97 0 
N 86 99 0 
N 25 32 0 
N 19 90 0 
N 57 56 0 
O 5 34 0 
O 41 54 0 
7
Atoms. Timestep: 2560
N 52 97 0 
N 87 99 0 
N 24 32 0 
N 18 90 0 
N 56 56 0 
O 4 34 0 
O 40 54 0 
7
Atoms. Timestep: 2561
N 53 97 0 
N 86 99 0 
N 23 32 0 
N 19 90 0 
N 55 56 0 
O 3 34 0 
O 39 54 0 
7
Atoms. Timestep: 2562
N 52 97 0 
N 87 99 0 
N 22 32 0 
N 18 90 0 
N 54 56 0 
O 2 34 0 
O 38 54 0 
7
Atoms. Timestep: 2563
N 53 97 0 
N 86 99 0 
N 21 32 0 
N 19 90 0 
N 53 56 0 
O 1 34 0 
O 37 54 0 
7
Atoms. Timestep: 2564
N 52 97 0 
N 87 99 0 
N 20 32 0 
N 18 90 0 
N 52 56 0 
O 0 34 0 
O 36 54 0 
7
Atoms. Timestep: 2565
N 53 97 0 
N 86 99 0 
N 19 32 0 
N 19 90 0 
N 51 56 0 
O 99 34 0 
O 35 54 0 
7
Atoms. Timestep: 2566
N 52 97 0 
N 87 99 0 
N 18 32 0 
N 18 90 0 
N 50 56 0 
O 98 34 0 
O 34 54 0 
7
Atoms. Timestep: 2567
N 53 97 0 
N 86 99 0 
N 17 32 0 
N 19 90 0 
N 49 56 0 
O 97 34 0 
O 33 54 0 
7
Atoms. Timestep: 2568
N 52 97 0 
N 87 99 0 
N 16 32 0 
N 18 90 0 
N 48 56 0 
O 96 34 0 
O 32 54 0 
7
Atoms. Timestep: 2569
N 53 97 0 
N 87 98 0 
N 15 32 0 
N 19 90 0 
N 47 56 0 
O 95 34 0 
O 31 54 0 
7
Atoms. Timestep: 2570
N 52 97 0 
N 86 98 0 
N 14 32 0 
N 20 90 0 
N 46 56 0 
O 94 34 0 
O 30 54 0 
7
Atoms. Timestep: 2571
N 51 97 0 
N 85 98 0 
N 13 32 0 
N 19 90 0 
N 45 56 0 
O 93 34 0 
O 29 54 0 
7
Atoms. Timestep: 2572
N 50 97 0 
N 84 98 0 
N 12 32 0 
N 18 90 0 
N 44 56 0 
O 92 34 0 
O 28 54 0 
7
Atoms. Timestep: 2573
N 49 97 0 
N 83 98 0 
N 11 32 0 
N 17 90 0 
N 43 56 0 
O 91 34 0 
O 27 54 0 
7
Atoms. Timestep: 2574
N 48 97 0 
N 82 98 0 
N 10 32 0 
N 16 90 0 
N 42 56 0 
O 90 34 0 
O 26 54 0 
7
Atoms. Timestep: 2575
N 47 97 0 
N 81 98 0 
N 9 32 0 
N 15 90 0 
N 41 56 0 
O 89 34 0 
O 25 54 0 
7
Atoms. Timestep: 2576
N 46 97 0 
N 80 98 0 
N 8 32 0 
N 14 90 0 
N 40 56 0 
O 88 34 0 
O 24 54 0 
7
Atoms. Timestep: 2577
N 45 97 0 
N 79 98 0 
N 7 32 0 
N 13 90 0 
N 39 56 0 
O 87 34 0 
O 23 54 0 
7
Atoms. Timestep: 2578
N 44 97 0 
N 78 98 0 
N 6 32 0 
N 12 90 0 
N 38 56 0 
O 86 34 0 
O 22 54 0 
7
Atoms. Timestep: 2579
N 43 97 0 
N 77 98 0 
N 5 32 0 
N 11 90 0 
N 37 56 0 
O 85 34 0 
O 21 54 0 
7
Atoms. Timestep: 2580
N 42 97 0 
N 76 98 0 
N 4 32 0 
N 10 90 0 
N 36 56 0 
O 84 34 0 
O 20 54 0 
7
Atoms. Timestep: 2581
N 41 97 0 
N 75 98 0 
N 3 32 0 
N 9 90 0 
N 35 56 0 
O 83 34 0 
O 19 54 0 
7
Atoms. Timestep: 2582
N 40 97 0 
N 74 98 0 
N 2 32 0 
N 8 90 0 
N 34 56 0 
O 82 34 0 
O 18 54 0 
7
Atoms. Timestep: 2583
N 39 97 0 
N 73 98 0 
N 1 32 0 
N 7 90 0 
N 33 56 0 
O 81 34 0 
O 17 54 0 
7
Atoms. Timestep: 2584
N 38 97 0 
N 72 98 0 
N 0 32 0 
N 6 90 0 
N 32 56 0 
O 80 34 0 
O 16 54 0 
7
Atoms. Timestep: 2585
N 37 97 0 
N 71 98 0 
N 99 32 0 
N 5 90 0 
N 31 56 0 
O 79 34 0 
O 15 54 0 
7
Atoms. Timestep: 2586
N 36 97 0 
N 70 98 0 
N 98 32 0 
N 4 90 0 
N 30 56 0 
O 78 34 0 
O 14 54 0 
7
Atoms. Timestep: 2587
N 35 97 0 
N 69 98 0 
N 97 32 0 
N 3 90 0 
N 29 56 0 
O 77 34 0 
O 13 54 0 
7
Atoms. Timestep: 2588
N 34 97 0 
N 68 98 0 
N 96 32 0 
N 2 90 0 
N 28 56 0 
O 76 34 0 
O 12 54 0 
7
Atoms. Timestep: 2589
N 33 97 0 
N 67 98 0 
N 95 32 0 
N 1 90 0 
N 27 56 0 
O 75 34 0 
O 11 54 0 
7
Atoms. Timestep: 2590
N 32 97 0 
N 66 98 0 
N 94 32 0 
N 0 90 0 
N 26 56 0 
O 74 34 0 
O 10 54 0 
7
Atoms. Timestep: 2591
N 31 97 0 
N 65 98 0 
N 93 32 0 
N 99 90 0 
N 25 56 0 
O 73 34 0 
O 9 54 0 
7
Atoms. Timestep: 2592
N 30 97 0 
N 64 98 0 
N 92 32 0 
N 98 90 0 
N 24 56 0 
O 72 34 0 
O 8 54 0 
7
Atoms. Timestep: 2593
N 29 97 0 
N 63 98 0 
N 91 32 0 
N 97 90 0 
N 23 56 0 
O 71 34 0 
O 7 54 0 
7
Atoms. Timestep: 2594
N 28 97 0 
N 62 98 0 
N 90 32 0 
N 96 90 0 
N 22 56 0 
O 70 34 0 
O 6 54 0 
7
Atoms. Timestep: 2595
N 27 97 0 
N 61 98 0 
N 89 32 0 
N 95 90 0 
N 21 56 0 
O 69 34 0 
O 5 54 0 
7
Atoms. Timestep: 2596
N 26 97 0 
N 60 98 0 
N 88 32 0 
N 94 90 0 
N 20 56 0 
O 68 34 0 
O 4 54 0 
7
Atoms. Timestep: 2597
N 25 97 0 
N 59 98 0 
N 87 32 0 
N 93 90 0 
N 19 56 0 
O 67 34 0 
O 3 54 0 
7
Atoms. Timestep: 2598
N 24 97 0 
N 58 98 0 
N 86 32 0 
N 92 90 0 
N 18 56 0 
O 66 34 0 
O 2 54 0 
7
Atoms. Timestep: 2599
N 23 97 0 
N 57 98 0 
N 85 32 0 
N 91 90 0 
N 17 56 0 
O 65 34 0 
O 1 54 0 
7
Atoms. Timestep: 2600
N 22 97 0 
N 56 98 0 
N 84 32 0 
N 90 90 0 
N 16 56 0 
O 64 34 0 
O 0 54 0 
7
Atoms. Timestep: 2601
N 21 97 0 
N 55 98 0 
N 83 32 0 
N 89 90 0 
N 15 56 0 
O 63 34 0 
O 99 54 0 
7
Atoms. Timestep: 2602
N 20 97 0 
N 54 98 0 
N 82 32 0 
N 88 90 0 
N 14 56 0 
O 62 34 0 
O 98 54 0 
7
Atoms. Timestep: 2603
N 19 97 0 
N 53 98 0 
N 81 32 0 
N 87 90 0 
N 13 56 0 
O 61 34 0 
O 97 54 0 
7
Atoms. Timestep: 2604
N 18 97 0 
N 52 98 0 
N 80 32 0 
N 86 90 0 
N 12 56 0 
O 60 34 0 
O 96 54 0 
7
Atoms. Timestep: 2605
N 17 97 0 
N 51 98 0 
N 79 32 0 
N 85 90 0 
N 11 56 0 
O 59 34 0 
O 95 54 0 
7
Atoms. Timestep: 2606
N 16 97 0 
N 50 98 0 
N 78 32 0 
N 84 90 0 
N 10 56 0 
O 58 34 0 
O 94 54 0 
7
Atoms. Timestep: 2607
N 15 97 0 
N 49 98 0 
N 77 32 0 
N 83 90 0 
N 9 56 0 
O 57 34 0 
O 93 54 0 
7
Atoms. Timestep: 2608
N 14 97 0 
N 48 98 0 
N 76 32 0 
N 82 90 0 
N 8 56 0 
O 56 34 0 
O 92 54 0 
7
Atoms. Timestep: 2609
N 13 97 0 
N 47 98 0 
N 75 32 0 
N 81 90 0 
N 7 56 0 
O 55 34 0 
O 91 54 0 
7
Atoms. Timestep: 2610
N 12 97 0 
N 46 98 0 
N 74 32 0 
N 80 90 0 
N 6 56 0 
O 54 34 0 
O 90 54 0 
7
Atoms. Timestep: 2611
N 11 97 0 
N 45 98 0 
N 73 32 0 
N 79 90 0 
N 5 56 0 
O 53 34 0 
O 89 54 0 
7
Atoms. Timestep: 2612
N 10 97 0 
N 44 98 0 
N 72 32 0 
N 78 90 0 
N 4 56 0 
O 52 34 0 
O 88 54 0 
7
Atoms. Timestep: 2613
N 9 97 0 
N 43 98 0 
N 71 32 0 
N 77 90 0 
N 3 56 0 
O 51 34 0 
O 87 54 0 
7
Atoms. Timestep: 2614
N 8 97 0 
N 42 98 0 
N 70 32 0 
N 76 90 0 
N 2 56 0 
O 50 34 0 
O 86 54 0 
7
Atoms. Timestep: 2615
N 7 97 0 
N 41 98 0 
N 69 32 0 
N 75 90 0 
N 1 56 0 
O 49 34 0 
O 85 54 0 
7
Atoms. Timestep: 2616
N 6 97 0 
N 40 98 0 
N 68 32 0 
N 74 90 0 
N 0 56 0 
O 48 34 0 
O 84 54 0 
7
Atoms. Timestep: 2617
N 5 97 0 
N 39 98 0 
N 67 32 0 
N 73 90 0 
N 99 56 0 
O 47 34 0 
O 83 54 0 
7
Atoms. Timestep: 2618
N 4 97 0 
N 38 98 0 
N 66 32 0 
N 72 90 0 
N 98 56 0 
O 46 34 0 
O 82 54 0 
7
Atoms. Timestep: 2619
N 3 97 0 
N 37 98 0 
N 65 32 0 
N 71 90 0 
N 97 56 0 
O 45 34 0 
O 81 54 0 
7
Atoms. Timestep: 2620
N 2 97 0 
N 36 98 0 
N 64 32 0 
N 70 90 0 
N 96 56 0 
O 44 34 0 
O 80 54 0 
7
Atoms. Timestep: 2621
N 1 97 0 
N 35 98 0 
N 63 32 0 
N 69 90 0 
N 95 56 0 
O 43 34 0 
O 79 54 0 
7
Atoms. Timestep: 2622
N 0 97 0 
N 34 98 0 
N 62 32 0 
N 68 90 0 
N 94 56 0 
O 42 34 0 
O 78 54 0 
7
Atoms. Timestep: 2623
N 99 97 0 
N 33 98 0 
N 61 32 0 
N 67 90 0 
N 93 56 0 
O 41 34 0 
O 77 54 0 
7
Atoms. Timestep: 2624
N 98 97 0 
N 32 98 0 
N 60 32 0 
N 66 90 0 
N 92 56 0 
O 40 34 0 
O 76 54 0 
7
Atoms. Timestep: 2625
N 97 97 0 
N 31 98 0 
N 59 32 0 
N 65 90 0 
N 91 56 0 
O 39 34 0 
O 75 54 0 
7
Atoms. Timestep: 2626
N 96 97 0 
N 30 98 0 
N 58 32 0 
N 64 90 0 
N 90 56 0 
O 38 34 0 
O 74 54 0 
7
Atoms. Timestep: 2627
N 95 97 0 
N 29 98 0 
N 57 32 0 
N 63 90 0 
N 89 56 0 
O 37 34 0 
O 73 54 0 
7
Atoms. Timestep: 2628
N 94 97 0 
N 28 98 0 
N 56 32 0 
N 62 90 0 
N 88 56 0 
O 36 34 0 
O 72 54 0 
7
Atoms. Timestep: 2629
N 93 97 0 
N 27 98 0 
N 55 32 0 
N 61 90 0 
N 87 56 0 
O 35 34 0 
O 71 54 0 
7
Atoms. Timestep: 2630
N 92 97 0 
N 26 98 0 
N 54 32 0 
N 60 90 0 
N 86 56 0 
O 34 34 0 
O 70 54 0 
7
Atoms. Timestep: 2631
N 91 97 0 
N 25 98 0 
N 53 32 0 
N 59 90 0 
N 85 56 0 
O 33 34 0 
O 69 54 0 
7
Atoms. Timestep: 2632
N 90 97 0 
N 24 98 0 
N 52 32 0 
N 58 90 0 
N 84 56 0 
O 32 34 0 
O 68 54 0 
7
Atoms. Timestep: 2633
N 89 97 0 
N 23 98 0 
N 51 32 0 
N 57 90 0 
N 83 56 0 
O 31 34 0 
O 67 54 0 
7
Atoms. Timestep: 2634
N 88 97 0 
N 22 98 0 
N 50 32 0 
N 56 90 0 
N 82 56 0 
O 30 34 0 
O 66 54 0 
7
Atoms. Timestep: 2635
N 87 97 0 
N 21 98 0 
N 49 32 0 
N 55 90 0 
N 81 56 0 
O 29 34 0 
O 65 54 0 
7
Atoms. Timestep: 2636
N 86 97 0 
N 20 98 0 
N 48 32 0 
N 54 90 0 
N 80 56 0 
O 28 34 0 
O 64 54 0 
7
Atoms. Timestep: 2637
N 85 97 0 
N 19 98 0 
N 47 32 0 
N 53 90 0 
N 79 56 0 
O 27 34 0 
O 63 54 0 
7
Atoms. Timestep: 2638
N 84 97 0 
N 18 98 0 
N 46 32 0 
N 52 90 0 
N 78 56 0 
O 26 34 0 
O 62 54 0 
7
Atoms. Timestep: 2639
N 83 97 0 
N 17 98 0 
N 45 32 0 
N 51 90 0 
N 77 56 0 
O 25 34 0 
O 61 54 0 
7
Atoms. Timestep: 2640
N 82 97 0 
N 16 98 0 
N 44 32 0 
N 50 90 0 
N 76 56 0 
O 24 34 0 
O 60 54 0 
7
Atoms. Timestep: 2641
N 81 97 0 
N 15 98 0 
N 43 32 0 
N 49 90 0 
N 75 56 0 
O 23 34 0 
O 59 54 0 
7
Atoms. Timestep: 2642
N 80 97 0 
N 14 98 0 
N 42 32 0 
N 48 90 0 
N 74 56 0 
O 22 34 0 
O 58 54 0 
7
Atoms. Timestep: 2643
N 79 97 0 
N 13 98 0 
N 41 32 0 
N 47 90 0 
N 73 56 0 
O 21 34 0 
O 57 54 0 
7
Atoms. Timestep: 2644
N 78 97 0 
N 12 98 0 
N 40 32 0 
N 46 90 0 
N 72 56 0 
O 20 34 0 
O 56 54 0 
7
Atoms. Timestep: 2645
N 77 97 0 
N 11 98 0 
N 39 32 0 
N 45 90 0 
N 71 56 0 
O 19 34 0 
O 55 54 0 
7
Atoms. Timestep: 2646
N 76 97 0 
N 10 98 0 
N 38 32 0 
N 44 90 0 
N 70 56 0 
O 18 34 0 
O 54 54 0 
7
Atoms. Timestep: 2647
N 75 97 0 
N 9 98 0 
N 37 32 0 
N 43 90 0 
N 69 56 0 
O 17 34 0 
O 53 54 0 
7
Atoms. Timestep: 2648
N 74 97 0 
N 8 98 0 
N 36 32 0 
N 42 90 0 
N 68 56 0 
O 16 34 0 
O 52 54 0 
7
Atoms. Timestep: 2649
N 73 97 0 
N 7 98 0 
N 35 32 0 
N 41 90 0 
N 67 56 0 
O 15 34 0 
O 51 54 0 
7
Atoms. Timestep: 2650
N 72 97 0 
N 6 98 0 
N 34 32 0 
N 40 90 0 
N 66 56 0 
O 14 34 0 
O 50 54 0 
7
Atoms. Timestep: 2651
N 71 97 0 
N 5 98 0 
N 33 32 0 
N 39 90 0 
N 65 56 0 
O 13 34 0 
O 49 54 0 
7
Atoms. Timestep: 2652
N 70 97 0 
N 4 98 0 
N 32 32 0 
N 38 90 0 
N 66 56 0 
O 12 34 0 
O 48 54 0 
7
Atoms. Timestep: 2653
N 69 97 0 
N 3 98 0 
N 31 32 0 
N 37 90 0 
N 65 56 0 
O 11 34 0 
O 47 54 0 
7
Atoms. Timestep: 2654
N 68 97 0 
N 2 98 0 
N 30 32 0 
N 36 90 0 
N 64 56 0 
O 10 34 0 
O 46 54 0 
7
Atoms. Timestep: 2655
N 67 97 0 
N 1 98 0 
N 29 32 0 
N 35 90 0 
N 63 56 0 
O 9 34 0 
O 45 54 0 
7
Atoms. Timestep: 2656
N 66 97 0 
N 0 98 0 
N 28 32 0 
N 34 90 0 
N 62 56 0 
O 8 34 0 
O 44 54 0 
7
Atoms. Timestep: 2657
N 65 97 0 
N 99 98 0 
N 27 32 0 
N 33 90 0 
N 61 56 0 
O 7 34 0 
O 43 54 0 
7
Atoms. Timestep: 2658
N 64 97 0 
N 98 98 0 
N 26 32 0 
N 32 90 0 
N 60 56 0 
O 6 34 0 
O 42 54 0 
7
Atoms. Timestep: 2659
N 63 97 0 
N 97 98 0 
N 25 32 0 
N 31 90 0 
N 59 56 0 
O 5 34 0 
O 41 54 0 
7
Atoms. Timestep: 2660
N 62 97 0 
N 96 98 0 
N 24 32 0 
N 30 90 0 
N 58 56 0 
O 4 34 0 
O 40 54 0 
7
Atoms. Timestep: 2661
N 61 97 0 
N 95 98 0 
N 23 32 0 
N 29 90 0 
N 57 56 0 
O 3 34 0 
O 39 54 0 
7
Atoms. Timestep: 2662
N 60 97 0 
N 94 98 0 
N 22 32 0 
N 28 90 0 
N 56 56 0 
O 2 34 0 
O 38 54 0 
7
Atoms. Timestep: 2663
N 59 97 0 
N 93 98 0 
N 21 32 0 
N 27 90 0 
N 55 56 0 
O 1 34 0 
O 37 54 0 
7
Atoms. Timestep: 2664
N 58 97 0 
N 92 98 0 
N 20 32 0 
N 26 90 0 
N 54 56 0 
O 0 34 0 
O 36 54 0 
7
Atoms. Timestep: 2665
N 57 97 0 
N 91 98 0 
N 19 32 0 
N 25 90 0 
N 53 56 0 
O 99 34 0 
O 35 54 0 
7
Atoms. Timestep: 2666
N 56 97 0 
N 90 98 0 
N 18 32 0 
N 24 90 0 
N 52 56 0 
O 98 34 0 
O 34 54 0 
7
Atoms. Timestep: 2667
N 55 97 0 
N 89 98 0 
N 17 32 0 
N 23 90 0 
N 51 56 0 
O 97 34 0 
O 33 54 0 
7
Atoms. Timestep: 2668
N 54 97 0 
N 88 98 0 
N 16 32 0 
N 22 90 0 
N 50 56 0 
O 96 34 0 
O 32 54 0 
7
Atoms. Timestep: 2669
N 53 97 0 
N 87 98 0 
N 15 32 0 
N 21 90 0 
N 49 56 0 
O 95 34 0 
O 31 54 0 
7
Atoms. Timestep: 2670
N 52 97 0 
N 86 98 0 
N 14 32 0 
N 20 90 0 
N 48 56 0 
O 94 34 0 
O 30 54 0 
7
Atoms. Timestep: 2671
N 51 97 0 
N 85 98 0 
N 13 32 0 
N 19 90 0 
N 47 56 0 
O 93 34 0 
O 29 54 0 
7
Atoms. Timestep: 2672
N 50 97 0 
N 84 98 0 
N 12 32 0 
N 18 90 0 
N 46 56 0 
O 92 34 0 
O 28 54 0 
7
Atoms. Timestep: 2673
N 49 97 0 
N 83 98 0 
N 11 32 0 
N 17 90 0 
N 45 56 0 
O 91 34 0 
O 27 54 0 
7
Atoms. Timestep: 2674
N 48 97 0 
N 82 98 0 
N 10 32 0 
N 16 90 0 
N 44 56 0 
O 90 34 0 
O 26 54 0 
7
Atoms. Timestep: 2675
N 47 97 0 
N 81 98 0 
N 9 32 0 
N 15 90 0 
N 43 56 0 
O 89 34 0 
O 25 54 0 
7
Atoms. Timestep: 2676
N 46 97 0 
N 80 98 0 
N 8 32 0 
N 14 90 0 
N 42 56 0 
O 88 34 0 
O 24 54 0 
7
Atoms. Timestep: 2677
N 45 97 0 
N 79 98 0 
N 7 32 0 
N 13 90 0 
N 41 56 0 
O 87 34 0 
O 23 54 0 
7
Atoms. Timestep: 2678
N 44 97 0 
N 78 98 0 
N 6 32 0 
N 12 90 0 
N 40 56 0 
O 86 34 0 
O 22 54 0 
7
Atoms. Timestep: 2679
N 43 97 0 
N 77 98 0 
N 5 32 0 
N 11 90 0 
N 39 56 0 
O 85 34 0 
O 21 54 0 
7
Atoms. Timestep: 2680
N 42 97 0 
N 76 98 0 
N 4 32 0 
N 10 90 0 
N 38 56 0 
O 84 34 0 
O 20 54 0 
7
Atoms. Timestep: 2681
N 41 97 0 
N 75 98 0 
N 3 32 0 
N 9 90 0 
N 37 56 0 
O 83 34 0 
O 19 54 0 
7
Atoms. Timestep: 2682
N 40 97 0 
N 74 98 0 
N 2 32 0 
N 8 90 0 
N 36 56 0 
O 82 34 0 
O 18 54 0 
7
Atoms. Timestep: 2683
N 39 97 0 
N 73 98 0 
N 1 32 0 
N 7 90 0 
N 35 56 0 
O 81 34 0 
O 17 54 0 
7
Atoms. Timestep: 2684
N 38 97 0 
N 72 98 0 
N 0 32 0 
N 6 90 0 
N 34 56 0 
O 80 34 0 
O 16 54 0 
7
Atoms. Timestep: 2685
N 37 97 0 
N 71 98 0 
N 99 32 0 
N 5 90 0 
N 33 56 0 
O 79 34 0 
O 15 54 0 
7
Atoms. Timestep: 2686
N 36 97 0 
N 70 98 0 
N 98 32 0 
N 4 90 0 
N 32 56 0 
O 78 34 0 
O 14 54 0 
7
Atoms. Timestep: 2687
N 35 97 0 
N 69 98 0 
N 97 32 0 
N 3 90 0 
N 31 56 0 
O 77 34 0 
O 13 54 0 
7
Atoms. Timestep: 2688
N 34 97 0 
N 68 98 0 
N 96 32 0 
N 2 90 0 
N 30 56 0 
O 76 34 0 
O 12 54 0 
7
Atoms. Timestep: 2689
N 33 97 0 
N 67 98 0 
N 95 32 0 
N 1 90 0 
N 29 56 0 
O 75 34 0 
O 11 54 0 
7
Atoms. Timestep: 2690
N 32 97 0 
N 66 98 0 
N 94 32 0 
N 0 90 0 
N 28 56 0 
O 74 34 0 
O 10 54 0 
7
Atoms. Timestep: 2691
N 31 97 0 
N 65 98 0 
N 93 32 0 
N 99 90 0 
N 27 56 0 
O 73 34 0 
O 9 54 0 
7
Atoms. Timestep: 2692
N 30 97 0 
N 64 98 0 
N 92 32 0 
N 98 90 0 
N 26 56 0 
O 72 34 0 
O 8 54 0 
7
Atoms. Timestep: 2693
N 29 97 0 
N 63 98 0 
N 91 32 0 
N 97 90 0 
N 25 56 0 
O 71 34 0 
O 7 54 0 
7
Atoms. Timestep: 2694
N 28 97 0 
N 62 98 0 
N 90 32 0 
N 96 90 0 
N 24 56 0 
O 70 34 0 
O 6 54 0 
7
Atoms. Timestep: 2695
N 27 97 0 
N 61 98 0 
N 89 32 0 
N 95 90 0 
N 23 56 0 
O 69 34 0 
O 5 54 0 
7
Atoms. Timestep: 2696
N 26 97 0 
N 60 98 0 
N 88 32 0 
N 94 90 0 
N 22 56 0 
O 68 34 0 
O 4 54 0 
7
Atoms. Timestep: 2697
N 25 97 0 
N 59 98 0 
N 87 32 0 
N 93 90 0 
N 21 56 0 
O 67 34 0 
O 3 54 0 
7
Atoms. Timestep: 2698
N 24 97 0 
N 58 98 0 
N 86 32 0 
N 92 90 0 
N 20 56 0 
O 66 34 0 
O 2 54 0 
7
Atoms. Timestep: 2699
N 23 97 0 
N 57 98 0 
N 85 32 0 
N 91 90 0 
N 19 56 0 
O 65 34 0 
O 1 54 0 
7
Atoms. Timestep: 2700
N 22 97 0 
N 56 98 0 
N 84 32 0 
N 90 90 0 
N 18 56 0 
O 64 34 0 
O 0 54 0 
7
Atoms. Timestep: 2701
N 21 97 0 
N 55 98 0 
N 83 32 0 
N 89 90 0 
N 17 56 0 
O 63 34 0 
O 99 54 0 
7
Atoms. Timestep: 2702
N 20 97 0 
N 54 98 0 
N 82 32 0 
N 88 90 0 
N 16 56 0 
O 62 34 0 
O 98 54 0 
7
Atoms. Timestep: 2703
N 19 97 0 
N 53 98 0 
N 81 32 0 
N 87 90 0 
N 15 56 0 
O 61 34 0 
O 97 54 0 
7
Atoms. Timestep: 2704
N 18 97 0 
N 52 98 0 
N 80 32 0 
N 86 90 0 
N 14 56 0 
O 60 34 0 
O 96 54 0 
7
Atoms. Timestep: 2705
N 17 97 0 
N 51 98 0 
N 79 32 0 
N 85 90 0 
N 13 56 0 
O 59 34 0 
O 95 54 0 
7
Atoms. Timestep: 2706
N 16 97 0 
N 50 98 0 
N 78 32 0 
N 84 90 0 
N 12 56 0 
O 58 34 0 
O 94 54 0 
7
Atoms. Timestep: 2707
N 15 97 0 
N 49 98 0 
N 77 32 0 
N 83 90 0 
N 11 56 0 
O 57 34 0 
O 93 54 0 
7
Atoms. Timestep: 2708
N 14 97 0 
N 48 98 0 
N 76 32 0 
N 82 90 0 
N 10 56 0 
O 56 34 0 
O 92 54 0 
7
Atoms. Timestep: 2709
N 13 97 0 
N 47 98 0 
N 75 32 0 
N 81 90 0 
N 9 56 0 
O 55 34 0 
O 91 54 0 
7
Atoms. Timestep: 2710
N 12 97 0 
N 46 98 0 
N 74 32 0 
N 80 90 0 
N 8 56 0 
O 54 34 0 
O 90 54 0 
7
Atoms. Timestep: 2711
N 11 97 0 
N 45 98 0 
N 73 32 0 
N 79 90 0 
N 7 56 0 
O 53 34 0 
O 89 54 0 
7
Atoms. Timestep: 2712
N 10 97 0 
N 44 98 0 
N 72 32 0 
N 78 90 0 
N 6 56 0 
O 52 34 0 
O 88 54 0 
7
Atoms. Timestep: 2713
N 9 97 0 
N 43 98 0 
N 71 32 0 
N 77 90 0 
N 5 56 0 
O 51 34 0 
O 87 54 0 
7
Atoms. Timestep: 2714
N 8 97 0 
N 42 98 0 
N 70 32 0 
N 76 90 0 
N 4 56 0 
O 50 34 0 
O 86 54 0 
7
Atoms. Timestep: 2715
N 7 97 0 
N 41 98 0 
N 69 32 0 
N 75 90 0 
N 3 56 0 
O 49 34 0 
O 85 54 0 
7
Atoms. Timestep: 2716
N 6 97 0 
N 40 98 0 
N 68 32 0 
N 74 90 0 
N 2 56 0 
O 48 34 0 
O 84 54 0 
7
Atoms. Timestep: 2717
N 5 97 0 
N 39 98 0 
N 67 32 0 
N 73 90 0 
N 1 56 0 
O 47 34 0 
O 83 54 0 
7
Atoms. Timestep: 2718
N 4 97 0 
N 38 98 0 
N 66 32 0 
N 72 90 0 
N 0 56 0 
O 46 34 0 
O 82 54 0 
7
Atoms. Timestep: 2719
N 3 97 0 
N 37 98 0 
N 65 32 0 
N 71 90 0 
N 99 56 0 
O 45 34 0 
O 81 54 0 
7
Atoms. Timestep: 2720
N 2 97 0 
N 36 98 0 
N 64 32 0 
N 70 90 0 
N 98 56 0 
O 44 34 0 
O 80 54 0 
7
Atoms. Timestep: 2721
N 1 97 0 
N 35 98 0 
N 63 32 0 
N 69 90 0 
N 97 56 0 
O 43 34 0 
O 79 54 0 
7
Atoms. Timestep: 2722
N 0 97 0 
N 34 98 0 
N 62 32 0 
N 68 90 0 
N 96 56 0 
O 42 34 0 
O 78 54 0 
7
Atoms. Timestep: 2723
N 99 97 0 
N 33 98 0 
N 61 32 0 
N 67 90 0 
N 95 56 0 
O 41 34 0 
O 77 54 0 
7
Atoms. Timestep: 2724
N 98 97 0 
N 32 98 0 
N 60 32 0 
N 66 90 0 
N 94 56 0 
O 40 34 0 
O 76 54 0 
7
Atoms. Timestep: 2725
N 97 97 0 
N 31 98 0 
N 59 32 0 
N 65 90 0 
N 93 56 0 
O 39 34 0 
O 75 54 0 
7
Atoms. Timestep: 2726
N 96 97 0 
N 30 98 0 
N 58 32 0 
N 64 90 0 
N 92 56 0 
O 38 34 0 
O 74 54 0 
7
Atoms. Timestep: 2727
N 95 97 0 
N 29 98 0 
N 57 32 0 
N 63 90 0 
N 91 56 0 
O 37 34 0 
O 73 54 0 
7
Atoms. Timestep: 2728
N 94 97 0 
N 28 98 0 
N 56 32 0 
N 62 90 0 
N 90 56 0 
O 36 34 0 
O 72 54 0 
7
Atoms. Timestep: 2729
N 93 97 0 
N 27 98 0 
N 55 32 0 
N 61 90 0 
N 89 56 0 
O 35 34 0 
O 71 54 0 
7
Atoms. Timestep: 2730
N 92 97 0 
N 26 98 0 
N 54 32 0 
N 60 90 0 
N 88 56 0 
O 34 34 0 
O 70 54 0 
7
Atoms. Timestep: 2731
N 91 97 0 
N 25 98 0 
N 53 32 0 
N 59 90 0 
N 87 56 0 
O 33 34 0 
O 69 54 0 
7
Atoms. Timestep: 2732
N 90 97 0 
N 24 98 0 
N 52 32 0 
N 58 90 0 
N 86 56 0 
O 32 34 0 
O 68 54 0 
7
Atoms. Timestep: 2733
N 89 97 0 
N 23 98 0 
N 51 32 0 
N 57 90 0 
N 85 56 0 
O 31 34 0 
O 67 54 0 
7
Atoms. Timestep: 2734
N 90 97 0 
N 23 97 0 
N 50 32 0 
N 56 90 0 
N 84 56 0 
O 30 34 0 
O 66 54 0 
7
Atoms. Timestep: 2735
N 91 97 0 
N 24 97 0 
N 49 32 0 
N 57 90 0 
N 83 56 0 
O 29 34 0 
O 65 54 0 
7
Atoms. Timestep: 2736
N 92 97 0 
N 25 97 0 
N 48 32 0 
N 58 90 0 
N 82 56 0 
O 28 34 0 
O 64 54 0 
7
Atoms. Timestep: 2737
N 93 97 0 
N 26 97 0 
N 47 32 0 
N 59 90 0 
N 81 56 0 
O 27 34 0 
O 63 54 0 
7
Atoms. Timestep: 2738
N 94 97 0 
N 27 97 0 
N 46 32 0 
N 60 90 0 
N 80 56 0 
O 26 34 0 
O 62 54 0 
7
Atoms. Timestep: 2739
N 95 97 0 
N 28 97 0 
N 45 32 0 
N 61 90 0 
N 79 56 0 
O 25 34 0 
O 61 54 0 
7
Atoms. Timestep: 2740
N 96 97 0 
N 29 97 0 
N 44 32 0 
N 62 90 0 
N 78 56 0 
O 24 34 0 
O 60 54 0 
7
Atoms. Timestep: 2741
N 97 97 0 
N 30 97 0 
N 43 32 0 
N 63 90 0 
N 77 56 0 
O 23 34 0 
O 59 54 0 
7
Atoms. Timestep: 2742
N 98 97 0 
N 31 97 0 
N 42 32 0 
N 64 90 0 
N 76 56 0 
O 22 34 0 
O 58 54 0 
7
Atoms. Timestep: 2743
N 99 97 0 
N 32 97 0 
N 41 32 0 
N 65 90 0 
N 75 56 0 
O 21 34 0 
O 57 54 0 
7
Atoms. Timestep: 2744
N 0 97 0 
N 33 97 0 
N 40 32 0 
N 66 90 0 
N 74 56 0 
O 20 34 0 
O 56 54 0 
7
Atoms. Timestep: 2745
N 1 97 0 
N 34 97 0 
N 39 32 0 
N 67 90 0 
N 73 56 0 
O 19 34 0 
O 55 54 0 
7
Atoms. Timestep: 2746
N 2 97 0 
N 35 97 0 
N 38 32 0 
N 68 90 0 
N 72 56 0 
O 18 34 0 
O 54 54 0 
7
Atoms. Timestep: 2747
N 3 97 0 
N 36 97 0 
N 37 32 0 
N 69 90 0 
N 71 56 0 
O 17 34 0 
O 53 54 0 
7
Atoms. Timestep: 2748
N 4 97 0 
N 37 97 0 
N 36 32 0 
N 70 90 0 
N 70 56 0 
O 16 34 0 
O 52 54 0 
7
Atoms. Timestep: 2749
N 5 97 0 
N 38 97 0 
N 35 32 0 
N 71 90 0 
N 69 56 0 
O 15 34 0 
O 51 54 0 
7
Atoms. Timestep: 2750
N 6 97 0 
N 39 97 0 
N 34 32 0 
N 72 90 0 
N 68 56 0 
O 14 34 0 
O 50 54 0 
7
Atoms. Timestep: 2751
N 7 97 0 
N 40 97 0 
N 33 32 0 
N 73 90 0 
N 67 56 0 
O 13 34 0 
O 49 54 0 
7
Atoms. Timestep: 2752
N 8 97 0 
N 41 97 0 
N 32 32 0 
N 74 90 0 
N 66 56 0 
O 12 34 0 
O 48 54 0 
7
Atoms. Timestep: 2753
N 9 97 0 
N 42 97 0 
N 31 32 0 
N 75 90 0 
N 65 56 0 
O 11 34 0 
O 47 54 0 
7
Atoms. Timestep: 2754
N 10 97 0 
N 43 97 0 
N 30 32 0 
N 76 90 0 
N 64 56 0 
O 10 34 0 
O 46 54 0 
7
Atoms. Timestep: 2755
N 11 97 0 
N 44 97 0 
N 29 32 0 
N 77 90 0 
N 63 56 0 
O 9 34 0 
O 45 54 0 
7
Atoms. Timestep: 2756
N 12 97 0 
N 45 97 0 
N 28 32 0 
N 78 90 0 
N 62 56 0 
O 8 34 0 
O 44 54 0 
7
Atoms. Timestep: 2757
N 13 97 0 
N 46 97 0 
N 27 32 0 
N 79 90 0 
N 61 56 0 
O 7 34 0 
O 43 54 0 
7
Atoms. Timestep: 2758
N 14 97 0 
N 47 97 0 
N 26 32 0 
N 80 90 0 
N 60 56 0 
O 6 34 0 
O 42 54 0 
7
Atoms. Timestep: 2759
N 15 97 0 
N 48 97 0 
N 25 32 0 
N 81 90 0 
N 59 56 0 
O 5 34 0 
O 41 54 0 
7
Atoms. Timestep: 2760
N 16 97 0 
N 49 97 0 
N 24 32 0 
N 82 90 0 
N 58 56 0 
O 4 34 0 
O 40 54 0 
7
Atoms. Timestep: 2761
N 17 97 0 
N 50 97 0 
N 23 32 0 
N 83 90 0 
N 57 56 0 
O 3 34 0 
O 39 54 0 
7
Atoms. Timestep: 2762
N 18 97 0 
N 51 97 0 
N 22 32 0 
N 84 90 0 
N 56 56 0 
O 2 34 0 
O 38 54 0 
7
Atoms. Timestep: 2763
N 19 97 0 
N 52 97 0 
N 21 32 0 
N 85 90 0 
N 55 56 0 
O 1 34 0 
O 37 54 0 
7
Atoms. Timestep: 2764
N 20 97 0 
N 53 97 0 
N 20 32 0 
N 86 90 0 
N 54 56 0 
O 0 34 0 
O 36 54 0 
7
Atoms. Timestep: 2765
N 21 97 0 
N 54 97 0 
N 19 32 0 
N 87 90 0 
N 53 56 0 
O 99 34 0 
O 35 54 0 
7
Atoms. Timestep: 2766
N 22 97 0 
N 55 97 0 
N 18 32 0 
N 88 90 0 
N 52 56 0 
O 98 34 0 
O 34 54 0 
7
Atoms. Timestep: 2767
N 23 97 0 
N 56 97 0 
N 17 32 0 
N 89 90 0 
N 51 56 0 
O 97 34 0 
O 33 54 0 
7
Atoms. Timestep: 2768
N 24 97 0 
N 57 97 0 
N 16 32 0 
N 90 90 0 
N 50 56 0 
O 96 34 0 
O 32 54 0 
7
Atoms. Timestep: 2769
N 25 97 0 
N 58 97 0 
N 15 32 0 
N 91 90 0 
N 49 56 0 
O 95 34 0 
O 31 54 0 
7
Atoms. Timestep: 2770
N 26 97 0 
N 59 97 0 
N 14 32 0 
N 92 90 0 
N 48 56 0 
O 94 34 0 
O 30 54 0 
7
Atoms. Timestep: 2771
N 27 97 0 
N 60 97 0 
N 13 32 0 
N 93 90 0 
N 47 56 0 
O 93 34 0 
O 29 54 0 
7
Atoms. Timestep: 2772
N 28 97 0 
N 61 97 0 
N 12 32 0 
N 94 90 0 
N 46 56 0 
O 92 34 0 
O 28 54 0 
7
Atoms. Timestep: 2773
N 29 97 0 
N 62 97 0 
N 11 32 0 
N 95 90 0 
N 45 56 0 
O 91 34 0 
O 27 54 0 
7
Atoms. Timestep: 2774
N 30 97 0 
N 63 97 0 
N 10 32 0 
N 96 90 0 
N 44 56 0 
O 90 34 0 
O 26 54 0 
7
Atoms. Timestep: 2775
N 31 97 0 
N 64 97 0 
N 9 32 0 
N 97 90 0 
N 43 56 0 
O 89 34 0 
O 25 54 0 
7
Atoms. Timestep: 2776
N 32 97 0 
N 65 97 0 
N 8 32 0 
N 98 90 0 
N 42 56 0 
O 88 34 0 
O 24 54 0 
7
Atoms. Timestep: 2777
N 33 97 0 
N 66 97 0 
N 7 32 0 
N 99 90 0 
N 41 56 0 
O 87 34 0 
O 23 54 0 
7
Atoms. Timestep: 2778
N 34 97 0 
N 67 97 0 
N 6 32 0 
N 0 90 0 
N 40 56 0 
O 86 34 0 
O 22 54 0 
7
Atoms. Timestep: 2779
N 35 97 0 
N 68 97 0 
N 5 32 0 
N 1 90 0 
N 39 56 0 
O 85 34 0 
O 21 54 0 
7
Atoms. Timestep: 2780
N 36 97 0 
N 69 97 0 
N 4 32 0 
N 2 90 0 
N 38 56 0 
O 84 34 0 
O 20 54 0 
7
Atoms. Timestep: 2781
N 37 97 0 
N 70 97 0 
N 3 32 0 
N 3 90 0 
N 37 56 0 
O 83 34 0 
O 19 54 0 
7
Atoms. Timestep: 2782
N 38 97 0 
N 71 97 0 
N 2 32 0 
N 4 90 0 
N 38 56 0 
O 82 34 0 
O 18 54 0 
7
Atoms. Timestep: 2783
N 39 97 0 
N 72 97 0 
N 1 32 0 
N 5 90 0 
N 37 56 0 
O 81 34 0 
O 17 54 0 
7
Atoms. Timestep: 2784
N 40 97 0 
N 73 97 0 
N 0 32 0 
N 6 90 0 
N 36 56 0 
O 80 34 0 
O 16 54 0 
7
Atoms. Timestep: 2785
N 41 97 0 
N 74 97 0 
N 99 32 0 
N 7 90 0 
N 35 56 0 
O 79 34 0 
O 15 54 0 
7
Atoms. Timestep: 2786
N 42 97 0 
N 75 97 0 
N 98 32 0 
N 8 90 0 
N 34 56 0 
O 78 34 0 
O 14 54 0 
7
Atoms. Timestep: 2787
N 43 97 0 
N 76 97 0 
N 97 32 0 
N 9 90 0 
N 33 56 0 
O 77 34 0 
O 13 54 0 
7
Atoms. Timestep: 2788
N 44 97 0 
N 77 97 0 
N 96 32 0 
N 10 90 0 
N 32 56 0 
O 76 34 0 
O 12 54 0 
7
Atoms. Timestep: 2789
N 45 97 0 
N 78 97 0 
N 95 32 0 
N 11 90 0 
N 31 56 0 
O 75 34 0 
O 11 54 0 
7
Atoms. Timestep: 2790
N 46 97 0 
N 79 97 0 
N 94 32 0 
N 12 90 0 
N 30 56 0 
O 74 34 0 
O 10 54 0 
7
Atoms. Timestep: 2791
N 47 97 0 
N 80 97 0 
N 93 32 0 
N 13 90 0 
N 29 56 0 
O 73 34 0 
O 9 54 0 
7
Atoms. Timestep: 2792
N 48 97 0 
N 81 97 0 
N 92 32 0 
N 14 90 0 
N 28 56 0 
O 72 34 0 
O 8 54 0 
7
Atoms. Timestep: 2793
N 49 97 0 
N 82 97 0 
N 91 32 0 
N 15 90 0 
N 27 56 0 
O 71 34 0 
O 7 54 0 
7
Atoms. Timestep: 2794
N 50 97 0 
N 83 97 0 
N 90 32 0 
N 16 90 0 
N 26 56 0 
O 70 34 0 
O 6 54 0 
7
Atoms. Timestep: 2795
N 51 97 0 
N 84 97 0 
N 89 32 0 
N 17 90 0 
N 25 56 0 
O 69 34 0 
O 5 54 0 
7
Atoms. Timestep: 2796
N 52 97 0 
N 85 97 0 
N 88 32 0 
N 18 90 0 
N 24 56 0 
O 68 34 0 
O 4 54 0 
7
Atoms. Timestep: 2797
N 53 97 0 
N 86 97 0 
N 87 32 0 
N 19 90 0 
N 23 56 0 
O 67 34 0 
O 3 54 0 
7
Atoms. Timestep: 2798
N 54 97 0 
N 87 97 0 
N 86 32 0 
N 20 90 0 
N 22 56 0 
O 66 34 0 
O 2 54 0 
7
Atoms. Timestep: 2799
N 55 97 0 
N 88 97 0 
N 85 32 0 
N 21 90 0 
N 21 56 0 
O 65 34 0 
O 1 54 0 
7
Atoms. Timestep: 2800
N 56 97 0 
N 89 97 0 
N 84 32 0 
N 22 90 0 
N 20 56 0 
O 64 34 0 
O 0 54 0 
7
Atoms. Timestep: 2801
N 57 97 0 
N 90 97 0 
N 83 32 0 
N 23 90 0 
N 19 56 0 
O 63 34 0 
O 99 54 0 
7
Atoms. Timestep: 2802
N 58 97 0 
N 91 97 0 
N 82 32 0 
N 24 90 0 
N 18 56 0 
O 62 34 0 
O 98 54 0 
7
Atoms. Timestep: 2803
N 59 97 0 
N 92 97 0 
N 81 32 0 
N 25 90 0 
N 17 56 0 
O 61 34 0 
O 97 54 0 
7
Atoms. Timestep: 2804
N 60 97 0 
N 93 97 0 
N 80 32 0 
N 26 90 0 
N 16 56 0 
O 60 34 0 
O 96 54 0 
7
Atoms. Timestep: 2805
N 61 97 0 
N 94 97 0 
N 79 32 0 
N 27 90 0 
N 15 56 0 
O 59 34 0 
O 95 54 0 
7
Atoms. Timestep: 2806
N 62 97 0 
N 95 97 0 
N 78 32 0 
N 28 90 0 
N 14 56 0 
O 58 34 0 
O 94 54 0 
7
Atoms. Timestep: 2807
N 63 97 0 
N 96 97 0 
N 77 32 0 
N 29 90 0 
N 13 56 0 
O 57 34 0 
O 93 54 0 
7
Atoms. Timestep: 2808
N 64 97 0 
N 97 97 0 
N 76 32 0 
N 30 90 0 
N 12 56 0 
O 56 34 0 
O 92 54 0 
7
Atoms. Timestep: 2809
N 65 97 0 
N 98 97 0 
N 75 32 0 
N 31 90 0 
N 11 56 0 
O 55 34 0 
O 91 54 0 
7
Atoms. Timestep: 2810
N 66 97 0 
N 99 97 0 
N 74 32 0 
N 32 90 0 
N 10 56 0 
O 54 34 0 
O 90 54 0 
7
Atoms. Timestep: 2811
N 67 97 0 
N 0 97 0 
N 73 32 0 
N 33 90 0 
N 9 56 0 
O 53 34 0 
O 89 54 0 
7
Atoms. Timestep: 2812
N 68 97 0 
N 1 97 0 
N 72 32 0 
N 34 90 0 
N 8 56 0 
O 52 34 0 
O 88 54 0 
7
Atoms. Timestep: 2813
N 69 97 0 
N 2 97 0 
N 71 32 0 
N 35 90 0 
N 7 56 0 
O 51 34 0 
O 87 54 0 
7
Atoms. Timestep: 2814
N 70 97 0 
N 3 97 0 
N 70 32 0 
N 36 90 0 
N 6 56 0 
O 50 34 0 
O 86 54 0 
7
Atoms. Timestep: 2815
N 71 97 0 
N 4 97 0 
N 69 32 0 
N 37 90 0 
N 5 56 0 
O 49 34 0 
O 85 54 0 
7
Atoms. Timestep: 2816
N 72 97 0 
N 5 97 0 
N 68 32 0 
N 38 90 0 
N 4 56 0 
O 48 34 0 
O 84 54 0 
7
Atoms. Timestep: 2817
N 71 97 0 
N 6 97 0 
N 67 32 0 
N 39 90 0 
N 3 56 0 
O 47 34 0 
O 83 54 0 
7
Atoms. Timestep: 2818
N 72 97 0 
N 5 97 0 
N 66 32 0 
N 38 90 0 
N 2 56 0 
O 46 34 0 
O 82 54 0 
7
Atoms. Timestep: 2819
N 73 97 0 
N 6 97 0 
N 65 32 0 
N 39 90 0 
N 1 56 0 
O 45 34 0 
O 81 54 0 
7
Atoms. Timestep: 2820
N 74 97 0 
N 7 97 0 
N 64 32 0 
N 40 90 0 
N 0 56 0 
O 44 34 0 
O 80 54 0 
7
Atoms. Timestep: 2821
N 75 97 0 
N 8 97 0 
N 63 32 0 
N 41 90 0 
N 99 56 0 
O 43 34 0 
O 79 54 0 
7
Atoms. Timestep: 2822
N 76 97 0 
N 9 97 0 
N 62 32 0 
N 42 90 0 
N 98 56 0 
O 42 34 0 
O 78 54 0 
7
Atoms. Timestep: 2823
N 77 97 0 
N 10 97 0 
N 61 32 0 
N 43 90 0 
N 97 56 0 
O 41 34 0 
O 77 54 0 
7
Atoms. Timestep: 2824
N 78 97 0 
N 11 97 0 
N 60 32 0 
N 44 90 0 
N 96 56 0 
O 40 34 0 
O 76 54 0 
7
Atoms. Timestep: 2825
N 79 97 0 
N 12 97 0 
N 59 32 0 
N 45 90 0 
N 95 56 0 
O 39 34 0 
O 75 54 0 
7
Atoms. Timestep: 2826
N 80 97 0 
N 13 97 0 
N 58 32 0 
N 46 90 0 
N 94 56 0 
O 38 34 0 
O 74 54 0 
7
Atoms. Timestep: 2827
N 81 97 0 
N 14 97 0 
N 57 32 0 
N 47 90 0 
N 93 56 0 
O 37 34 0 
O 73 54 0 
7
Atoms. Timestep: 2828
N 82 97 0 
N 15 97 0 
N 56 32 0 
N 48 90 0 
N 92 56 0 
O 36 34 0 
O 72 54 0 
7
Atoms. Timestep: 2829
N 83 97 0 
N 16 97 0 
N 55 32 0 
N 49 90 0 
N 91 56 0 
O 35 34 0 
O 71 54 0 
7
Atoms. Timestep: 2830
N 84 97 0 
N 17 97 0 
N 54 32 0 
N 50 90 0 
N 90 56 0 
O 34 34 0 
O 70 54 0 
7
Atoms. Timestep: 2831
N 85 97 0 
N 18 97 0 
N 53 32 0 
N 51 90 0 
N 89 56 0 
O 33 34 0 
O 69 54 0 
7
Atoms. Timestep: 2832
N 86 97 0 
N 19 97 0 
N 52 32 0 
N 52 90 0 
N 88 56 0 
O 32 34 0 
O 68 54 0 
7
Atoms. Timestep: 2833
N 87 97 0 
N 20 97 0 
N 51 32 0 
N 53 90 0 
N 87 56 0 
O 31 34 0 
O 67 54 0 
7
Atoms. Timestep: 2834
N 88 97 0 
N 21 97 0 
N 50 32 0 
N 54 90 0 
N 86 56 0 
O 30 34 0 
O 66 54 0 
7
Atoms. Timestep: 2835
N 89 97 0 
N 22 97 0 
N 49 32 0 
N 55 90 0 
N 85 56 0 
O 29 34 0 
O 65 54 0 
7
Atoms. Timestep: 2836
N 90 97 0 
N 23 97 0 
N 48 32 0 
N 56 90 0 
N 84 56 0 
O 28 34 0 
O 64 54 0 
7
Atoms. Timestep: 2837
N 91 97 0 
N 24 97 0 
N 47 32 0 
N 57 90 0 
N 83 56 0 
O 27 34 0 
O 63 54 0 
7
Atoms. Timestep: 2838
N 92 97 0 
N 25 97 0 
N 46 32 0 
N 58 90 0 
N 82 56 0 
O 26 34 0 
O 62 54 0 
7
Atoms. Timestep: 2839
N 93 97 0 
N 26 97 0 
N 45 32 0 
N 59 90 0 
N 81 56 0 
O 25 34 0 
O 61 54 0 
7
Atoms. Timestep: 2840
N 94 97 0 
N 27 97 0 
N 44 32 0 
N 60 90 0 
N 80 56 0 
O 24 34 0 
O 60 54 0 
7
Atoms. Timestep: 2841
N 95 97 0 
N 28 97 0 
N 43 32 0 
N 61 90 0 
N 79 56 0 
O 23 34 0 
O 59 54 0 
7
Atoms. Timestep: 2842
N 96 97 0 
N 29 97 0 
N 42 32 0 
N 62 90 0 
N 78 56 0 
O 22 34 0 
O 58 54 0 
7
Atoms. Timestep: 2843
N 97 97 0 
N 30 97 0 
N 41 32 0 
N 63 90 0 
N 77 56 0 
O 21 34 0 
O 57 54 0 
7
Atoms. Timestep: 2844
N 98 97 0 
N 31 97 0 
N 40 32 0 
N 64 90 0 
N 76 56 0 
O 20 34 0 
O 56 54 0 
7
Atoms. Timestep: 2845
N 99 97 0 
N 32 97 0 
N 39 32 0 
N 65 90 0 
N 75 56 0 
O 19 34 0 
O 55 54 0 
7
Atoms. Timestep: 2846
N 0 97 0 
N 33 97 0 
N 38 32 0 
N 66 90 0 
N 74 56 0 
O 18 34 0 
O 54 54 0 
7
Atoms. Timestep: 2847
N 1 97 0 
N 34 97 0 
N 37 32 0 
N 67 90 0 
N 73 56 0 
O 17 34 0 
O 53 54 0 
7
Atoms. Timestep: 2848
N 2 97 0 
N 35 97 0 
N 36 32 0 
N 68 90 0 
N 72 56 0 
O 16 34 0 
O 52 54 0 
7
Atoms. Timestep: 2849
N 3 97 0 
N 36 97 0 
N 35 32 0 
N 69 90 0 
N 71 56 0 
O 15 34 0 
O 51 54 0 
7
Atoms. Timestep: 2850
N 4 97 0 
N 37 97 0 
N 34 32 0 
N 70 90 0 
N 70 56 0 
O 14 34 0 
O 50 54 0 
7
Atoms. Timestep: 2851
N 5 97 0 
N 38 97 0 
N 33 32 0 
N 71 90 0 
N 69 56 0 
O 13 34 0 
O 49 54 0 
7
Atoms. Timestep: 2852
N 6 97 0 
N 39 97 0 
N 32 32 0 
N 72 90 0 
N 68 56 0 
O 12 34 0 
O 48 54 0 
7
Atoms. Timestep: 2853
N 7 97 0 
N 40 97 0 
N 31 32 0 
N 73 90 0 
N 67 56 0 
O 11 34 0 
O 47 54 0 
7
Atoms. Timestep: 2854
N 8 97 0 
N 41 97 0 
N 30 32 0 
N 74 90 0 
N 66 56 0 
O 10 34 0 
O 46 54 0 
7
Atoms. Timestep: 2855
N 9 97 0 
N 42 97 0 
N 29 32 0 
N 75 90 0 
N 65 56 0 
O 9 34 0 
O 45 54 0 
7
Atoms. Timestep: 2856
N 10 97 0 
N 43 97 0 
N 28 32 0 
N 76 90 0 
N 64 56 0 
O 8 34 0 
O 44 54 0 
7
Atoms. Timestep: 2857
N 11 97 0 
N 44 97 0 
N 27 32 0 
N 77 90 0 
N 63 56 0 
O 7 34 0 
O 43 54 0 
7
Atoms. Timestep: 2858
N 12 97 0 
N 45 97 0 
N 26 32 0 
N 78 90 0 
N 62 56 0 
O 6 34 0 
O 42 54 0 
7
Atoms. Timestep: 2859
N 13 97 0 
N 46 97 0 
N 25 32 0 
N 79 90 0 
N 61 56 0 
O 5 34 0 
O 41 54 0 
7
Atoms. Timestep: 2860
N 14 97 0 
N 47 97 0 
N 24 32 0 
N 80 90 0 
N 60 56 0 
O 4 34 0 
O 40 54 0 
7
Atoms. Timestep: 2861
N 15 97 0 
N 48 97 0 
N 23 32 0 
N 81 90 0 
N 59 56 0 
O 3 34 0 
O 39 54 0 
7
Atoms. Timestep: 2862
N 16 97 0 
N 49 97 0 
N 22 32 0 
N 82 90 0 
N 58 56 0 
O 2 34 0 
O 38 54 0 
7
Atoms. Timestep: 2863
N 17 97 0 
N 50 97 0 
N 21 32 0 
N 83 90 0 
N 57 56 0 
O 1 34 0 
O 37 54 0 
7
Atoms. Timestep: 2864
N 18 97 0 
N 51 97 0 
N 20 32 0 
N 84 90 0 
N 56 56 0 
O 0 34 0 
O 36 54 0 
7
Atoms. Timestep: 2865
N 19 97 0 
N 52 97 0 
N 19 32 0 
N 85 90 0 
N 55 56 0 
O 99 34 0 
O 35 54 0 
7
Atoms. Timestep: 2866
N 19 96 0 
N 53 97 0 
N 18 32 0 
N 86 90 0 
N 54 56 0 
O 98 34 0 
O 34 54 0 
7
Atoms. Timestep: 2867
N 18 96 0 
N 52 97 0 
N 17 32 0 
N 85 90 0 
N 53 56 0 
O 97 34 0 
O 33 54 0 
7
Atoms. Timestep: 2868
N 17 96 0 
N 51 97 0 
N 16 32 0 
N 84 90 0 
N 52 56 0 
O 96 34 0 
O 32 54 0 
7
Atoms. Timestep: 2869
N 16 96 0 
N 50 97 0 
N 15 32 0 
N 83 90 0 
N 51 56 0 
O 95 34 0 
O 31 54 0 
7
Atoms. Timestep: 2870
N 15 96 0 
N 49 97 0 
N 14 32 0 
N 82 90 0 
N 50 56 0 
O 94 34 0 
O 30 54 0 
7
Atoms. Timestep: 2871
N 14 96 0 
N 48 97 0 
N 13 32 0 
N 81 90 0 
N 49 56 0 
O 93 34 0 
O 29 54 0 
7
Atoms. Timestep: 2872
N 13 96 0 
N 47 97 0 
N 12 32 0 
N 80 90 0 
N 49 55 0 
O 92 34 0 
O 28 54 0 
7
Atoms. Timestep: 2873
N 12 96 0 
N 46 97 0 
N 11 32 0 
N 79 90 0 
N 48 55 0 
O 91 34 0 
O 27 54 0 
7
Atoms. Timestep: 2874
N 11 96 0 
N 45 97 0 
N 10 32 0 
N 78 90 0 
N 47 55 0 
O 90 34 0 
O 26 54 0 
7
Atoms. Timestep: 2875
N 10 96 0 
N 44 97 0 
N 9 32 0 
N 78 91 0 
N 46 55 0 
O 89 34 0 
O 25 54 0 
7
Atoms. Timestep: 2876
N 9 96 0 
N 43 97 0 
N 8 32 0 
N 77 91 0 
N 45 55 0 
O 88 34 0 
O 24 54 0 
7
Atoms. Timestep: 2877
N 8 96 0 
N 42 97 0 
N 7 32 0 
N 76 91 0 
N 44 55 0 
O 87 34 0 
O 23 54 0 
7
Atoms. Timestep: 2878
N 7 96 0 
N 41 97 0 
N 6 32 0 
N 75 91 0 
N 43 55 0 
O 86 34 0 
O 22 54 0 
7
Atoms. Timestep: 2879
N 6 96 0 
N 40 97 0 
N 5 32 0 
N 74 91 0 
N 42 55 0 
O 85 34 0 
O 21 54 0 
7
Atoms. Timestep: 2880
N 5 96 0 
N 39 97 0 
N 4 32 0 
N 73 91 0 
N 41 55 0 
O 84 34 0 
O 20 54 0 
7
Atoms. Timestep: 2881
N 4 96 0 
N 38 97 0 
N 3 32 0 
N 72 91 0 
N 40 55 0 
O 83 34 0 
O 19 54 0 
7
Atoms. Timestep: 2882
N 3 96 0 
N 37 97 0 
N 2 32 0 
N 71 91 0 
N 39 55 0 
O 82 34 0 
O 18 54 0 
7
Atoms. Timestep: 2883
N 2 96 0 
N 36 97 0 
N 1 32 0 
N 70 91 0 
N 38 55 0 
O 81 34 0 
O 17 54 0 
7
Atoms. Timestep: 2884
N 1 96 0 
N 35 97 0 
N 0 32 0 
N 69 91 0 
N 37 55 0 
O 80 34 0 
O 16 54 0 
7
Atoms. Timestep: 2885
N 0 96 0 
N 34 97 0 
N 99 32 0 
N 68 91 0 
N 36 55 0 
O 79 34 0 
O 15 54 0 
7
Atoms. Timestep: 2886
N 99 96 0 
N 33 97 0 
N 98 32 0 
N 67 91 0 
N 35 55 0 
O 78 34 0 
O 14 54 0 
7
Atoms. Timestep: 2887
N 98 96 0 
N 32 97 0 
N 97 32 0 
N 66 91 0 
N 34 55 0 
O 77 34 0 
O 13 54 0 
7
Atoms. Timestep: 2888
N 98 95 0 
N 31 97 0 
N 96 32 0 
N 65 91 0 
N 33 55 0 
O 76 34 0 
O 12 54 0 
7
Atoms. Timestep: 2889
N 97 95 0 
N 32 97 0 
N 95 32 0 
N 64 91 0 
N 32 55 0 
O 75 34 0 
O 11 54 0 
7
Atoms. Timestep: 2890
N 98 95 0 
N 31 97 0 
N 94 32 0 
N 65 91 0 
N 31 55 0 
O 74 34 0 
O 10 54 0 
7
Atoms. Timestep: 2891
N 97 95 0 
N 32 97 0 
N 93 32 0 
N 64 91 0 
N 30 55 0 
O 73 34 0 
O 9 54 0 
7
Atoms. Timestep: 2892
N 98 95 0 
N 31 97 0 
N 92 32 0 
N 65 91 0 
N 29 55 0 
O 72 34 0 
O 8 54 0 
7
Atoms. Timestep: 2893
N 97 95 0 
N 32 97 0 
N 91 32 0 
N 64 91 0 
N 28 55 0 
O 71 34 0 
O 7 54 0 
7
Atoms. Timestep: 2894
N 98 95 0 
N 31 97 0 
N 90 32 0 
N 65 91 0 
N 27 55 0 
O 70 34 0 
O 6 54 0 
7
Atoms. Timestep: 2895
N 97 95 0 
N 32 97 0 
N 89 32 0 
N 64 91 0 
N 26 55 0 
O 69 34 0 
O 5 54 0 
7
Atoms. Timestep: 2896
N 98 95 0 
N 31 97 0 
N 89 31 0 
N 65 91 0 
N 25 55 0 
O 68 34 0 
O 4 54 0 
7
Atoms. Timestep: 2897
N 97 95 0 
N 32 97 0 
N 88 31 0 
N 64 91 0 
N 24 55 0 
O 67 34 0 
O 3 54 0 
7
Atoms. Timestep: 2898
N 98 95 0 
N 31 97 0 
N 87 31 0 
N 65 91 0 
N 23 55 0 
O 66 34 0 
O 2 54 0 
7
Atoms. Timestep: 2899
N 97 95 0 
N 32 97 0 
N 86 31 0 
N 64 91 0 
N 22 55 0 
O 65 34 0 
O 1 54 0 
7
Atoms. Timestep: 2900
N 98 95 0 
N 31 97 0 
N 85 31 0 
N 65 91 0 
N 21 55 0 
O 64 34 0 
O 0 54 0 
7
Atoms. Timestep: 2901
N 97 95 0 
N 32 97 0 
N 84 31 0 
N 64 91 0 
N 20 55 0 
O 63 34 0 
O 99 54 0 
7
Atoms. Timestep: 2902
N 98 95 0 
N 31 97 0 
N 83 31 0 
N 65 91 0 
N 19 55 0 
O 62 34 0 
O 98 54 0 
7
Atoms. Timestep: 2903
N 97 95 0 
N 32 97 0 
N 82 31 0 
N 64 91 0 
N 18 55 0 
O 61 34 0 
O 97 54 0 
7
Atoms. Timestep: 2904
N 98 95 0 
N 31 97 0 
N 81 31 0 
N 65 91 0 
N 17 55 0 
O 60 34 0 
O 96 54 0 
7
Atoms. Timestep: 2905
N 97 95 0 
N 32 97 0 
N 80 31 0 
N 64 91 0 
N 16 55 0 
O 59 34 0 
O 95 54 0 
7
Atoms. Timestep: 2906
N 98 95 0 
N 31 97 0 
N 81 31 0 
N 65 91 0 
N 15 55 0 
O 58 34 0 
O 94 54 0 
7
Atoms. Timestep: 2907
N 97 95 0 
N 32 97 0 
N 80 31 0 
N 64 91 0 
N 14 55 0 
O 57 34 0 
O 93 54 0 
7
Atoms. Timestep: 2908
N 98 95 0 
N 31 97 0 
N 79 31 0 
N 65 91 0 
N 13 55 0 
O 56 34 0 
O 92 54 0 
7
Atoms. Timestep: 2909
N 97 95 0 
N 32 97 0 
N 78 31 0 
N 64 91 0 
N 12 55 0 
O 55 34 0 
O 91 54 0 
7
Atoms. Timestep: 2910
N 98 95 0 
N 31 97 0 
N 77 31 0 
N 65 91 0 
N 11 55 0 
O 54 34 0 
O 90 54 0 
7
Atoms. Timestep: 2911
N 97 95 0 
N 32 97 0 
N 76 31 0 
N 64 91 0 
N 10 55 0 
O 53 34 0 
O 89 54 0 
7
Atoms. Timestep: 2912
N 98 95 0 
N 31 97 0 
N 75 31 0 
N 65 91 0 
N 9 55 0 
O 52 34 0 
O 88 54 0 
7
Atoms. Timestep: 2913
N 97 95 0 
N 32 97 0 
N 74 31 0 
N 64 91 0 
N 8 55 0 
O 51 34 0 
O 87 54 0 
7
Atoms. Timestep: 2914
N 98 95 0 
N 31 97 0 
N 73 31 0 
N 65 91 0 
N 7 55 0 
O 50 34 0 
O 86 54 0 
7
Atoms. Timestep: 2915
N 97 95 0 
N 32 97 0 
N 72 31 0 
N 64 91 0 
N 6 55 0 
O 49 34 0 
O 85 54 0 
7
Atoms. Timestep: 2916
N 98 95 0 
N 31 97 0 
N 71 31 0 
N 65 91 0 
N 5 55 0 
O 48 34 0 
O 84 54 0 
7
Atoms. Timestep: 2917
N 97 95 0 
N 32 97 0 
N 70 31 0 
N 64 91 0 
N 4 55 0 
O 47 34 0 
O 83 54 0 
7
Atoms. Timestep: 2918
N 98 95 0 
N 31 97 0 
N 69 31 0 
N 65 91 0 
N 3 55 0 
O 46 34 0 
O 82 54 0 
7
Atoms. Timestep: 2919
N 97 95 0 
N 32 97 0 
N 68 31 0 
N 64 91 0 
N 2 55 0 
O 45 34 0 
O 81 54 0 
7
Atoms. Timestep: 2920
N 98 95 0 
N 31 97 0 
N 67 31 0 
N 65 91 0 
N 1 55 0 
O 44 34 0 
O 80 54 0 
7
Atoms. Timestep: 2921
N 97 95 0 
N 32 97 0 
N 66 31 0 
N 64 91 0 
N 0 55 0 
O 43 34 0 
O 79 54 0 
7
Atoms. Timestep: 2922
N 98 95 0 
N 31 97 0 
N 65 31 0 
N 65 91 0 
N 99 55 0 
O 42 34 0 
O 78 54 0 
7
Atoms. Timestep: 2923
N 97 95 0 
N 32 97 0 
N 64 31 0 
N 64 91 0 
N 98 55 0 
O 41 34 0 
O 77 54 0 
7
Atoms. Timestep: 2924
N 98 95 0 
N 31 97 0 
N 63 31 0 
N 65 91 0 
N 97 55 0 
O 40 34 0 
O 76 54 0 
7
Atoms. Timestep: 2925
N 97 95 0 
N 32 97 0 
N 62 31 0 
N 64 91 0 
N 96 55 0 
O 39 34 0 
O 75 54 0 
7
Atoms. Timestep: 2926
N 98 95 0 
N 31 97 0 
N 61 31 0 
N 65 91 0 
N 95 55 0 
O 38 34 0 
O 74 54 0 
7
Atoms. Timestep: 2927
N 97 95 0 
N 32 97 0 
N 60 31 0 
N 64 91 0 
N 94 55 0 
O 37 34 0 
O 73 54 0 
7
Atoms. Timestep: 2928
N 98 95 0 
N 31 97 0 
N 59 31 0 
N 65 91 0 
N 93 55 0 
O 36 34 0 
O 72 54 0 
7
Atoms. Timestep: 2929
N 97 95 0 
N 32 97 0 
N 58 31 0 
N 64 91 0 
N 92 55 0 
O 35 34 0 
O 71 54 0 
7
Atoms. Timestep: 2930
N 98 95 0 
N 31 97 0 
N 57 31 0 
N 65 91 0 
N 91 55 0 
O 34 34 0 
O 70 54 0 
7
Atoms. Timestep: 2931
N 97 95 0 
N 32 97 0 
N 56 31 0 
N 64 91 0 
N 90 55 0 
O 33 34 0 
O 69 54 0 
7
Atoms. Timestep: 2932
N 98 95 0 
N 31 97 0 
N 55 31 0 
N 65 91 0 
N 89 55 0 
O 32 34 0 
O 68 54 0 
7
Atoms. Timestep: 2933
N 97 95 0 
N 32 97 0 
N 54 31 0 
N 64 91 0 
N 88 55 0 
O 31 34 0 
O 67 54 0 
7
Atoms. Timestep: 2934
N 98 95 0 
N 31 97 0 
N 53 31 0 
N 65 91 0 
N 87 55 0 
O 30 34 0 
O 66 54 0 
7
Atoms. Timestep: 2935
N 97 95 0 
N 32 97 0 
N 52 31 0 
N 64 91 0 
N 86 55 0 
O 29 34 0 
O 65 54 0 
7
Atoms. Timestep: 2936
N 98 95 0 
N 31 97 0 
N 51 31 0 
N 65 91 0 
N 85 55 0 
O 28 34 0 
O 64 54 0 
7
Atoms. Timestep: 2937
N 97 95 0 
N 32 97 0 
N 50 31 0 
N 64 91 0 
N 84 55 0 
O 27 34 0 
O 63 54 0 
7
Atoms. Timestep: 2938
N 98 95 0 
N 31 97 0 
N 49 31 0 
N 65 91 0 
N 83 55 0 
O 26 34 0 
O 62 54 0 
7
Atoms. Timestep: 2939
N 97 95 0 
N 32 97 0 
N 48 31 0 
N 64 91 0 
N 82 55 0 
O 25 34 0 
O 61 54 0 
7
Atoms. Timestep: 2940
N 98 95 0 
N 31 97 0 
N 47 31 0 
N 65 91 0 
N 81 55 0 
O 24 34 0 
O 60 54 0 
7
Atoms. Timestep: 2941
N 97 95 0 
N 32 97 0 
N 46 31 0 
N 64 91 0 
N 80 55 0 
O 23 34 0 
O 59 54 0 
7
Atoms. Timestep: 2942
N 98 95 0 
N 31 97 0 
N 45 31 0 
N 65 91 0 
N 79 55 0 
O 22 34 0 
O 58 54 0 
7
Atoms. Timestep: 2943
N 97 95 0 
N 32 97 0 
N 44 31 0 
N 64 91 0 
N 78 55 0 
O 21 34 0 
O 57 54 0 
7
Atoms. Timestep: 2944
N 98 95 0 
N 31 97 0 
N 43 31 0 
N 65 91 0 
N 77 55 0 
O 20 34 0 
O 56 54 0 
7
Atoms. Timestep: 2945
N 97 95 0 
N 32 97 0 
N 42 31 0 
N 64 91 0 
N 76 55 0 
O 19 34 0 
O 55 54 0 
7
Atoms. Timestep: 2946
N 96 95 0 
N 31 97 0 
N 41 31 0 
N 63 91 0 
N 75 55 0 
O 18 34 0 
O 54 54 0 
7
Atoms. Timestep: 2947
N 97 95 0 
N 30 97 0 
N 40 31 0 
N 64 91 0 
N 74 55 0 
O 17 34 0 
O 53 54 0 
7
Atoms. Timestep: 2948
N 96 95 0 
N 31 97 0 
N 39 31 0 
N 63 91 0 
N 73 55 0 
O 16 34 0 
O 52 54 0 
7
Atoms. Timestep: 2949
N 97 95 0 
N 30 97 0 
N 38 31 0 
N 64 91 0 
N 72 55 0 
O 15 34 0 
O 51 54 0 
7
Atoms. Timestep: 2950
N 96 95 0 
N 31 97 0 
N 37 31 0 
N 63 91 0 
N 71 55 0 
O 14 34 0 
O 50 54 0 
7
Atoms. Timestep: 2951
N 97 95 0 
N 30 97 0 
N 36 31 0 
N 64 91 0 
N 70 55 0 
O 13 34 0 
O 49 54 0 
7
Atoms. Timestep: 2952
N 96 95 0 
N 31 97 0 
N 35 31 0 
N 63 91 0 
N 69 55 0 
O 12 34 0 
O 48 54 0 
7
Atoms. Timestep: 2953
N 97 95 0 
N 30 97 0 
N 34 31 0 
N 64 91 0 
N 68 55 0 
O 11 34 0 
O 47 54 0 
7
Atoms. Timestep: 2954
N 96 95 0 
N 31 97 0 
N 33 31 0 
N 63 91 0 
N 67 55 0 
O 10 34 0 
O 46 54 0 
7
Atoms. Timestep: 2955
N 97 95 0 
N 30 97 0 
N 32 31 0 
N 64 91 0 
N 66 55 0 
O 9 34 0 
O 45 54 0 
7
Atoms. Timestep: 2956
N 96 95 0 
N 31 97 0 
N 31 31 0 
N 63 91 0 
N 65 55 0 
O 8 34 0 
O 44 54 0 
7
Atoms. Timestep: 2957
N 97 95 0 
N 30 97 0 
N 30 31 0 
N 64 91 0 
N 64 55 0 
O 7 34 0 
O 43 54 0 
7
Atoms. Timestep: 2958
N 96 95 0 
N 31 97 0 
N 29 31 0 
N 63 91 0 
N 63 55 0 
O 6 34 0 
O 42 54 0 
7
Atoms. Timestep: 2959
N 97 95 0 
N 30 97 0 
N 28 31 0 
N 64 91 0 
N 62 55 0 
O 5 34 0 
O 41 54 0 
7
Atoms. Timestep: 2960
N 96 95 0 
N 31 97 0 
N 27 31 0 
N 63 91 0 
N 61 55 0 
O 4 34 0 
O 40 54 0 
7
Atoms. Timestep: 2961
N 97 95 0 
N 30 97 0 
N 26 31 0 
N 64 91 0 
N 60 55 0 
O 3 34 0 
O 39 54 0 
7
Atoms. Timestep: 2962
N 96 95 0 
N 31 97 0 
N 25 31 0 
N 63 91 0 
N 59 55 0 
O 2 34 0 
O 38 54 0 
7
Atoms. Timestep: 2963
N 97 95 0 
N 30 97 0 
N 24 31 0 
N 64 91 0 
N 58 55 0 
O 1 34 0 
O 37 54 0 
7
Atoms. Timestep: 2964
N 96 95 0 
N 31 97 0 
N 23 31 0 
N 63 91 0 
N 57 55 0 
O 0 34 0 
O 36 54 0 
7
Atoms. Timestep: 2965
N 97 95 0 
N 30 97 0 
N 22 31 0 
N 64 91 0 
N 56 55 0 
O 99 34 0 
O 35 54 0 
7
Atoms. Timestep: 2966
N 96 95 0 
N 31 97 0 
N 21 31 0 
N 63 91 0 
N 55 55 0 
O 98 34 0 
O 34 54 0 
7
Atoms. Timestep: 2967
N 97 95 0 
N 30 97 0 
N 20 31 0 
N 64 91 0 
N 54 55 0 
O 97 34 0 
O 33 54 0 
7
Atoms. Timestep: 2968
N 96 95 0 
N 31 97 0 
N 19 31 0 
N 63 91 0 
N 53 55 0 
O 96 34 0 
O 32 54 0 
7
Atoms. Timestep: 2969
N 97 95 0 
N 30 97 0 
N 18 31 0 
N 64 91 0 
N 52 55 0 
O 95 34 0 
O 31 54 0 
7
Atoms. Timestep: 2970
N 96 95 0 
N 31 97 0 
N 18 32 0 
N 63 91 0 
N 51 55 0 
O 94 34 0 
O 30 54 0 
7
Atoms. Timestep: 2971
N 97 95 0 
N 30 97 0 
N 17 32 0 
N 64 91 0 
N 50 55 0 
O 93 34 0 
O 29 54 0 
7
Atoms. Timestep: 2972
N 96 95 0 
N 31 97 0 
N 16 32 0 
N 63 91 0 
N 49 55 0 
O 92 34 0 
O 28 54 0 
7
Atoms. Timestep: 2973
N 97 95 0 
N 30 97 0 
N 15 32 0 
N 64 91 0 
N 48 55 0 
O 91 34 0 
O 27 54 0 
7
Atoms. Timestep: 2974
N 96 95 0 
N 31 97 0 
N 14 32 0 
N 63 91 0 
N 47 55 0 
O 90 34 0 
O 26 54 0 
7
Atoms. Timestep: 2975
N 97 95 0 
N 30 97 0 
N 13 32 0 
N 64 91 0 
N 46 55 0 
O 89 34 0 
O 25 54 0 
7
Atoms. Timestep: 2976
N 96 95 0 
N 31 97 0 
N 12 32 0 
N 63 91 0 
N 45 55 0 
O 88 34 0 
O 24 54 0 
7
Atoms. Timestep: 2977
N 97 95 0 
N 30 97 0 
N 11 32 0 
N 64 91 0 
N 44 55 0 
O 87 34 0 
O 23 54 0 
7
Atoms. Timestep: 2978
N 96 95 0 
N 31 97 0 
N 10 32 0 
N 63 91 0 
N 43 55 0 
O 86 34 0 
O 22 54 0 
7
Atoms. Timestep: 2979
N 97 95 0 
N 31 98 0 
N 9 32 0 
N 64 91 0 
N 43 56 0 
O 85 34 0 
O 21 54 0 
7
Atoms. Timestep: 2980
N 96 95 0 
N 30 98 0 
N 8 32 0 
N 63 91 0 
N 42 56 0 
O 84 34 0 
O 20 54 0 
7
Atoms. Timestep: 2981
N 95 95 0 
N 29 98 0 
N 7 32 0 
N 62 91 0 
N 41 56 0 
O 83 34 0 
O 19 54 0 
7
Atoms. Timestep: 2982
N 94 95 0 
N 28 98 0 
N 6 32 0 
N 61 91 0 
N 40 56 0 
O 82 34 0 
O 18 54 0 
7
Atoms. Timestep: 2983
N 93 95 0 
N 27 98 0 
N 5 32 0 
N 60 91 0 
N 39 56 0 
O 81 34 0 
O 17 54 0 
7
Atoms. Timestep: 2984
N 92 95 0 
N 26 98 0 
N 4 32 0 
N 59 91 0 
N 38 56 0 
O 80 34 0 
O 16 54 0 
7
Atoms. Timestep: 2985
N 91 95 0 
N 25 98 0 
N 3 32 0 
N 58 91 0 
N 37 56 0 
O 79 34 0 
O 15 54 0 
7
Atoms. Timestep: 2986
N 90 95 0 
N 24 98 0 
N 2 32 0 
N 57 91 0 
N 36 56 0 
O 78 34 0 
O 14 54 0 
7
Atoms. Timestep: 2987
N 89 95 0 
N 23 98 0 
N 1 32 0 
N 56 91 0 
N 35 56 0 
O 77 34 0 
O 13 54 0 
7
Atoms. Timestep: 2988
N 88 95 0 
N 22 98 0 
N 0 32 0 
N 55 91 0 
N 34 56 0 
O 76 34 0 
O 12 54 0 
7
Atoms. Timestep: 2989
N 87 95 0 
N 21 98 0 
N 99 32 0 
N 54 91 0 
N 33 56 0 
O 75 34 0 
O 11 54 0 
7
Atoms. Timestep: 2990
N 86 95 0 
N 20 98 0 
N 98 32 0 
N 53 91 0 
N 32 56 0 
O 74 34 0 
O 10 54 0 
7
Atoms. Timestep: 2991
N 85 95 0 
N 19 98 0 
N 97 32 0 
N 52 91 0 
N 31 56 0 
O 73 34 0 
O 9 54 0 
7
Atoms. Timestep: 2992
N 84 95 0 
N 18 98 0 
N 96 32 0 
N 51 91 0 
N 31 55 0 
O 72 34 0 
O 8 54 0 
7
Atoms. Timestep: 2993
N 83 95 0 
N 17 98 0 
N 95 32 0 
N 50 91 0 
N 30 55 0 
O 71 34 0 
O 7 54 0 
7
Atoms. Timestep: 2994
N 82 95 0 
N 16 98 0 
N 94 32 0 
N 49 91 0 
N 29 55 0 
O 70 34 0 
O 6 54 0 
7
Atoms. Timestep: 2995
N 81 95 0 
N 15 98 0 
N 93 32 0 
N 48 91 0 
N 28 55 0 
O 69 34 0 
O 5 54 0 
7
Atoms. Timestep: 2996
N 80 95 0 
N 14 98 0 
N 92 32 0 
N 47 91 0 
N 27 55 0 
O 68 34 0 
O 4 54 0 
7
Atoms. Timestep: 2997
N 79 95 0 
N 13 98 0 
N 91 32 0 
N 46 91 0 
N 26 55 0 
O 67 34 0 
O 3 54 0 
7
Atoms. Timestep: 2998
N 78 95 0 
N 12 98 0 
N 90 32 0 
N 45 91 0 
N 25 55 0 
O 66 34 0 
O 2 54 0 
7
Atoms. Timestep: 2999
N 77 95 0 
N 11 98 0 
N 89 32 0 
N 44 91 0 
N 24 55 0 
O 65 34 0 
O 1 54 0 
7
Atoms. Timestep: 3000
N 76 95 0 
N 10 98 0 
N 88 32 0 
N 43 91 0 
N 23 55 0 
O 64 34 0 
O 0 54 0 
7
Atoms. Timestep: 3001
N 75 95 0 
N 9 98 0 
N 87 32 0 
N 42 91 0 
N 22 55 0 
O 63 34 0 
O 99 54 0 
7
Atoms. Timestep: 3002
N 74 95 0 
N 8 98 0 
N 86 32 0 
N 41 91 0 
N 21 55 0 
O 62 34 0 
O 98 54 0 
7
Atoms. Timestep: 3003
N 73 95 0 
N 7 98 0 
N 85 32 0 
N 40 91 0 
N 20 55 0 
O 61 34 0 
O 97 54 0 
7
Atoms. Timestep: 3004
N 72 95 0 
N 6 98 0 
N 84 32 0 
N 39 91 0 
N 19 55 0 
O 60 34 0 
O 96 54 0 
7
Atoms. Timestep: 3005
N 71 95 0 
N 5 98 0 
N 83 32 0 
N 38 91 0 
N 18 55 0 
O 59 34 0 
O 95 54 0 
7
Atoms. Timestep: 3006
N 70 95 0 
N 4 98 0 
N 82 32 0 
N 37 91 0 
N 17 55 0 
O 58 34 0 
O 94 54 0 
7
Atoms. Timestep: 3007
N 69 95 0 
N 3 98 0 
N 81 32 0 
N 36 91 0 
N 16 55 0 
O 57 34 0 
O 93 54 0 
7
Atoms. Timestep: 3008
N 68 95 0 
N 2 98 0 
N 80 32 0 
N 35 91 0 
N 15 55 0 
O 56 34 0 
O 92 54 0 
7
Atoms. Timestep: 3009
N 67 95 0 
N 1 98 0 
N 79 32 0 
N 34 91 0 
N 14 55 0 
O 55 34 0 
O 91 54 0 
7
Atoms. Timestep: 3010
N 66 95 0 
N 0 98 0 
N 78 32 0 
N 33 91 0 
N 13 55 0 
O 54 34 0 
O 90 54 0 
7
Atoms. Timestep: 3011
N 65 95 0 
N 99 98 0 
N 77 32 0 
N 32 91 0 
N 12 55 0 
O 53 34 0 
O 89 54 0 
7
Atoms. Timestep: 3012
N 64 95 0 
N 98 98 0 
N 76 32 0 
N 31 91 0 
N 11 55 0 
O 52 34 0 
O 88 54 0 
7
Atoms. Timestep: 3013
N 63 95 0 
N 97 98 0 
N 75 32 0 
N 30 91 0 
N 10 55 0 
O 51 34 0 
O 87 54 0 
7
Atoms. Timestep: 3014
N 62 95 0 
N 96 98 0 
N 74 32 0 
N 29 91 0 
N 9 55 0 
O 50 34 0 
O 86 54 0 
7
Atoms. Timestep: 3015
N 61 95 0 
N 95 98 0 
N 73 32 0 
N 28 91 0 
N 8 55 0 
O 49 34 0 
O 85 54 0 
7
Atoms. Timestep: 3016
N 60 95 0 
N 94 98 0 
N 72 32 0 
N 27 91 0 
N 7 55 0 
O 48 34 0 
O 84 54 0 
7
Atoms. Timestep: 3017
N 59 95 0 
N 93 98 0 
N 71 32 0 
N 26 91 0 
N 6 55 0 
O 47 34 0 
O 83 54 0 
7
Atoms. Timestep: 3018
N 58 95 0 
N 92 98 0 
N 70 32 0 
N 25 91 0 
N 5 55 0 
O 46 34 0 
O 82 54 0 
7
Atoms. Timestep: 3019
N 57 95 0 
N 91 98 0 
N 69 32 0 
N 24 91 0 
N 4 55 0 
O 45 34 0 
O 81 54 0 
7
Atoms. Timestep: 3020
N 56 95 0 
N 90 98 0 
N 68 32 0 
N 23 91 0 
N 3 55 0 
O 44 34 0 
O 80 54 0 
7
Atoms. Timestep: 3021
N 55 95 0 
N 89 98 0 
N 67 32 0 
N 22 91 0 
N 2 55 0 
O 43 34 0 
O 79 54 0 
7
Atoms. Timestep: 3022
N 54 95 0 
N 88 98 0 
N 66 32 0 
N 21 91 0 
N 1 55 0 
O 42 34 0 
O 78 54 0 
7
Atoms. Timestep: 3023
N 53 95 0 
N 87 98 0 
N 65 32 0 
N 20 91 0 
N 0 55 0 
O 41 34 0 
O 77 54 0 
7
Atoms. Timestep: 3024
N 52 95 0 
N 86 98 0 
N 64 32 0 
N 19 91 0 
N 99 55 0 
O 40 34 0 
O 76 54 0 
7
Atoms. Timestep: 3025
N 51 95 0 
N 85 98 0 
N 63 32 0 
N 18 91 0 
N 98 55 0 
O 39 34 0 
O 75 54 0 
7
Atoms. Timestep: 3026
N 50 95 0 
N 84 98 0 
N 62 32 0 
N 17 91 0 
N 97 55 0 
O 38 34 0 
O 74 54 0 
7
Atoms. Timestep: 3027
N 49 95 0 
N 83 98 0 
N 61 32 0 
N 16 91 0 
N 97 56 0 
O 37 34 0 
O 73 54 0 
7
Atoms. Timestep: 3028
N 48 95 0 
N 82 98 0 
N 60 32 0 
N 15 91 0 
N 96 56 0 
O 36 34 0 
O 72 54 0 
7
Atoms. Timestep: 3029
N 47 95 0 
N 81 98 0 
N 59 32 0 
N 14 91 0 
N 95 56 0 
O 35 34 0 
O 71 54 0 
7
Atoms. Timestep: 3030
N 46 95 0 
N 80 98 0 
N 58 32 0 
N 13 91 0 
N 94 56 0 
O 34 34 0 
O 70 54 0 
7
Atoms. Timestep: 3031
N 45 95 0 
N 79 98 0 
N 57 32 0 
N 12 91 0 
N 93 56 0 
O 33 34 0 
O 69 54 0 
7
Atoms. Timestep: 3032
N 44 95 0 
N 78 98 0 
N 56 32 0 
N 11 91 0 
N 92 56 0 
O 32 34 0 
O 68 54 0 
7
Atoms. Timestep: 3033
N 43 95 0 
N 77 98 0 
N 55 32 0 
N 10 91 0 
N 91 56 0 
O 31 34 0 
O 67 54 0 
7
Atoms. Timestep: 3034
N 42 95 0 
N 76 98 0 
N 54 32 0 
N 9 91 0 
N 90 56 0 
O 30 34 0 
O 66 54 0 
7
Atoms. Timestep: 3035
N 41 95 0 
N 75 98 0 
N 53 32 0 
N 8 91 0 
N 89 56 0 
O 29 34 0 
O 65 54 0 
7
Atoms. Timestep: 3036
N 40 95 0 
N 74 98 0 
N 52 32 0 
N 7 91 0 
N 88 56 0 
O 28 34 0 
O 64 54 0 
7
Atoms. Timestep: 3037
N 39 95 0 
N 73 98 0 
N 51 32 0 
N 6 91 0 
N 87 56 0 
O 27 34 0 
O 63 54 0 
7
Atoms. Timestep: 3038
N 38 95 0 
N 72 98 0 
N 50 32 0 
N 5 91 0 
N 86 56 0 
O 26 34 0 
O 62 54 0 
7
Atoms. Timestep: 3039
N 37 95 0 
N 71 98 0 
N 49 32 0 
N 4 91 0 
N 85 56 0 
O 25 34 0 
O 61 54 0 
7
Atoms. Timestep: 3040
N 36 95 0 
N 70 98 0 
N 48 32 0 
N 3 91 0 
N 84 56 0 
O 24 34 0 
O 60 54 0 
7
Atoms. Timestep: 3041
N 35 95 0 
N 69 98 0 
N 47 32 0 
N 2 91 0 
N 83 56 0 
O 23 34 0 
O 59 54 0 
7
Atoms. Timestep: 3042
N 34 95 0 
N 68 98 0 
N 46 32 0 
N 1 91 0 
N 82 56 0 
O 22 34 0 
O 58 54 0 
7
Atoms. Timestep: 3043
N 33 95 0 
N 67 98 0 
N 45 32 0 
N 0 91 0 
N 81 56 0 
O 21 34 0 
O 57 54 0 
7
Atoms. Timestep: 3044
N 32 95 0 
N 66 98 0 
N 44 32 0 
N 99 91 0 
N 80 56 0 
O 20 34 0 
O 56 54 0 
7
Atoms. Timestep: 3045
N 31 95 0 
N 65 98 0 
N 43 32 0 
N 99 90 0 
N 79 56 0 
O 19 34 0 
O 55 54 0 
7
Atoms. Timestep: 3046
N 30 95 0 
N 64 98 0 
N 42 32 0 
N 98 90 0 
N 78 56 0 
O 18 34 0 
O 54 54 0 
7
Atoms. Timestep: 3047
N 29 95 0 
N 63 98 0 
N 41 32 0 
N 97 90 0 
N 77 56 0 
O 17 34 0 
O 53 54 0 
7
Atoms. Timestep: 3048
N 28 95 0 
N 62 98 0 
N 40 32 0 
N 96 90 0 
N 76 56 0 
O 16 34 0 
O 52 54 0 
7
Atoms. Timestep: 3049
N 27 95 0 
N 61 98 0 
N 39 32 0 
N 95 90 0 
N 75 56 0 
O 15 34 0 
O 51 54 0 
7
Atoms. Timestep: 3050
N 26 95 0 
N 60 98 0 
N 38 32 0 
N 94 90 0 
N 74 56 0 
O 14 34 0 
O 50 54 0 
7
Atoms. Timestep: 3051
N 25 95 0 
N 59 98 0 
N 37 32 0 
N 93 90 0 
N 73 56 0 
O 13 34 0 
O 49 54 0 
7
Atoms. Timestep: 3052
N 24 95 0 
N 58 98 0 
N 36 32 0 
N 92 90 0 
N 72 56 0 
O 12 34 0 
O 48 54 0 
7
Atoms. Timestep: 3053
N 23 95 0 
N 57 98 0 
N 35 32 0 
N 91 90 0 
N 71 56 0 
O 11 34 0 
O 47 54 0 
7
Atoms. Timestep: 3054
N 22 95 0 
N 56 98 0 
N 34 32 0 
N 90 90 0 
N 70 56 0 
O 10 34 0 
O 46 54 0 
7
Atoms. Timestep: 3055
N 21 95 0 
N 55 98 0 
N 33 32 0 
N 89 90 0 
N 69 56 0 
O 9 34 0 
O 45 54 0 
7
Atoms. Timestep: 3056
N 20 95 0 
N 54 98 0 
N 32 32 0 
N 88 90 0 
N 68 56 0 
O 8 34 0 
O 44 54 0 
7
Atoms. Timestep: 3057
N 19 95 0 
N 53 98 0 
N 31 32 0 
N 87 90 0 
N 67 56 0 
O 7 34 0 
O 43 54 0 
7
Atoms. Timestep: 3058
N 18 95 0 
N 52 98 0 
N 30 32 0 
N 86 90 0 
N 66 56 0 
O 6 34 0 
O 42 54 0 
7
Atoms. Timestep: 3059
N 17 95 0 
N 51 98 0 
N 29 32 0 
N 85 90 0 
N 65 56 0 
O 5 34 0 
O 41 54 0 
7
Atoms. Timestep: 3060
N 16 95 0 
N 50 98 0 
N 28 32 0 
N 84 90 0 
N 64 56 0 
O 4 34 0 
O 40 54 0 
7
Atoms. Timestep: 3061
N 15 95 0 
N 49 98 0 
N 27 32 0 
N 83 90 0 
N 63 56 0 
O 3 34 0 
O 39 54 0 
7
Atoms. Timestep: 3062
N 14 95 0 
N 48 98 0 
N 26 32 0 
N 82 90 0 
N 62 56 0 
O 2 34 0 
O 38 54 0 
7
Atoms. Timestep: 3063
N 13 95 0 
N 47 98 0 
N 27 32 0 
N 81 90 0 
N 61 56 0 
O 1 34 0 
O 37 54 0 
7
Atoms. Timestep: 3064
N 12 95 0 
N 46 98 0 
N 27 33 0 
N 80 90 0 
N 60 56 0 
O 0 34 0 
O 37 55 0 
7
Atoms. Timestep: 3065
N 11 95 0 
N 45 98 0 
N 27 34 0 
N 79 90 0 
N 59 56 0 
O 99 34 0 
O 36 55 0 
7
Atoms. Timestep: 3066
N 10 95 0 
N 44 98 0 
N 27 35 0 
N 78 90 0 
N 58 56 0 
O 98 34 0 
O 36 56 0 
7
Atoms. Timestep: 3067
N 9 95 0 
N 43 98 0 
N 27 36 0 
N 77 90 0 
N 57 56 0 
O 97 34 0 
O 36 57 0 
7
Atoms. Timestep: 3068
N 8 95 0 
N 42 98 0 
N 27 37 0 
N 76 90 0 
N 56 56 0 
O 96 34 0 
O 35 57 0 
7
Atoms. Timestep: 3069
N 7 95 0 
N 41 98 0 
N 27 38 0 
N 75 90 0 
N 55 56 0 
O 95 34 0 
O 35 58 0 
7
Atoms. Timestep: 3070
N 6 95 0 
N 40 98 0 
N 27 39 0 
N 74 90 0 
N 54 56 0 
O 94 34 0 
O 34 58 0 
7
Atoms. Timestep: 3071
N 5 95 0 
N 39 98 0 
N 27 40 0 
N 73 90 0 
N 53 56 0 
O 93 34 0 
O 34 59 0 
7
Atoms. Timestep: 3072
N 4 95 0 
N 38 98 0 
N 27 41 0 
N 72 90 0 
N 52 56 0 
O 92 34 0 
O 33 59 0 
7
Atoms. Timestep: 3073
N 3 95 0 
N 37 98 0 
N 27 42 0 
N 71 90 0 
N 51 56 0 
O 91 34 0 
O 33 60 0 
7
Atoms. Timestep: 3074
N 2 95 0 
N 36 98 0 
N 27 43 0 
N 70 90 0 
N 50 56 0 
O 90 34 0 
O 32 60 0 
7
Atoms. Timestep: 3075
N 1 95 0 
N 35 98 0 
N 27 44 0 
N 69 90 0 
N 49 56 0 
O 89 34 0 
O 32 61 0 
7
Atoms. Timestep: 3076
N 2 95 0 
N 36 98 0 
N 27 45 0 
N 69 91 0 
N 48 56 0 
O 88 34 0 
O 32 62 0 
7
Atoms. Timestep: 3077
N 1 95 0 
N 35 98 0 
N 27 46 0 
N 68 91 0 
N 47 56 0 
O 87 34 0 
O 32 63 0 
7
Atoms. Timestep: 3078
N 0 95 0 
N 34 98 0 
N 27 47 0 
N 67 91 0 
N 46 56 0 
O 87 35 0 
O 31 63 0 
7
Atoms. Timestep: 3079
N 99 95 0 
N 33 98 0 
N 27 48 0 
N 66 91 0 
N 45 56 0 
O 87 36 0 
O 31 64 0 
7
Atoms. Timestep: 3080
N 98 95 0 
N 32 98 0 
N 27 49 0 
N 65 91 0 
N 44 56 0 
O 87 37 0 
O 31 65 0 
7
Atoms. Timestep: 3081
N 97 95 0 
N 31 98 0 
N 27 50 0 
N 64 91 0 
N 43 56 0 
O 86 37 0 
O 31 66 0 
7
Atoms. Timestep: 3082
N 96 95 0 
N 30 98 0 
N 26 50 0 
N 63 91 0 
N 42 56 0 
O 85 37 0 
O 30 66 0 
7
Atoms. Timestep: 3083
N 95 95 0 
N 29 98 0 
N 25 50 0 
N 62 91 0 
N 41 56 0 
O 84 37 0 
O 29 66 0 
7
Atoms. Timestep: 3084
N 94 95 0 
N 28 98 0 
N 24 50 0 
N 61 91 0 
N 40 56 0 
O 83 37 0 
O 28 66 0 
7
Atoms. Timestep: 3085
N 93 95 0 
N 27 98 0 
N 23 50 0 
N 60 91 0 
N 39 56 0 
O 82 37 0 
O 27 66 0 
7
Atoms. Timestep: 3086
N 92 95 0 
N 26 98 0 
N 22 50 0 
N 59 91 0 
N 38 56 0 
O 81 37 0 
O 26 66 0 
7
Atoms. Timestep: 3087
N 91 95 0 
N 25 98 0 
N 21 50 0 
N 58 91 0 
N 37 56 0 
O 80 37 0 
O 25 66 0 
7
Atoms. Timestep: 3088
N 90 95 0 
N 24 98 0 
N 20 50 0 
N 57 91 0 
N 36 56 0 
O 79 37 0 
O 24 66 0 
7
Atoms. Timestep: 3089
N 89 95 0 
N 23 98 0 
N 19 50 0 
N 56 91 0 
N 35 56 0 
O 78 37 0 
O 23 66 0 
7
Atoms. Timestep: 3090
N 88 95 0 
N 22 98 0 
N 18 50 0 
N 55 91 0 
N 34 56 0 
O 77 37 0 
O 22 66 0 
7
Atoms. Timestep: 3091
N 87 95 0 
N 21 98 0 
N 17 50 0 
N 54 91 0 
N 33 56 0 
O 76 37 0 
O 21 66 0 
7
Atoms. Timestep: 3092
N 86 95 0 
N 20 98 0 
N 16 50 0 
N 53 91 0 
N 32 56 0 
O 75 37 0 
O 20 66 0 
7
Atoms. Timestep: 3093
N 85 95 0 
N 19 98 0 
N 15 50 0 
N 52 91 0 
N 31 56 0 
O 74 37 0 
O 19 66 0 
7
Atoms. Timestep: 3094
N 84 95 0 
N 18 98 0 
N 14 50 0 
N 51 91 0 
N 30 56 0 
O 73 37 0 
O 18 66 0 
7
Atoms. Timestep: 3095
N 83 95 0 
N 17 98 0 
N 14 51 0 
N 50 91 0 
N 31 56 0 
O 73 38 0 
O 18 67 0 
7
Atoms. Timestep: 3096
N 82 95 0 
N 17 97 0 
N 14 52 0 
N 49 91 0 
N 32 56 0 
O 73 39 0 
O 18 68 0 
7
Atoms. Timestep: 3097
N 83 95 0 
N 17 96 0 
N 14 53 0 
N 50 91 0 
N 33 56 0 
O 72 39 0 
O 18 69 0 
7
Atoms. Timestep: 3098
N 82 95 0 
N 17 95 0 
N 14 54 0 
N 49 91 0 
N 34 56 0 
O 73 39 0 
O 18 70 0 
7
Atoms. Timestep: 3099
N 83 95 0 
N 17 94 0 
N 14 55 0 
N 50 91 0 
N 35 56 0 
O 74 39 0 
O 18 71 0 
7
Atoms. Timestep: 3100
N 82 95 0 
N 17 93 0 
N 14 56 0 
N 49 91 0 
N 36 56 0 
O 75 39 0 
O 18 72 0 
7
Atoms. Timestep: 3101
N 83 95 0 
N 17 92 0 
N 14 57 0 
N 50 91 0 
N 37 56 0 
O 76 39 0 
O 18 73 0 
7
Atoms. Timestep: 3102
N 82 95 0 
N 17 91 0 
N 14 58 0 
N 49 91 0 
N 38 56 0 
O 77 39 0 
O 18 74 0 
7
Atoms. Timestep: 3103
N 83 95 0 
N 17 90 0 
N 14 59 0 
N 50 91 0 
N 39 56 0 
O 78 39 0 
O 18 75 0 
7
Atoms. Timestep: 3104
N 82 95 0 
N 17 89 0 
N 14 60 0 
N 49 91 0 
N 40 56 0 
O 77 39 0 
O 18 74 0 
7
Atoms. Timestep: 3105
N 83 95 0 
N 17 88 0 
N 14 61 0 
N 50 91 0 
N 41 56 0 
O 78 39 0 
O 18 75 0 
7
Atoms. Timestep: 3106
N 82 95 0 
N 17 87 0 
N 14 62 0 
N 49 91 0 
N 42 56 0 
O 79 39 0 
O 18 74 0 
7
Atoms. Timestep: 3107
N 83 95 0 
N 17 86 0 
N 14 63 0 
N 50 91 0 
N 43 56 0 
O 80 39 0 
O 18 75 0 
7
Atoms. Timestep: 3108
N 84 95 0 
N 17 85 0 
N 14 64 0 
N 49 91 0 
N 44 56 0 
O 81 39 0 
O 18 74 0 
7
Atoms. Timestep: 3109
N 83 95 0 
N 17 84 0 
N 14 65 0 
N 50 91 0 
N 45 56 0 
O 82 39 0 
O 18 75 0 
7
Atoms. Timestep: 3110
N 84 95 0 
N 17 83 0 
N 14 66 0 
N 49 91 0 
N 46 56 0 
O 83 39 0 
O 18 74 0 
7
Atoms. Timestep: 3111
N 85 95 0 
N 17 82 0 
N 14 67 0 
N 50 91 0 
N 47 56 0 
O 84 39 0 
O 18 73 0 
7
Atoms. Timestep: 3112
N 84 95 0 
N 17 81 0 
N 14 68 0 
N 51 91 0 
N 46 56 0 
O 83 39 0 
O 18 74 0 
7
Atoms. Timestep: 3113
N 85 95 0 
N 17 80 0 
N 14 69 0 
N 50 91 0 
N 45 56 0 
O 84 39 0 
O 18 73 0 
7
Atoms. Timestep: 3114
N 86 95 0 
N 17 79 0 
N 14 70 0 
N 51 91 0 
N 44 56 0 
O 84 38 0 
O 19 73 0 
7
Atoms. Timestep: 3115
N 85 95 0 
N 17 78 0 
N 15 70 0 
N 50 91 0 
N 43 56 0 
O 84 39 0 
O 19 72 0 
7
Atoms. Timestep: 3116
N 84 95 0 
N 17 77 0 
N 16 70 0 
N 49 91 0 
N 42 56 0 
O 84 40 0 
O 20 72 0 
7
Atoms. Timestep: 3117
N 85 95 0 
N 17 76 0 
N 17 70 0 
N 50 91 0 
N 41 56 0 
O 83 40 0 
O 21 72 0 
7
Atoms. Timestep: 3118
N 86 95 0 
N 17 75 0 
N 18 70 0 
N 49 91 0 
N 40 56 0 
O 83 41 0 
O 22 72 0 
7
Atoms. Timestep: 3119
N 85 95 0 
N 17 76 0 
N 19 70 0 
N 48 91 0 
N 39 56 0 
O 83 42 0 
O 23 72 0 
7
Atoms. Timestep: 3120
N 84 95 0 
N 17 77 0 
N 20 70 0 
N 47 91 0 
N 38 56 0 
O 82 42 0 
O 24 72 0 
7
Atoms. Timestep: 3121
N 83 95 0 
N 17 78 0 
N 21 70 0 
N 46 91 0 
N 38 57 0 
O 83 42 0 
O 25 72 0 
7
Atoms. Timestep: 3122
N 82 95 0 
N 17 79 0 
N 22 70 0 
N 45 91 0 
N 38 58 0 
O 83 43 0 
O 26 72 0 
7
Atoms. Timestep: 3123
N 83 95 0 
N 17 80 0 
N 23 70 0 
N 45 90 0 
N 38 59 0 
O 84 43 0 
O 27 72 0 
7
Atoms. Timestep: 3124
N 82 95 0 
N 17 81 0 
N 24 70 0 
N 44 90 0 
N 38 60 0 
O 84 44 0 
O 28 72 0 
7
Atoms. Timestep: 3125
N 81 95 0 
N 17 82 0 
N 25 70 0 
N 44 89 0 
N 38 61 0 
O 83 44 0 
O 29 72 0 
7
Atoms. Timestep: 3126
N 80 95 0 
N 17 83 0 
N 26 70 0 
N 44 88 0 
N 38 62 0 
O 84 44 0 
O 30 72 0 
7
Atoms. Timestep: 3127
N 81 95 0 
N 17 84 0 
N 27 70 0 
N 44 87 0 
N 38 63 0 
O 84 45 0 
O 31 72 0 
7
Atoms. Timestep: 3128
N 80 95 0 
N 17 85 0 
N 28 70 0 
N 44 86 0 
N 38 64 0 
O 85 45 0 
O 32 72 0 
7
Atoms. Timestep: 3129
N 81 95 0 
N 17 86 0 
N 29 70 0 
N 44 85 0 
N 38 65 0 
O 86 45 0 
O 33 72 0 
7
Atoms. Timestep: 3130
N 80 95 0 
N 17 87 0 
N 30 70 0 
N 44 84 0 
N 38 66 0 
O 87 45 0 
O 34 72 0 
7
Atoms. Timestep: 3131
N 79 95 0 
N 17 88 0 
N 31 70 0 
N 44 83 0 
N 38 67 0 
O 88 45 0 
O 35 72 0 
7
Atoms. Timestep: 3132
N 80 95 0 
N 17 89 0 
N 32 70 0 
N 44 82 0 
N 38 68 0 
O 89 45 0 
O 36 72 0 
7
Atoms. Timestep: 3133
N 79 95 0 
N 17 90 0 
N 33 70 0 
N 44 81 0 
N 38 69 0 
O 90 45 0 
O 37 72 0 
7
Atoms. Timestep: 3134
N 78 95 0 
N 17 91 0 
N 33 69 0 
N 44 80 0 
N 38 70 0 
O 89 45 0 
O 37 73 0 
7
Atoms. Timestep: 3135
N 79 95 0 
N 17 92 0 
N 32 69 0 
N 43 80 0 
N 38 71 0 
O 88 45 0 
O 37 74 0 
7
Atoms. Timestep: 3136
N 78 95 0 
N 17 93 0 
N 31 69 0 
N 42 80 0 
N 38 72 0 
O 87 45 0 
O 37 75 0 
7
Atoms. Timestep: 3137
N 79 95 0 
N 18 93 0 
N 30 69 0 
N 41 80 0 
N 38 73 0 
O 86 45 0 
O 37 76 0 
7
Atoms. Timestep: 3138
N 78 95 0 
N 19 93 0 
N 29 69 0 
N 41 79 0 
N 38 74 0 
O 85 45 0 
O 37 77 0 
7
Atoms. Timestep: 3139
N 79 95 0 
N 20 93 0 
N 28 69 0 
N 40 79 0 
N 38 75 0 
O 84 45 0 
O 37 78 0 
7
Atoms. Timestep: 3140
N 80 95 0 
N 21 93 0 
N 27 69 0 
N 40 80 0 
N 38 76 0 
O 83 45 0 
O 37 79 0 
7
Atoms. Timestep: 3141
N 79 95 0 
N 22 93 0 
N 26 69 0 
N 40 81 0 
N 38 77 0 
O 82 45 0 
O 37 80 0 
7
Atoms. Timestep: 3142
N 80 95 0 
N 23 93 0 
N 25 69 0 
N 40 82 0 
N 38 78 0 
O 81 45 0 
O 37 81 0 
7
Atoms. Timestep: 3143
N 81 95 0 
N 24 93 0 
N 24 69 0 
N 40 83 0 
N 38 79 0 
O 80 45 0 
O 37 82 0 
7
Atoms. Timestep: 3144
N 82 95 0 
N 25 93 0 
N 23 69 0 
N 40 84 0 
N 38 80 0 
O 79 45 0 
O 37 83 0 
7
Atoms. Timestep: 3145
N 83 95 0 
N 26 93 0 
N 22 69 0 
N 40 85 0 
N 38 81 0 
O 78 45 0 
O 37 84 0 
7
Atoms. Timestep: 3146
N 84 95 0 
N 27 93 0 
N 21 69 0 
N 40 86 0 
N 38 82 0 
O 77 45 0 
O 37 85 0 
7
Atoms. Timestep: 3147
N 83 95 0 
N 28 93 0 
N 20 69 0 
N 40 87 0 
N 38 83 0 
O 76 45 0 
O 37 86 0 
7
Atoms. Timestep: 3148
N 84 95 0 
N 29 93 0 
N 19 69 0 
N 40 88 0 
N 38 84 0 
O 75 45 0 
O 37 87 0 
7
Atoms. Timestep: 3149
N 83 95 0 
N 30 93 0 
N 18 69 0 
N 40 89 0 
N 38 85 0 
O 74 45 0 
O 37 88 0 
7
Atoms. Timestep: 3150
N 84 95 0 
N 31 93 0 
N 18 68 0 
N 40 90 0 
N 38 86 0 
O 73 45 0 
O 37 89 0 
7
Atoms. Timestep: 3151
N 83 95 0 
N 32 93 0 
N 17 68 0 
N 40 91 0 
N 38 87 0 
O 72 45 0 
O 37 90 0 
7
Atoms. Timestep: 3152
N 84 95 0 
N 33 93 0 
N 17 67 0 
N 40 92 0 
N 38 88 0 
O 71 45 0 
O 37 91 0 
7
Atoms. Timestep: 3153
N 83 95 0 
N 34 93 0 
N 17 66 0 
N 40 93 0 
N 38 89 0 
O 70 45 0 
O 37 92 0 
7
Atoms. Timestep: 3154
N 84 95 0 
N 35 93 0 
N 17 65 0 
N 40 94 0 
N 38 90 0 
O 69 45 0 
O 38 92 0 
7
Atoms. Timestep: 3155
N 85 95 0 
N 34 93 0 
N 17 64 0 
N 40 93 0 
N 38 91 0 
O 68 45 0 
O 38 93 0 
7
Atoms. Timestep: 3156
N 84 95 0 
N 35 93 0 
N 17 63 0 
N 39 93 0 
N 38 90 0 
O 67 45 0 
O 37 93 0 
7
Atoms. Timestep: 3157
N 84 96 0 
N 36 93 0 
N 17 62 0 
N 38 93 0 
N 38 89 0 
O 67 46 0 
O 37 93 0 
6
Atoms. Timestep: 3158
N 85 96 0 
N 37 93 0 
N 17 61 0 
N 39 93 0 
N 38 88 0 
O 67 45 0 
6
Atoms. Timestep: 3159
N 86 96 0 
N 36 93 0 
N 17 60 0 
N 40 93 0 
N 38 87 0 
O 67 44 0 
6
Atoms. Timestep: 3160
N 87 96 0 
N 35 93 0 
N 17 59 0 
N 41 93 0 
N 38 86 0 
O 67 43 0 
6
Atoms. Timestep: 3161
N 88 96 0 
N 34 93 0 
N 17 58 0 
N 41 92 0 
N 38 85 0 
O 67 44 0 
6
Atoms. Timestep: 3162
N 87 96 0 
N 33 93 0 
N 17 57 0 
N 42 92 0 
N 38 84 0 
O 67 43 0 
6
Atoms. Timestep: 3163
N 88 96 0 
N 32 93 0 
N 17 56 0 
N 43 92 0 
N 38 83 0 
O 67 42 0 
6
Atoms. Timestep: 3164
N 87 96 0 
N 31 93 0 
N 17 55 0 
N 44 92 0 
N 38 82 0 
O 67 41 0 
6
Atoms. Timestep: 3165
N 86 96 0 
N 30 93 0 
N 17 54 0 
N 44 93 0 
N 38 81 0 
O 67 42 0 
6
Atoms. Timestep: 3166
N 87 96 0 
N 29 93 0 
N 17 53 0 
N 45 93 0 
N 38 80 0 
O 67 41 0 
6
Atoms. Timestep: 3167
N 86 96 0 
N 28 93 0 
N 17 52 0 
N 45 94 0 
N 38 79 0 
O 67 40 0 
6
Atoms. Timestep: 3168
N 87 96 0 
N 27 93 0 
N 17 51 0 
N 46 94 0 
N 38 78 0 
O 67 39 0 
6
Atoms. Timestep: 3169
N 86 96 0 
N 26 93 0 
N 17 50 0 
N 46 95 0 
N 38 77 0 
O 67 40 0 
6
Atoms. Timestep: 3170
N 87 96 0 
N 26 94 0 
N 17 49 0 
N 47 95 0 
N 38 76 0 
O 67 39 0 
6
Atoms. Timestep: 3171
N 86 96 0 
N 25 94 0 
N 17 48 0 
N 48 95 0 
N 38 75 0 
O 67 38 0 
6
Atoms. Timestep: 3172
N 87 96 0 
N 25 95 0 
N 17 47 0 
N 49 95 0 
N 38 74 0 
O 67 39 0 
6
Atoms. Timestep: 3173
N 86 96 0 
N 24 95 0 
N 17 46 0 
N 50 95 0 
N 38 73 0 
O 67 38 0 
6
Atoms. Timestep: 3174
N 87 96 0 
N 23 95 0 
N 17 45 0 
N 50 96 0 
N 38 72 0 
O 67 37 0 
6
Atoms. Timestep: 3175
N 86 96 0 
N 22 95 0 
N 17 44 0 
N 51 96 0 
N 38 71 0 
O 67 38 0 
6
Atoms. Timestep: 3176
N 87 96 0 
N 22 96 0 
N 17 43 0 
N 52 96 0 
N 38 70 0 
O 67 37 0 
6
Atoms. Timestep: 3177
N 86 96 0 
N 21 96 0 
N 17 42 0 
N 53 96 0 
N 38 69 0 
O 67 38 0 
6
Atoms. Timestep: 3178
N 87 96 0 
N 20 96 0 
N 17 41 0 
N 53 97 0 
N 38 68 0 
O 67 37 0 
6
Atoms. Timestep: 3179
N 88 96 0 
N 21 96 0 
N 17 40 0 
N 54 97 0 
N 38 67 0 
O 67 36 0 
6
Atoms. Timestep: 3180
N 89 96 0 
N 22 96 0 
N 17 39 0 
N 55 97 0 
N 38 66 0 
O 67 37 0 
6
Atoms. Timestep: 3181
N 90 96 0 
N 23 96 0 
N 17 38 0 
N 56 97 0 
N 38 65 0 
O 68 37 0 
6
Atoms. Timestep: 3182
N 91 96 0 
N 24 96 0 
N 17 37 0 
N 57 97 0 
N 38 64 0 
O 69 37 0 
6
Atoms. Timestep: 3183
N 92 96 0 
N 25 96 0 
N 17 36 0 
N 58 97 0 
N 38 63 0 
O 70 37 0 
6
Atoms. Timestep: 3184
N 93 96 0 
N 26 96 0 
N 17 35 0 
N 59 97 0 
N 38 64 0 
O 70 38 0 
6
Atoms. Timestep: 3185
N 94 96 0 
N 27 96 0 
N 17 34 0 
N 60 97 0 
N 38 63 0 
O 71 38 0 
6
Atoms. Timestep: 3186
N 95 96 0 
N 28 96 0 
N 17 33 0 
N 61 97 0 
N 38 62 0 
O 72 38 0 
6
Atoms. Timestep: 3187
N 96 96 0 
N 29 96 0 
N 17 32 0 
N 62 97 0 
N 38 61 0 
O 73 38 0 
6
Atoms. Timestep: 3188
N 97 96 0 
N 30 96 0 
N 17 31 0 
N 63 97 0 
N 37 61 0 
O 73 39 0 
6
Atoms. Timestep: 3189
N 98 96 0 
N 31 96 0 
N 17 30 0 
N 64 97 0 
N 37 60 0 
O 74 39 0 
6
Atoms. Timestep: 3190
N 99 96 0 
N 32 96 0 
N 17 29 0 
N 65 97 0 
N 37 59 0 
O 74 40 0 
6
Atoms. Timestep: 3191
N 0 96 0 
N 33 96 0 
N 17 30 0 
N 66 97 0 
N 37 60 0 
O 75 40 0 
6
Atoms. Timestep: 3192
N 1 96 0 
N 34 96 0 
N 17 29 0 
N 67 97 0 
N 37 59 0 
O 76 40 0 
6
Atoms. Timestep: 3193
N 2 96 0 
N 35 96 0 
N 17 30 0 
N 68 97 0 
N 37 60 0 
O 75 40 0 
6
Atoms. Timestep: 3194
N 3 96 0 
N 36 96 0 
N 17 29 0 
N 69 97 0 
N 37 59 0 
O 76 40 0 
6
Atoms. Timestep: 3195
N 4 96 0 
N 37 96 0 
N 17 30 0 
N 70 97 0 
N 37 60 0 
O 75 40 0 
6
Atoms. Timestep: 3196
N 5 96 0 
N 38 96 0 
N 17 29 0 
N 71 97 0 
N 37 59 0 
O 76 40 0 
6
Atoms. Timestep: 3197
N 6 96 0 
N 39 96 0 
N 17 30 0 
N 72 97 0 
N 37 60 0 
O 75 40 0 
6
Atoms. Timestep: 3198
N 7 96 0 
N 40 96 0 
N 17 31 0 
N 73 97 0 
N 37 59 0 
O 74 40 0 
6
Atoms. Timestep: 3199
N 6 96 0 
N 41 96 0 
N 17 30 0 
N 73 96 0 
N 37 60 0 
O 75 40 0 
6
Atoms. Timestep: 3200
N 7 96 0 
N 40 96 0 
N 17 31 0 
N 74 96 0 
N 37 59 0 
O 74 40 0 
6
Atoms. Timestep: 3201
N 6 96 0 
N 41 96 0 
N 17 30 0 
N 73 96 0 
N 37 60 0 
O 75 40 0 
6
Atoms. Timestep: 3202
N 7 96 0 
N 40 96 0 
N 17 31 0 
N 74 96 0 
N 37 59 0 
O 74 40 0 
6
Atoms. Timestep: 3203
N 6 96 0 
N 41 96 0 
N 17 30 0 
N 73 96 0 
N 37 60 0 
O 75 40 0 
6
Atoms. Timestep: 3204
N 7 96 0 
N 40 96 0 
N 17 31 0 
N 74 96 0 
N 37 59 0 
O 74 40 0 
6
Atoms. Timestep: 3205
N 6 96 0 
N 41 96 0 
N 17 30 0 
N 73 96 0 
N 37 60 0 
O 75 40 0 
6
Atoms. Timestep: 3206
N 7 96 0 
N 40 96 0 
N 17 31 0 
N 74 96 0 
N 37 59 0 
O 74 40 0 
6
Atoms. Timestep: 3207
N 6 96 0 
N 41 96 0 
N 17 30 0 
N 73 96 0 
N 37 60 0 
O 75 40 0 
6
Atoms. Timestep: 3208
N 7 96 0 
N 40 96 0 
N 17 31 0 
N 74 96 0 
N 37 59 0 
O 74 40 0 
6
Atoms. Timestep: 3209
N 6 96 0 
N 41 96 0 
N 17 30 0 
N 73 96 0 
N 37 60 0 
O 75 40 0 
6
Atoms. Timestep: 3210
N 7 96 0 
N 40 96 0 
N 17 31 0 
N 74 96 0 
N 37 59 0 
O 74 40 0 
6
Atoms. Timestep: 3211
N 6 96 0 
N 41 96 0 
N 17 30 0 
N 73 96 0 
N 37 60 0 
O 75 40 0 
6
Atoms. Timestep: 3212
N 7 96 0 
N 40 96 0 
N 17 31 0 
N 74 96 0 
N 37 59 0 
O 74 40 0 
6
Atoms. Timestep: 3213
N 6 96 0 
N 41 96 0 
N 17 30 0 
N 73 96 0 
N 37 60 0 
O 75 40 0 
6
Atoms. Timestep: 3214
N 7 96 0 
N 40 96 0 
N 17 31 0 
N 74 96 0 
N 37 59 0 
O 74 40 0 
6
Atoms. Timestep: 3215
N 6 96 0 
N 41 96 0 
N 17 30 0 
N 73 96 0 
N 37 60 0 
O 75 40 0 
6
Atoms. Timestep: 3216
N 7 96 0 
N 40 96 0 
N 17 31 0 
N 74 96 0 
N 37 59 0 
O 74 40 0 
6
Atoms. Timestep: 3217
N 6 96 0 
N 41 96 0 
N 17 30 0 
N 73 96 0 
N 37 60 0 
O 75 40 0 
6
Atoms. Timestep: 3218
N 7 96 0 
N 40 96 0 
N 17 31 0 
N 74 96 0 
N 37 59 0 
O 74 40 0 
6
Atoms. Timestep: 3219
N 6 96 0 
N 41 96 0 
N 17 30 0 
N 73 96 0 
N 37 60 0 
O 75 40 0 
6
Atoms. Timestep: 3220
N 7 96 0 
N 40 96 0 
N 17 31 0 
N 74 96 0 
N 37 59 0 
O 74 40 0 
6
Atoms. Timestep: 3221
N 6 96 0 
N 41 96 0 
N 17 30 0 
N 73 96 0 
N 37 60 0 
O 75 40 0 
6
Atoms. Timestep: 3222
N 7 96 0 
N 40 96 0 
N 17 31 0 
N 74 96 0 
N 37 59 0 
O 74 40 0 
6
Atoms. Timestep: 3223
N 6 96 0 
N 41 96 0 
N 17 30 0 
N 73 96 0 
N 37 60 0 
O 75 40 0 
6
Atoms. Timestep: 3224
N 7 96 0 
N 40 96 0 
N 17 31 0 
N 74 96 0 
N 37 59 0 
O 74 40 0 
6
Atoms. Timestep: 3225
N 6 96 0 
N 41 96 0 
N 17 30 0 
N 73 96 0 
N 37 60 0 
O 75 40 0 
6
Atoms. Timestep: 3226
N 7 96 0 
N 40 96 0 
N 17 31 0 
N 74 96 0 
N 37 59 0 
O 74 40 0 
6
Atoms. Timestep: 3227
N 6 96 0 
N 41 96 0 
N 17 30 0 
N 73 96 0 
N 37 60 0 
O 75 40 0 
6
Atoms. Timestep: 3228
N 7 96 0 
N 40 96 0 
N 17 31 0 
N 74 96 0 
N 37 59 0 
O 74 40 0 
6
Atoms. Timestep: 3229
N 6 96 0 
N 41 96 0 
N 17 30 0 
N 73 96 0 
N 37 60 0 
O 75 40 0 
6
Atoms. Timestep: 3230
N 7 96 0 
N 40 96 0 
N 17 31 0 
N 74 96 0 
N 37 59 0 
O 74 40 0 
6
Atoms. Timestep: 3231
N 6 96 0 
N 41 96 0 
N 17 30 0 
N 73 96 0 
N 37 60 0 
O 75 40 0 
6
Atoms. Timestep: 3232
N 7 96 0 
N 40 96 0 
N 17 31 0 
N 74 96 0 
N 37 59 0 
O 74 40 0 
6
Atoms. Timestep: 3233
N 6 96 0 
N 41 96 0 
N 17 30 0 
N 73 96 0 
N 37 60 0 
O 75 40 0 
6
Atoms. Timestep: 3234
N 7 96 0 
N 40 96 0 
N 17 31 0 
N 74 96 0 
N 37 59 0 
O 74 40 0 
6
Atoms. Timestep: 3235
N 6 96 0 
N 41 96 0 
N 17 30 0 
N 73 96 0 
N 37 60 0 
O 75 40 0 
6
Atoms. Timestep: 3236
N 7 96 0 
N 40 96 0 
N 17 31 0 
N 74 96 0 
N 37 59 0 
O 74 40 0 
6
Atoms. Timestep: 3237
N 8 96 0 
N 41 96 0 
N 17 30 0 
N 73 96 0 
N 37 60 0 
O 75 40 0 
6
Atoms. Timestep: 3238
N 7 96 0 
N 42 96 0 
N 17 31 0 
N 74 96 0 
N 37 59 0 
O 74 40 0 
6
Atoms. Timestep: 3239
N 8 96 0 
N 41 96 0 
N 17 30 0 
N 75 96 0 
N 37 60 0 
O 75 40 0 
6
Atoms. Timestep: 3240
N 7 96 0 
N 42 96 0 
N 17 31 0 
N 74 96 0 
N 37 59 0 
O 74 40 0 
6
Atoms. Timestep: 3241
N 8 96 0 
N 41 96 0 
N 17 30 0 
N 75 96 0 
N 37 60 0 
O 75 40 0 
6
Atoms. Timestep: 3242
N 7 96 0 
N 42 96 0 
N 17 31 0 
N 74 96 0 
N 37 59 0 
O 74 40 0 
6
Atoms. Timestep: 3243
N 8 96 0 
N 41 96 0 
N 17 30 0 
N 75 96 0 
N 37 60 0 
O 75 40 0 
6
Atoms. Timestep: 3244
N 7 96 0 
N 42 96 0 
N 17 31 0 
N 74 96 0 
N 37 59 0 
O 74 40 0 
6
Atoms. Timestep: 3245
N 8 96 0 
N 41 96 0 
N 17 30 0 
N 75 96 0 
N 37 60 0 
O 75 40 0 
6
Atoms. Timestep: 3246
N 7 96 0 
N 42 96 0 
N 17 31 0 
N 74 96 0 
N 37 59 0 
O 74 40 0 
6
Atoms. Timestep: 3247
N 8 96 0 
N 41 96 0 
N 17 30 0 
N 75 96 0 
N 37 60 0 
O 75 40 0 
6
Atoms. Timestep: 3248
N 7 96 0 
N 42 96 0 
N 17 31 0 
N 74 96 0 
N 37 59 0 
O 74 40 0 
6
Atoms. Timestep: 3249
N 8 96 0 
N 41 96 0 
N 17 30 0 
N 75 96 0 
N 37 60 0 
O 75 40 0 
6
Atoms. Timestep: 3250
N 7 96 0 
N 42 96 0 
N 17 31 0 
N 74 96 0 
N 37 59 0 
O 74 40 0 
6
Atoms. Timestep: 3251
N 8 96 0 
N 41 96 0 
N 17 30 0 
N 75 96 0 
N 37 60 0 
O 75 40 0 
6
Atoms. Timestep: 3252
N 7 96 0 
N 42 96 0 
N 17 31 0 
N 74 96 0 
N 37 59 0 
O 74 40 0 
6
Atoms. Timestep: 3253
N 8 96 0 
N 41 96 0 
N 17 30 0 
N 75 96 0 
N 37 60 0 
O 75 40 0 
6
Atoms. Timestep: 3254
N 7 96 0 
N 42 96 0 
N 17 31 0 
N 74 96 0 
N 37 59 0 
O 74 40 0 
6
Atoms. Timestep: 3255
N 8 96 0 
N 41 96 0 
N 17 30 0 
N 75 96 0 
N 37 60 0 
O 75 40 0 
6
Atoms. Timestep: 3256
N 7 96 0 
N 42 96 0 
N 17 31 0 
N 74 96 0 
N 37 59 0 
O 74 40 0 
6
Atoms. Timestep: 3257
N 8 96 0 
N 41 96 0 
N 17 30 0 
N 75 96 0 
N 37 60 0 
O 75 40 0 
6
Atoms. Timestep: 3258
N 7 96 0 
N 42 96 0 
N 17 31 0 
N 74 96 0 
N 37 59 0 
O 74 40 0 
6
Atoms. Timestep: 3259
N 8 96 0 
N 41 96 0 
N 17 30 0 
N 75 96 0 
N 37 60 0 
O 75 40 0 
6
Atoms. Timestep: 3260
N 7 96 0 
N 42 96 0 
N 17 31 0 
N 74 96 0 
N 37 59 0 
O 74 40 0 
6
Atoms. Timestep: 3261
N 8 96 0 
N 41 96 0 
N 17 30 0 
N 75 96 0 
N 37 60 0 
O 75 40 0 
6
Atoms. Timestep: 3262
N 7 96 0 
N 42 96 0 
N 17 31 0 
N 74 96 0 
N 37 59 0 
O 74 40 0 
6
Atoms. Timestep: 3263
N 8 96 0 
N 41 96 0 
N 17 30 0 
N 75 96 0 
N 37 60 0 
O 75 40 0 
6
Atoms. Timestep: 3264
N 7 96 0 
N 42 96 0 
N 17 31 0 
N 74 96 0 
N 37 59 0 
O 74 40 0 
6
Atoms. Timestep: 3265
N 8 96 0 
N 41 96 0 
N 17 30 0 
N 75 96 0 
N 37 60 0 
O 75 40 0 
6
Atoms. Timestep: 3266
N 7 96 0 
N 42 96 0 
N 17 31 0 
N 74 96 0 
N 37 59 0 
O 74 40 0 
6
Atoms. Timestep: 3267
N 8 96 0 
N 41 96 0 
N 17 30 0 
N 75 96 0 
N 37 60 0 
O 75 40 0 
6
Atoms. Timestep: 3268
N 7 96 0 
N 42 96 0 
N 17 31 0 
N 74 96 0 
N 37 59 0 
O 74 40 0 
6
Atoms. Timestep: 3269
N 8 96 0 
N 41 96 0 
N 17 30 0 
N 75 96 0 
N 37 60 0 
O 75 40 0 
6
Atoms. Timestep: 3270
N 7 96 0 
N 42 96 0 
N 17 31 0 
N 74 96 0 
N 37 59 0 
O 74 40 0 
6
Atoms. Timestep: 3271
N 8 96 0 
N 41 96 0 
N 17 30 0 
N 75 96 0 
N 37 60 0 
O 75 40 0 
6
Atoms. Timestep: 3272
N 7 96 0 
N 42 96 0 
N 17 31 0 
N 74 96 0 
N 37 59 0 
O 74 40 0 
6
Atoms. Timestep: 3273
N 8 96 0 
N 41 96 0 
N 17 30 0 
N 75 96 0 
N 37 60 0 
O 75 40 0 
6
Atoms. Timestep: 3274
N 7 96 0 
N 42 96 0 
N 17 31 0 
N 74 96 0 
N 37 59 0 
O 74 40 0 
6
Atoms. Timestep: 3275
N 8 96 0 
N 41 96 0 
N 17 30 0 
N 75 96 0 
N 37 60 0 
O 75 40 0 
6
Atoms. Timestep: 3276
N 7 96 0 
N 42 96 0 
N 17 31 0 
N 74 96 0 
N 37 59 0 
O 74 40 0 
6
Atoms. Timestep: 3277
N 8 96 0 
N 41 96 0 
N 17 30 0 
N 75 96 0 
N 37 60 0 
O 75 40 0 
6
Atoms. Timestep: 3278
N 7 96 0 
N 42 96 0 
N 17 31 0 
N 74 96 0 
N 37 59 0 
O 74 40 0 
6
Atoms. Timestep: 3279
N 8 96 0 
N 41 96 0 
N 17 30 0 
N 75 96 0 
N 37 60 0 
O 75 40 0 
6
Atoms. Timestep: 3280
N 7 96 0 
N 42 96 0 
N 17 31 0 
N 74 96 0 
N 37 59 0 
O 74 40 0 
6
Atoms. Timestep: 3281
N 8 96 0 
N 41 96 0 
N 17 30 0 
N 75 96 0 
N 37 60 0 
O 75 40 0 
6
Atoms. Timestep: 3282
N 7 96 0 
N 42 96 0 
N 17 31 0 
N 74 96 0 
N 37 59 0 
O 74 40 0 
6
Atoms. Timestep: 3283
N 8 96 0 
N 41 96 0 
N 17 30 0 
N 75 96 0 
N 37 60 0 
O 75 40 0 
6
Atoms. Timestep: 3284
N 7 96 0 
N 42 96 0 
N 17 31 0 
N 74 96 0 
N 37 59 0 
O 74 40 0 
6
Atoms. Timestep: 3285
N 8 96 0 
N 41 96 0 
N 17 30 0 
N 75 96 0 
N 37 60 0 
O 75 40 0 
6
Atoms. Timestep: 3286
N 7 96 0 
N 42 96 0 
N 17 31 0 
N 74 96 0 
N 37 59 0 
O 74 40 0 
6
Atoms. Timestep: 3287
N 8 96 0 
N 41 96 0 
N 17 30 0 
N 75 96 0 
N 37 60 0 
O 75 40 0 
6
Atoms. Timestep: 3288
N 7 96 0 
N 42 96 0 
N 17 31 0 
N 74 96 0 
N 37 59 0 
O 74 40 0 
6
Atoms. Timestep: 3289
N 8 96 0 
N 41 96 0 
N 17 30 0 
N 75 96 0 
N 37 60 0 
O 75 40 0 
6
Atoms. Timestep: 3290
N 7 96 0 
N 42 96 0 
N 17 31 0 
N 74 96 0 
N 37 59 0 
O 74 40 0 
6
Atoms. Timestep: 3291
N 8 96 0 
N 41 96 0 
N 17 30 0 
N 75 96 0 
N 37 60 0 
O 75 40 0 
6
Atoms. Timestep: 3292
N 7 96 0 
N 42 96 0 
N 17 31 0 
N 74 96 0 
N 37 59 0 
O 74 40 0 
6
Atoms. Timestep: 3293
N 8 96 0 
N 41 96 0 
N 17 30 0 
N 75 96 0 
N 37 60 0 
O 75 40 0 
6
Atoms. Timestep: 3294
N 7 96 0 
N 42 96 0 
N 17 31 0 
N 74 96 0 
N 37 59 0 
O 74 40 0 
6
Atoms. Timestep: 3295
N 8 96 0 
N 41 96 0 
N 17 30 0 
N 75 96 0 
N 37 60 0 
O 75 40 0 
6
Atoms. Timestep: 3296
N 7 96 0 
N 42 96 0 
N 17 31 0 
N 74 96 0 
N 37 59 0 
O 74 40 0 
6
Atoms. Timestep: 3297
N 8 96 0 
N 41 96 0 
N 17 30 0 
N 75 96 0 
N 37 60 0 
O 75 40 0 
6
Atoms. Timestep: 3298
N 7 96 0 
N 42 96 0 
N 17 31 0 
N 74 96 0 
N 37 59 0 
O 74 40 0 
6
Atoms. Timestep: 3299
N 8 96 0 
N 41 96 0 
N 17 30 0 
N 75 96 0 
N 37 60 0 
O 75 40 0 
6
Atoms. Timestep: 3300
N 7 96 0 
N 42 96 0 
N 17 31 0 
N 74 96 0 
N 37 59 0 
O 74 40 0 
6
Atoms. Timestep: 3301
N 8 96 0 
N 41 96 0 
N 17 30 0 
N 75 96 0 
N 37 60 0 
O 75 40 0 
6
Atoms. Timestep: 3302
N 7 96 0 
N 42 96 0 
N 17 31 0 
N 74 96 0 
N 37 59 0 
O 74 40 0 
6
Atoms. Timestep: 3303
N 8 96 0 
N 41 96 0 
N 17 30 0 
N 75 96 0 
N 37 60 0 
O 75 40 0 
6
Atoms. Timestep: 3304
N 7 96 0 
N 42 96 0 
N 17 31 0 
N 74 96 0 
N 37 59 0 
O 74 40 0 
6
Atoms. Timestep: 3305
N 8 96 0 
N 41 96 0 
N 17 30 0 
N 75 96 0 
N 37 60 0 
O 75 40 0 
6
Atoms. Timestep: 3306
N 7 96 0 
N 42 96 0 
N 17 31 0 
N 74 96 0 
N 37 59 0 
O 74 40 0 
6
Atoms. Timestep: 3307
N 8 96 0 
N 41 96 0 
N 17 30 0 
N 75 96 0 
N 37 60 0 
O 75 40 0 
6
Atoms. Timestep: 3308
N 7 96 0 
N 42 96 0 
N 17 31 0 
N 74 96 0 
N 37 59 0 
O 74 40 0 
6
Atoms. Timestep: 3309
N 8 96 0 
N 41 96 0 
N 17 30 0 
N 75 96 0 
N 37 60 0 
O 75 40 0 
6
Atoms. Timestep: 3310
N 7 96 0 
N 42 96 0 
N 17 31 0 
N 74 96 0 
N 37 59 0 
O 74 40 0 
6
Atoms. Timestep: 3311
N 8 96 0 
N 41 96 0 
N 17 30 0 
N 75 96 0 
N 37 60 0 
O 75 40 0 
6
Atoms. Timestep: 3312
N 7 96 0 
N 42 96 0 
N 17 31 0 
N 74 96 0 
N 37 59 0 
O 74 40 0 
6
Atoms. Timestep: 3313
N 8 96 0 
N 41 96 0 
N 17 30 0 
N 75 96 0 
N 37 60 0 
O 75 40 0 
6
Atoms. Timestep: 3314
N 7 96 0 
N 42 96 0 
N 17 31 0 
N 74 96 0 
N 37 59 0 
O 74 40 0 
6
Atoms. Timestep: 3315
N 8 96 0 
N 41 96 0 
N 17 30 0 
N 75 96 0 
N 37 60 0 
O 75 40 0 
6
Atoms. Timestep: 3316
N 7 96 0 
N 42 96 0 
N 17 31 0 
N 74 96 0 
N 37 59 0 
O 74 40 0 
6
Atoms. Timestep: 3317
N 8 96 0 
N 41 96 0 
N 17 30 0 
N 75 96 0 
N 37 60 0 
O 75 40 0 
6
Atoms. Timestep: 3318
N 7 96 0 
N 42 96 0 
N 17 31 0 
N 74 96 0 
N 37 59 0 
O 74 40 0 
6
Atoms. Timestep: 3319
N 8 96 0 
N 41 96 0 
N 17 30 0 
N 75 96 0 
N 37 60 0 
O 75 40 0 
6
Atoms. Timestep: 3320
N 7 96 0 
N 42 96 0 
N 17 31 0 
N 74 96 0 
N 37 59 0 
O 74 40 0 
6
Atoms. Timestep: 3321
N 8 96 0 
N 41 96 0 
N 17 30 0 
N 75 96 0 
N 37 60 0 
O 75 40 0 
6
Atoms. Timestep: 3322
N 7 96 0 
N 42 96 0 
N 17 31 0 
N 74 96 0 
N 37 59 0 
O 74 40 0 
6
Atoms. Timestep: 3323
N 8 96 0 
N 41 96 0 
N 17 30 0 
N 75 96 0 
N 37 60 0 
O 75 40 0 
6
Atoms. Timestep: 3324
N 7 96 0 
N 42 96 0 
N 17 31 0 
N 74 96 0 
N 37 59 0 
O 74 40 0 
6
Atoms. Timestep: 3325
N 8 96 0 
N 41 96 0 
N 17 30 0 
N 75 96 0 
N 37 60 0 
O 75 40 0 
6
Atoms. Timestep: 3326
N 7 96 0 
N 42 96 0 
N 17 31 0 
N 74 96 0 
N 37 59 0 
O 74 40 0 
6
Atoms. Timestep: 3327
N 8 96 0 
N 41 96 0 
N 17 30 0 
N 75 96 0 
N 37 60 0 
O 75 40 0 
6
Atoms. Timestep: 3328
N 7 96 0 
N 42 96 0 
N 17 31 0 
N 74 96 0 
N 36 60 0 
O 74 40 0 
6
Atoms. Timestep: 3329
N 8 96 0 
N 41 96 0 
N 17 30 0 
N 75 96 0 
N 36 61 0 
O 75 40 0 
6
Atoms. Timestep: 3330
N 7 96 0 
N 42 96 0 
N 17 31 0 
N 74 96 0 
N 36 60 0 
O 74 40 0 
6
Atoms. Timestep: 3331
N 8 96 0 
N 41 96 0 
N 17 30 0 
N 75 96 0 
N 36 61 0 
O 75 40 0 
6
Atoms. Timestep: 3332
N 7 96 0 
N 42 96 0 
N 17 31 0 
N 74 96 0 
N 36 60 0 
O 74 40 0 
6
Atoms. Timestep: 3333
N 8 96 0 
N 41 96 0 
N 17 30 0 
N 75 96 0 
N 36 61 0 
O 75 40 0 
6
Atoms. Timestep: 3334
N 9 96 0 
N 42 96 0 
N 17 31 0 
N 76 96 0 
N 36 60 0 
O 74 40 0 
6
Atoms. Timestep: 3335
N 8 96 0 
N 43 96 0 
N 17 32 0 
N 75 96 0 
N 36 61 0 
O 73 40 0 
6
Atoms. Timestep: 3336
N 9 96 0 
N 42 96 0 
N 17 31 0 
N 76 96 0 
N 36 62 0 
O 74 40 0 
6
Atoms. Timestep: 3337
N 8 96 0 
N 43 96 0 
N 17 32 0 
N 75 96 0 
N 36 61 0 
O 73 40 0 
6
Atoms. Timestep: 3338
N 9 96 0 
N 42 96 0 
N 17 31 0 
N 76 96 0 
N 36 62 0 
O 74 40 0 
6
Atoms. Timestep: 3339
N 8 96 0 
N 43 96 0 
N 17 32 0 
N 75 96 0 
N 36 61 0 
O 73 40 0 
6
Atoms. Timestep: 3340
N 9 96 0 
N 42 96 0 
N 17 31 0 
N 76 96 0 
N 36 62 0 
O 74 40 0 
6
Atoms. Timestep: 3341
N 8 96 0 
N 43 96 0 
N 17 32 0 
N 75 96 0 
N 36 61 0 
O 73 40 0 
6
Atoms. Timestep: 3342
N 9 96 0 
N 42 96 0 
N 17 31 0 
N 76 96 0 
N 36 62 0 
O 74 40 0 
6
Atoms. Timestep: 3343
N 8 96 0 
N 43 96 0 
N 17 32 0 
N 75 96 0 
N 36 61 0 
O 73 40 0 
6
Atoms. Timestep: 3344
N 9 96 0 
N 42 96 0 
N 17 31 0 
N 76 96 0 
N 36 62 0 
O 74 40 0 
6
Atoms. Timestep: 3345
N 8 96 0 
N 43 96 0 
N 17 32 0 
N 75 96 0 
N 36 61 0 
O 73 40 0 
6
Atoms. Timestep: 3346
N 9 96 0 
N 42 96 0 
N 17 31 0 
N 76 96 0 
N 36 62 0 
O 74 40 0 
6
Atoms. Timestep: 3347
N 8 96 0 
N 43 96 0 
N 17 32 0 
N 75 96 0 
N 36 61 0 
O 73 40 0 
6
Atoms. Timestep: 3348
N 9 96 0 
N 42 96 0 
N 17 31 0 
N 76 96 0 
N 36 62 0 
O 74 40 0 
6
Atoms. Timestep: 3349
N 8 96 0 
N 43 96 0 
N 17 32 0 
N 75 96 0 
N 36 61 0 
O 73 40 0 
6
Atoms. Timestep: 3350
N 9 96 0 
N 42 96 0 
N 17 31 0 
N 76 96 0 
N 36 62 0 
O 74 40 0 
6
Atoms. Timestep: 3351
N 8 96 0 
N 43 96 0 
N 17 32 0 
N 75 96 0 
N 36 61 0 
O 73 40 0 
6
Atoms. Timestep: 3352
N 9 96 0 
N 42 96 0 
N 17 31 0 
N 76 96 0 
N 36 62 0 
O 74 40 0 
6
Atoms. Timestep: 3353
N 8 96 0 
N 43 96 0 
N 17 32 0 
N 75 96 0 
N 36 61 0 
O 73 40 0 
6
Atoms. Timestep: 3354
N 9 96 0 
N 42 96 0 
N 17 31 0 
N 76 96 0 
N 36 62 0 
O 74 40 0 
6
Atoms. Timestep: 3355
N 8 96 0 
N 43 96 0 
N 17 32 0 
N 75 96 0 
N 36 61 0 
O 73 40 0 
6
Atoms. Timestep: 3356
N 9 96 0 
N 42 96 0 
N 17 31 0 
N 76 96 0 
N 36 62 0 
O 74 40 0 
6
Atoms. Timestep: 3357
N 8 96 0 
N 43 96 0 
N 17 32 0 
N 75 96 0 
N 36 61 0 
O 73 40 0 
6
Atoms. Timestep: 3358
N 9 96 0 
N 42 96 0 
N 17 31 0 
N 76 96 0 
N 36 62 0 
O 74 40 0 
6
Atoms. Timestep: 3359
N 8 96 0 
N 43 96 0 
N 17 32 0 
N 75 96 0 
N 36 61 0 
O 73 40 0 
6
Atoms. Timestep: 3360
N 9 96 0 
N 42 96 0 
N 17 31 0 
N 76 96 0 
N 36 62 0 
O 74 40 0 
6
Atoms. Timestep: 3361
N 8 96 0 
N 43 96 0 
N 17 30 0 
N 75 96 0 
N 36 61 0 
O 75 40 0 
6
Atoms. Timestep: 3362
N 9 96 0 
N 42 96 0 
N 17 31 0 
N 76 96 0 
N 36 60 0 
O 74 40 0 
6
Atoms. Timestep: 3363
N 8 96 0 
N 43 96 0 
N 17 32 0 
N 75 96 0 
N 36 61 0 
O 73 40 0 
6
Atoms. Timestep: 3364
N 9 96 0 
N 42 96 0 
N 17 31 0 
N 76 96 0 
N 36 62 0 
O 74 40 0 
6
Atoms. Timestep: 3365
N 8 96 0 
N 43 96 0 
N 17 32 0 
N 75 96 0 
N 36 61 0 
O 73 40 0 
6
Atoms. Timestep: 3366
N 9 96 0 
N 42 96 0 
N 17 31 0 
N 76 96 0 
N 36 62 0 
O 74 40 0 
6
Atoms. Timestep: 3367
N 8 96 0 
N 43 96 0 
N 17 32 0 
N 75 96 0 
N 36 61 0 
O 73 40 0 
6
Atoms. Timestep: 3368
N 9 96 0 
N 42 96 0 
N 17 31 0 
N 76 96 0 
N 36 62 0 
O 74 40 0 
6
Atoms. Timestep: 3369
N 8 96 0 
N 43 96 0 
N 17 32 0 
N 75 96 0 
N 36 61 0 
O 73 40 0 
6
Atoms. Timestep: 3370
N 9 96 0 
N 42 96 0 
N 17 31 0 
N 76 96 0 
N 36 62 0 
O 74 40 0 
6
Atoms. Timestep: 3371
N 8 96 0 
N 43 96 0 
N 17 32 0 
N 75 96 0 
N 36 61 0 
O 73 40 0 
6
Atoms. Timestep: 3372
N 9 96 0 
N 42 96 0 
N 17 31 0 
N 76 96 0 
N 36 62 0 
O 74 40 0 
6
Atoms. Timestep: 3373
N 8 96 0 
N 43 96 0 
N 17 32 0 
N 75 96 0 
N 36 61 0 
O 73 40 0 
6
Atoms. Timestep: 3374
N 9 96 0 
N 42 96 0 
N 17 31 0 
N 76 96 0 
N 36 62 0 
O 74 40 0 
6
Atoms. Timestep: 3375
N 8 96 0 
N 43 96 0 
N 17 32 0 
N 75 96 0 
N 36 61 0 
O 73 40 0 
6
Atoms. Timestep: 3376
N 9 96 0 
N 42 96 0 
N 17 31 0 
N 76 96 0 
N 36 62 0 
O 74 40 0 
6
Atoms. Timestep: 3377
N 8 96 0 
N 43 96 0 
N 17 32 0 
N 75 96 0 
N 36 61 0 
O 73 40 0 
6
Atoms. Timestep: 3378
N 9 96 0 
N 42 96 0 
N 17 31 0 
N 76 96 0 
N 36 62 0 
O 74 40 0 
6
Atoms. Timestep: 3379
N 8 96 0 
N 43 96 0 
N 17 32 0 
N 75 96 0 
N 36 61 0 
O 73 40 0 
6
Atoms. Timestep: 3380
N 9 96 0 
N 42 96 0 
N 17 31 0 
N 76 96 0 
N 36 62 0 
O 74 40 0 
6
Atoms. Timestep: 3381
N 8 96 0 
N 43 96 0 
N 17 32 0 
N 75 96 0 
N 36 61 0 
O 73 40 0 
6
Atoms. Timestep: 3382
N 9 96 0 
N 42 96 0 
N 17 31 0 
N 76 96 0 
N 36 62 0 
O 74 40 0 
6
Atoms. Timestep: 3383
N 8 96 0 
N 43 96 0 
N 17 32 0 
N 75 96 0 
N 36 61 0 
O 73 40 0 
6
Atoms. Timestep: 3384
N 9 96 0 
N 42 96 0 
N 17 31 0 
N 76 96 0 
N 36 62 0 
O 74 40 0 
6
Atoms. Timestep: 3385
N 8 96 0 
N 43 96 0 
N 17 32 0 
N 75 96 0 
N 36 61 0 
O 73 40 0 
6
Atoms. Timestep: 3386
N 9 96 0 
N 42 96 0 
N 17 31 0 
N 76 96 0 
N 36 60 0 
O 74 40 0 
6
Atoms. Timestep: 3387
N 8 96 0 
N 43 96 0 
N 17 32 0 
N 75 96 0 
N 36 61 0 
O 73 40 0 
6
Atoms. Timestep: 3388
N 9 96 0 
N 42 96 0 
N 17 31 0 
N 76 96 0 
N 36 62 0 
O 74 40 0 
6
Atoms. Timestep: 3389
N 8 96 0 
N 43 96 0 
N 17 32 0 
N 75 96 0 
N 36 61 0 
O 73 40 0 
6
Atoms. Timestep: 3390
N 9 96 0 
N 42 96 0 
N 17 31 0 
N 76 96 0 
N 36 62 0 
O 74 40 0 
6
Atoms. Timestep: 3391
N 8 96 0 
N 43 96 0 
N 17 32 0 
N 75 96 0 
N 36 61 0 
O 73 40 0 
6
Atoms. Timestep: 3392
N 9 96 0 
N 42 96 0 
N 17 31 0 
N 76 96 0 
N 36 62 0 
O 74 40 0 
6
Atoms. Timestep: 3393
N 8 96 0 
N 43 96 0 
N 17 32 0 
N 75 96 0 
N 36 61 0 
O 73 40 0 
6
Atoms. Timestep: 3394
N 9 96 0 
N 42 96 0 
N 17 31 0 
N 76 96 0 
N 36 62 0 
O 74 40 0 
6
Atoms. Timestep: 3395
N 8 96 0 
N 43 96 0 
N 17 32 0 
N 75 96 0 
N 36 61 0 
O 73 40 0 
6
Atoms. Timestep: 3396
N 9 96 0 
N 42 96 0 
N 17 31 0 
N 76 96 0 
N 36 62 0 
O 74 40 0 
6
Atoms. Timestep: 3397
N 8 96 0 
N 43 96 0 
N 17 32 0 
N 75 96 0 
N 36 61 0 
O 73 40 0 
6
Atoms. Timestep: 3398
N 9 96 0 
N 42 96 0 
N 17 31 0 
N 76 96 0 
N 36 62 0 
O 74 40 0 
6
Atoms. Timestep: 3399
N 8 96 0 
N 43 96 0 
N 17 32 0 
N 75 96 0 
N 36 61 0 
O 73 40 0 
6
Atoms. Timestep: 3400
N 9 96 0 
N 42 96 0 
N 17 31 0 
N 76 96 0 
N 36 62 0 
O 74 40 0 
6
Atoms. Timestep: 3401
N 8 96 0 
N 43 96 0 
N 17 32 0 
N 75 96 0 
N 36 61 0 
O 73 40 0 
6
Atoms. Timestep: 3402
N 9 96 0 
N 42 96 0 
N 17 31 0 
N 76 96 0 
N 36 62 0 
O 74 40 0 
6
Atoms. Timestep: 3403
N 8 96 0 
N 43 96 0 
N 17 32 0 
N 75 96 0 
N 36 61 0 
O 73 40 0 
6
Atoms. Timestep: 3404
N 9 96 0 
N 42 96 0 
N 17 31 0 
N 76 96 0 
N 36 62 0 
O 74 40 0 
6
Atoms. Timestep: 3405
N 8 96 0 
N 43 96 0 
N 17 32 0 
N 75 96 0 
N 36 61 0 
O 73 40 0 
6
Atoms. Timestep: 3406
N 9 96 0 
N 42 96 0 
N 17 31 0 
N 76 96 0 
N 36 62 0 
O 74 40 0 
6
Atoms. Timestep: 3407
N 8 96 0 
N 43 96 0 
N 17 32 0 
N 75 96 0 
N 36 61 0 
O 73 40 0 
6
Atoms. Timestep: 3408
N 9 96 0 
N 42 96 0 
N 17 31 0 
N 76 96 0 
N 36 62 0 
O 74 40 0 
6
Atoms. Timestep: 3409
N 8 96 0 
N 43 96 0 
N 17 32 0 
N 75 96 0 
N 36 61 0 
O 73 40 0 
6
Atoms. Timestep: 3410
N 9 96 0 
N 42 96 0 
N 17 31 0 
N 76 96 0 
N 36 62 0 
O 74 40 0 
6
Atoms. Timestep: 3411
N 8 96 0 
N 43 96 0 
N 17 32 0 
N 75 96 0 
N 36 61 0 
O 73 40 0 
6
Atoms. Timestep: 3412
N 9 96 0 
N 42 96 0 
N 17 31 0 
N 76 96 0 
N 36 62 0 
O 74 40 0 
6
Atoms. Timestep: 3413
N 8 96 0 
N 43 96 0 
N 17 32 0 
N 75 96 0 
N 36 61 0 
O 73 40 0 
6
Atoms. Timestep: 3414
N 9 96 0 
N 42 96 0 
N 17 31 0 
N 76 96 0 
N 36 62 0 
O 74 40 0 
6
Atoms. Timestep: 3415
N 8 96 0 
N 41 96 0 
N 17 32 0 
N 75 96 0 
N 36 61 0 
O 73 40 0 
6
Atoms. Timestep: 3416
N 7 96 0 
N 42 96 0 
N 17 31 0 
N 74 96 0 
N 36 62 0 
O 74 40 0 
6
Atoms. Timestep: 3417
N 8 96 0 
N 41 96 0 
N 17 30 0 
N 75 96 0 
N 36 61 0 
O 75 40 0 
6
Atoms. Timestep: 3418
N 7 96 0 
N 42 96 0 
N 17 31 0 
N 74 96 0 
N 36 60 0 
O 74 40 0 
6
Atoms. Timestep: 3419
N 8 96 0 
N 41 96 0 
N 17 30 0 
N 75 96 0 
N 36 61 0 
O 75 40 0 
6
Atoms. Timestep: 3420
N 7 96 0 
N 42 96 0 
N 17 31 0 
N 74 96 0 
N 36 60 0 
O 74 40 0 
6
Atoms. Timestep: 3421
N 8 96 0 
N 41 96 0 
N 17 30 0 
N 75 96 0 
N 36 61 0 
O 75 40 0 
6
Atoms. Timestep: 3422
N 7 96 0 
N 42 96 0 
N 17 31 0 
N 74 96 0 
N 36 60 0 
O 74 40 0 
6
Atoms. Timestep: 3423
N 8 96 0 
N 41 96 0 
N 17 30 0 
N 75 96 0 
N 36 61 0 
O 75 40 0 
6
Atoms. Timestep: 3424
N 7 96 0 
N 42 96 0 
N 17 31 0 
N 74 96 0 
N 36 60 0 
O 74 40 0 
6
Atoms. Timestep: 3425
N 8 96 0 
N 41 96 0 
N 17 30 0 
N 75 96 0 
N 36 61 0 
O 75 40 0 
6
Atoms. Timestep: 3426
N 7 96 0 
N 42 96 0 
N 17 31 0 
N 74 96 0 
N 36 60 0 
O 74 40 0 
6
Atoms. Timestep: 3427
N 8 96 0 
N 41 96 0 
N 17 30 0 
N 75 96 0 
N 36 61 0 
O 75 40 0 
6
Atoms. Timestep: 3428
N 7 96 0 
N 42 96 0 
N 17 31 0 
N 74 96 0 
N 36 60 0 
O 74 40 0 
6
Atoms. Timestep: 3429
N 8 96 0 
N 41 96 0 
N 17 30 0 
N 75 96 0 
N 36 61 0 
O 75 40 0 
6
Atoms. Timestep: 3430
N 7 96 0 
N 42 96 0 
N 17 31 0 
N 74 96 0 
N 36 60 0 
O 74 40 0 
6
Atoms. Timestep: 3431
N 8 96 0 
N 41 96 0 
N 17 30 0 
N 75 96 0 
N 36 61 0 
O 75 40 0 
6
Atoms. Timestep: 3432
N 7 96 0 
N 42 96 0 
N 17 31 0 
N 74 96 0 
N 36 60 0 
O 74 40 0 
6
Atoms. Timestep: 3433
N 8 96 0 
N 41 96 0 
N 17 30 0 
N 75 96 0 
N 36 61 0 
O 75 40 0 
6
Atoms. Timestep: 3434
N 7 96 0 
N 42 96 0 
N 17 31 0 
N 74 96 0 
N 36 60 0 
O 74 40 0 
6
Atoms. Timestep: 3435
N 8 96 0 
N 41 96 0 
N 17 30 0 
N 75 96 0 
N 36 61 0 
O 75 40 0 
6
Atoms. Timestep: 3436
N 7 96 0 
N 42 96 0 
N 17 31 0 
N 74 96 0 
N 36 60 0 
O 74 40 0 
6
Atoms. Timestep: 3437
N 8 96 0 
N 41 96 0 
N 17 30 0 
N 75 96 0 
N 36 61 0 
O 75 40 0 
6
Atoms. Timestep: 3438
N 7 96 0 
N 42 96 0 
N 17 31 0 
N 74 96 0 
N 36 60 0 
O 74 40 0 
6
Atoms. Timestep: 3439
N 8 96 0 
N 42 97 0 
N 17 30 0 
N 75 96 0 
N 36 61 0 
O 75 40 0 
6
Atoms. Timestep: 3440
N 7 96 0 
N 41 97 0 
N 17 31 0 
N 74 96 0 
N 36 60 0 
O 74 40 0 
6
Atoms. Timestep: 3441
N 6 96 0 
N 40 97 0 
N 17 30 0 
N 73 96 0 
N 36 61 0 
O 75 40 0 
6
Atoms. Timestep: 3442
N 5 96 0 
N 39 97 0 
N 17 31 0 
N 72 96 0 
N 36 60 0 
O 74 40 0 
6
Atoms. Timestep: 3443
N 4 96 0 
N 38 97 0 
N 17 30 0 
N 71 96 0 
N 36 61 0 
O 75 40 0 
6
Atoms. Timestep: 3444
N 3 96 0 
N 37 97 0 
N 17 29 0 
N 70 96 0 
N 36 60 0 
O 74 40 0 
6
Atoms. Timestep: 3445
N 2 96 0 
N 36 97 0 
N 17 30 0 
N 69 96 0 
N 36 61 0 
O 75 40 0 
6
Atoms. Timestep: 3446
N 1 96 0 
N 35 97 0 
N 17 29 0 
N 68 96 0 
N 36 60 0 
O 74 40 0 
6
Atoms. Timestep: 3447
N 0 96 0 
N 34 97 0 
N 17 30 0 
N 67 96 0 
N 36 61 0 
O 75 40 0 
6
Atoms. Timestep: 3448
N 99 96 0 
N 33 97 0 
N 17 29 0 
N 66 96 0 
N 36 60 0 
O 74 40 0 
6
Atoms. Timestep: 3449
N 98 96 0 
N 32 97 0 
N 17 30 0 
N 65 96 0 
N 36 61 0 
O 75 40 0 
6
Atoms. Timestep: 3450
N 97 96 0 
N 31 97 0 
N 17 29 0 
N 64 96 0 
N 36 60 0 
O 74 40 0 
6
Atoms. Timestep: 3451
N 96 96 0 
N 30 97 0 
N 17 30 0 
N 63 96 0 
N 36 61 0 
O 75 40 0 
6
Atoms. Timestep: 3452
N 95 96 0 
N 29 97 0 
N 17 31 0 
N 62 96 0 
N 36 60 0 
O 74 40 0 
6
Atoms. Timestep: 3453
N 94 96 0 
N 28 97 0 
N 17 30 0 
N 61 96 0 
N 36 61 0 
O 75 40 0 
6
Atoms. Timestep: 3454
N 93 96 0 
N 27 97 0 
N 17 31 0 
N 60 96 0 
N 36 60 0 
O 74 40 0 
6
Atoms. Timestep: 3455
N 92 96 0 
N 26 97 0 
N 17 32 0 
N 59 96 0 
N 36 61 0 
O 73 40 0 
6
Atoms. Timestep: 3456
N 91 96 0 
N 25 97 0 
N 17 31 0 
N 58 96 0 
N 36 62 0 
O 74 40 0 
6
Atoms. Timestep: 3457
N 90 96 0 
N 24 97 0 
N 17 32 0 
N 57 96 0 
N 36 61 0 
O 73 40 0 
6
Atoms. Timestep: 3458
N 89 96 0 
N 23 97 0 
N 17 33 0 
N 56 96 0 
N 36 62 0 
O 74 40 0 
6
Atoms. Timestep: 3459
N 88 96 0 
N 22 97 0 
N 17 32 0 
N 55 96 0 
N 36 63 0 
O 73 40 0 
6
Atoms. Timestep: 3460
N 87 96 0 
N 21 97 0 
N 17 33 0 
N 54 96 0 
N 36 62 0 
O 74 40 0 
6
Atoms. Timestep: 3461
N 86 96 0 
N 20 97 0 
N 17 32 0 
N 53 96 0 
N 36 63 0 
O 73 40 0 
6
Atoms. Timestep: 3462
N 85 96 0 
N 19 97 0 
N 17 33 0 
N 52 96 0 
N 36 64 0 
O 72 40 0 
6
Atoms. Timestep: 3463
N 84 96 0 
N 18 97 0 
N 17 32 0 
N 51 96 0 
N 36 63 0 
O 73 40 0 
6
Atoms. Timestep: 3464
N 83 96 0 
N 17 97 0 
N 17 33 0 
N 50 96 0 
N 36 64 0 
O 72 40 0 
6
Atoms. Timestep: 3465
N 82 96 0 
N 16 97 0 
N 17 32 0 
N 49 96 0 
N 36 63 0 
O 73 40 0 
6
Atoms. Timestep: 3466
N 81 96 0 
N 15 97 0 
N 17 33 0 
N 48 96 0 
N 36 62 0 
O 74 40 0 
6
Atoms. Timestep: 3467
N 80 96 0 
N 14 97 0 
N 17 32 0 
N 47 96 0 
N 36 63 0 
O 73 40 0 
6
Atoms. Timestep: 3468
N 79 96 0 
N 13 97 0 
N 17 33 0 
N 46 96 0 
N 36 62 0 
O 74 40 0 
6
Atoms. Timestep: 3469
N 78 96 0 
N 12 97 0 
N 17 32 0 
N 45 96 0 
N 36 63 0 
O 73 40 0 
6
Atoms. Timestep: 3470
N 77 96 0 
N 11 97 0 
N 17 33 0 
N 44 96 0 
N 36 62 0 
O 74 40 0 
6
Atoms. Timestep: 3471
N 76 96 0 
N 10 97 0 
N 17 32 0 
N 43 96 0 
N 36 63 0 
O 73 40 0 
6
Atoms. Timestep: 3472
N 75 96 0 
N 9 97 0 
N 17 33 0 
N 42 96 0 
N 36 62 0 
O 74 40 0 
6
Atoms. Timestep: 3473
N 74 96 0 
N 8 97 0 
N 17 32 0 
N 41 96 0 
N 36 63 0 
O 73 40 0 
6
Atoms. Timestep: 3474
N 73 96 0 
N 7 97 0 
N 17 31 0 
N 40 96 0 
N 36 62 0 
O 74 40 0 
6
Atoms. Timestep: 3475
N 72 96 0 
N 6 97 0 
N 17 32 0 
N 39 96 0 
N 36 61 0 
O 73 40 0 
6
Atoms. Timestep: 3476
N 71 96 0 
N 5 97 0 
N 17 31 0 
N 38 96 0 
N 36 62 0 
O 74 40 0 
6
Atoms. Timestep: 3477
N 70 96 0 
N 4 97 0 
N 17 30 0 
N 37 96 0 
N 36 61 0 
O 75 40 0 
6
Atoms. Timestep: 3478
N 69 96 0 
N 3 97 0 
N 17 31 0 
N 36 96 0 
N 36 60 0 
O 74 40 0 
6
Atoms. Timestep: 3479
N 68 96 0 
N 2 97 0 
N 17 30 0 
N 35 96 0 
N 36 61 0 
O 75 40 0 
6
Atoms. Timestep: 3480
N 67 96 0 
N 1 97 0 
N 17 29 0 
N 34 96 0 
N 36 60 0 
O 74 40 0 
6
Atoms. Timestep: 3481
N 66 96 0 
N 0 97 0 
N 17 30 0 
N 33 96 0 
N 36 61 0 
O 75 40 0 
6
Atoms. Timestep: 3482
N 65 96 0 
N 99 97 0 
N 17 29 0 
N 32 96 0 
N 36 60 0 
O 74 40 0 
6
Atoms. Timestep: 3483
N 64 96 0 
N 98 97 0 
N 17 30 0 
N 31 96 0 
N 36 61 0 
O 75 40 0 
6
Atoms. Timestep: 3484
N 63 96 0 
N 97 97 0 
N 17 29 0 
N 30 96 0 
N 36 60 0 
O 74 40 0 
6
Atoms. Timestep: 3485
N 62 96 0 
N 96 97 0 
N 17 30 0 
N 29 96 0 
N 37 60 0 
O 75 40 0 
6
Atoms. Timestep: 3486
N 61 96 0 
N 95 97 0 
N 17 31 0 
N 28 96 0 
N 37 61 0 
O 74 40 0 
6
Atoms. Timestep: 3487
N 60 96 0 
N 94 97 0 
N 17 32 0 
N 27 96 0 
N 37 62 0 
O 73 40 0 
6
Atoms. Timestep: 3488
N 59 96 0 
N 93 97 0 
N 17 31 0 
N 26 96 0 
N 37 61 0 
O 74 40 0 
6
Atoms. Timestep: 3489
N 58 96 0 
N 92 97 0 
N 17 32 0 
N 25 96 0 
N 37 62 0 
O 73 40 0 
6
Atoms. Timestep: 3490
N 57 96 0 
N 91 97 0 
N 17 33 0 
N 24 96 0 
N 37 63 0 
O 74 40 0 
6
Atoms. Timestep: 3491
N 56 96 0 
N 90 97 0 
N 17 32 0 
N 23 96 0 
N 37 62 0 
O 73 40 0 
6
Atoms. Timestep: 3492
N 55 96 0 
N 89 97 0 
N 17 33 0 
N 22 96 0 
N 37 63 0 
O 74 40 0 
6
Atoms. Timestep: 3493
N 54 96 0 
N 88 97 0 
N 17 32 0 
N 21 96 0 
N 37 64 0 
O 73 40 0 
6
Atoms. Timestep: 3494
N 53 96 0 
N 87 97 0 
N 17 33 0 
N 20 96 0 
N 37 63 0 
O 74 40 0 
6
Atoms. Timestep: 3495
N 52 96 0 
N 86 97 0 
N 17 32 0 
N 19 96 0 
N 37 62 0 
O 73 40 0 
6
Atoms. Timestep: 3496
N 51 96 0 
N 85 97 0 
N 17 33 0 
N 18 96 0 
N 37 63 0 
O 74 40 0 
6
Atoms. Timestep: 3497
N 50 96 0 
N 84 97 0 
N 17 32 0 
N 17 96 0 
N 37 62 0 
O 73 40 0 
6
Atoms. Timestep: 3498
N 49 96 0 
N 83 97 0 
N 17 31 0 
N 16 96 0 
N 37 61 0 
O 74 40 0 
6
Atoms. Timestep: 3499
N 48 96 0 
N 82 97 0 
N 17 32 0 
N 15 96 0 
N 37 62 0 
O 74 41 0 
6
Atoms. Timestep: 3500
N 47 96 0 
N 81 97 0 
N 17 31 0 
N 14 96 0 
N 37 61 0 
O 75 41 0 
6
Atoms. Timestep: 3501
N 46 96 0 
N 80 97 0 
N 17 32 0 
N 13 96 0 
N 37 60 0 
O 74 41 0 
6
Atoms. Timestep: 3502
N 45 96 0 
N 79 97 0 
N 17 31 0 
N 12 96 0 
N 37 61 0 
O 75 41 0 
6
Atoms. Timestep: 3503
N 44 96 0 
N 78 97 0 
N 17 32 0 
N 11 96 0 
N 37 60 0 
O 74 41 0 
6
Atoms. Timestep: 3504
N 43 96 0 
N 77 97 0 
N 17 31 0 
N 10 96 0 
N 37 61 0 
O 75 41 0 
6
Atoms. Timestep: 3505
N 42 96 0 
N 76 97 0 
N 17 32 0 
N 9 96 0 
N 37 60 0 
O 74 41 0 
6
Atoms. Timestep: 3506
N 41 96 0 
N 75 97 0 
N 17 31 0 
N 8 96 0 
N 37 61 0 
O 75 41 0 
6
Atoms. Timestep: 3507
N 40 96 0 
N 74 97 0 
N 17 30 0 
N 7 96 0 
N 37 60 0 
O 76 41 0 
6
Atoms. Timestep: 3508
N 39 96 0 
N 73 97 0 
N 17 31 0 
N 6 96 0 
N 37 59 0 
O 75 41 0 
6
Atoms. Timestep: 3509
N 38 96 0 
N 72 97 0 
N 17 32 0 
N 5 96 0 
N 37 60 0 
O 74 41 0 
6
Atoms. Timestep: 3510
N 37 96 0 
N 71 97 0 
N 17 31 0 
N 4 96 0 
N 37 61 0 
O 75 41 0 
6
Atoms. Timestep: 3511
N 36 96 0 
N 70 97 0 
N 17 30 0 
N 3 96 0 
N 37 60 0 
O 76 41 0 
6
Atoms. Timestep: 3512
N 35 96 0 
N 69 97 0 
N 17 29 0 
N 2 96 0 
N 37 59 0 
O 75 41 0 
6
Atoms. Timestep: 3513
N 34 96 0 
N 68 97 0 
N 17 30 0 
N 1 96 0 
N 37 60 0 
O 76 41 0 
6
Atoms. Timestep: 3514
N 33 96 0 
N 67 97 0 
N 17 29 0 
N 0 96 0 
N 37 59 0 
O 75 41 0 
6
Atoms. Timestep: 3515
N 32 96 0 
N 66 97 0 
N 17 30 0 
N 99 96 0 
N 37 60 0 
O 76 41 0 
6
Atoms. Timestep: 3516
N 31 96 0 
N 65 97 0 
N 17 29 0 
N 98 96 0 
N 38 60 0 
O 75 41 0 
6
Atoms. Timestep: 3517
N 30 96 0 
N 64 97 0 
N 17 30 0 
N 97 96 0 
N 38 59 0 
O 76 41 0 
6
Atoms. Timestep: 3518
N 29 96 0 
N 63 97 0 
N 17 31 0 
N 96 96 0 
N 38 60 0 
O 75 41 0 
6
Atoms. Timestep: 3519
N 28 96 0 
N 62 97 0 
N 17 30 0 
N 95 96 0 
N 38 61 0 
O 76 41 0 
6
Atoms. Timestep: 3520
N 27 96 0 
N 61 97 0 
N 17 31 0 
N 94 96 0 
N 38 60 0 
O 75 41 0 
6
Atoms. Timestep: 3521
N 26 96 0 
N 60 97 0 
N 17 32 0 
N 93 96 0 
N 38 61 0 
O 74 41 0 
6
Atoms. Timestep: 3522
N 25 96 0 
N 59 97 0 
N 17 31 0 
N 92 96 0 
N 38 62 0 
O 75 41 0 
6
Atoms. Timestep: 3523
N 24 96 0 
N 58 97 0 
N 17 32 0 
N 91 96 0 
N 38 61 0 
O 74 41 0 
6
Atoms. Timestep: 3524
N 23 96 0 
N 57 97 0 
N 17 33 0 
N 90 96 0 
N 38 62 0 
O 75 41 0 
6
Atoms. Timestep: 3525
N 22 96 0 
N 56 97 0 
N 17 32 0 
N 89 96 0 
N 38 63 0 
O 74 41 0 
6
Atoms. Timestep: 3526
N 21 96 0 
N 55 97 0 
N 17 33 0 
N 88 96 0 
N 38 62 0 
O 75 41 0 
6
Atoms. Timestep: 3527
N 20 96 0 
N 54 97 0 
N 17 32 0 
N 87 96 0 
N 38 63 0 
O 74 41 0 
6
Atoms. Timestep: 3528
N 19 96 0 
N 53 97 0 
N 17 33 0 
N 86 96 0 
N 38 62 0 
O 75 41 0 
6
Atoms. Timestep: 3529
N 18 96 0 
N 52 97 0 
N 17 32 0 
N 85 96 0 
N 38 63 0 
O 74 41 0 
6
Atoms. Timestep: 3530
N 17 96 0 
N 51 97 0 
N 17 33 0 
N 84 96 0 
N 38 62 0 
O 75 41 0 
6
Atoms. Timestep: 3531
N 16 96 0 
N 50 97 0 
N 17 32 0 
N 83 96 0 
N 38 63 0 
O 74 41 0 
6
Atoms. Timestep: 3532
N 15 96 0 
N 49 97 0 
N 17 33 0 
N 82 96 0 
N 38 62 0 
O 75 41 0 
6
Atoms. Timestep: 3533
N 14 96 0 
N 48 97 0 
N 17 32 0 
N 81 96 0 
N 38 63 0 
O 74 41 0 
6
Atoms. Timestep: 3534
N 13 96 0 
N 47 97 0 
N 17 33 0 
N 80 96 0 
N 38 62 0 
O 75 41 0 
6
Atoms. Timestep: 3535
N 12 96 0 
N 46 97 0 
N 17 32 0 
N 79 96 0 
N 38 63 0 
O 74 41 0 
6
Atoms. Timestep: 3536
N 11 96 0 
N 45 97 0 
N 17 33 0 
N 78 96 0 
N 38 62 0 
O 75 41 0 
6
Atoms. Timestep: 3537
N 12 96 0 
N 44 97 0 
N 17 32 0 
N 77 96 0 
N 38 61 0 
O 74 41 0 
6
Atoms. Timestep: 3538
N 11 96 0 
N 45 97 0 
N 17 33 0 
N 78 96 0 
N 38 62 0 
O 75 41 0 
6
Atoms. Timestep: 3539
N 10 96 0 
N 44 97 0 
N 17 32 0 
N 77 96 0 
N 38 61 0 
O 74 41 0 
6
Atoms. Timestep: 3540
N 9 96 0 
N 43 97 0 
N 17 33 0 
N 76 96 0 
N 38 62 0 
O 75 41 0 
6
Atoms. Timestep: 3541
N 8 96 0 
N 42 97 0 
N 17 32 0 
N 75 96 0 
N 38 61 0 
O 74 41 0 
6
Atoms. Timestep: 3542
N 7 96 0 
N 41 97 0 
N 17 31 0 
N 74 96 0 
N 38 62 0 
O 75 41 0 
6
Atoms. Timestep: 3543
N 6 96 0 
N 40 97 0 
N 17 32 0 
N 73 96 0 
N 38 61 0 
O 74 41 0 
6
Atoms. Timestep: 3544
N 5 96 0 
N 39 97 0 
N 17 31 0 
N 72 96 0 
N 38 62 0 
O 75 41 0 
6
Atoms. Timestep: 3545
N 4 96 0 
N 38 97 0 
N 17 30 0 
N 71 96 0 
N 38 61 0 
O 76 41 0 
6
Atoms. Timestep: 3546
N 3 96 0 
N 37 97 0 
N 17 31 0 
N 70 96 0 
N 38 60 0 
O 75 41 0 
6
Atoms. Timestep: 3547
N 2 96 0 
N 36 97 0 
N 17 30 0 
N 69 96 0 
N 38 61 0 
O 76 41 0 
6
Atoms. Timestep: 3548
N 1 96 0 
N 35 97 0 
N 17 29 0 
N 68 96 0 
N 38 60 0 
O 75 41 0 
6
Atoms. Timestep: 3549
N 0 96 0 
N 34 97 0 
N 17 30 0 
N 67 96 0 
N 38 59 0 
O 76 41 0 
6
Atoms. Timestep: 3550
N 99 96 0 
N 33 97 0 
N 17 29 0 
N 66 96 0 
N 38 60 0 
O 75 41 0 
6
Atoms. Timestep: 3551
N 98 96 0 
N 32 97 0 
N 17 30 0 
N 65 96 0 
N 38 59 0 
O 76 41 0 
6
Atoms. Timestep: 3552
N 97 96 0 
N 31 97 0 
N 17 31 0 
N 64 96 0 
N 38 60 0 
O 75 41 0 
6
Atoms. Timestep: 3553
N 96 96 0 
N 30 97 0 
N 17 32 0 
N 63 96 0 
N 38 61 0 
O 74 41 0 
6
Atoms. Timestep: 3554
N 95 96 0 
N 29 97 0 
N 17 31 0 
N 62 96 0 
N 38 62 0 
O 75 41 0 
6
Atoms. Timestep: 3555
N 94 96 0 
N 28 97 0 
N 17 32 0 
N 61 96 0 
N 38 61 0 
O 74 41 0 
6
Atoms. Timestep: 3556
N 93 96 0 
N 27 97 0 
N 17 33 0 
N 60 96 0 
N 38 62 0 
O 75 41 0 
6
Atoms. Timestep: 3557
N 92 96 0 
N 26 97 0 
N 17 32 0 
N 59 96 0 
N 38 63 0 
O 74 41 0 
6
Atoms. Timestep: 3558
N 91 96 0 
N 25 97 0 
N 17 33 0 
N 58 96 0 
N 38 62 0 
O 75 41 0 
6
Atoms. Timestep: 3559
N 90 96 0 
N 24 97 0 
N 17 34 0 
N 57 96 0 
N 38 63 0 
O 74 41 0 
6
Atoms. Timestep: 3560
N 89 96 0 
N 23 97 0 
N 17 33 0 
N 56 96 0 
N 38 64 0 
O 75 41 0 
6
Atoms. Timestep: 3561
N 88 96 0 
N 22 97 0 
N 17 34 0 
N 55 96 0 
N 38 63 0 
O 74 41 0 
6
Atoms. Timestep: 3562
N 87 96 0 
N 21 97 0 
N 17 33 0 
N 54 96 0 
N 38 64 0 
O 75 41 0 
6
Atoms. Timestep: 3563
N 86 96 0 
N 20 97 0 
N 17 34 0 
N 53 96 0 
N 38 63 0 
O 74 41 0 
6
Atoms. Timestep: 3564
N 85 96 0 
N 19 97 0 
N 17 33 0 
N 52 96 0 
N 38 64 0 
O 75 41 0 
6
Atoms. Timestep: 3565
N 84 96 0 
N 18 97 0 
N 17 34 0 
N 51 96 0 
N 38 63 0 
O 74 41 0 
6
Atoms. Timestep: 3566
N 83 96 0 
N 17 97 0 
N 17 33 0 
N 50 96 0 
N 38 64 0 
O 75 41 0 
6
Atoms. Timestep: 3567
N 82 96 0 
N 16 97 0 
N 17 34 0 
N 49 96 0 
N 38 63 0 
O 74 41 0 
6
Atoms. Timestep: 3568
N 81 96 0 
N 15 97 0 
N 17 33 0 
N 48 96 0 
N 38 62 0 
O 75 41 0 
6
Atoms. Timestep: 3569
N 80 96 0 
N 14 97 0 
N 17 34 0 
N 47 96 0 
N 38 63 0 
O 74 41 0 
6
Atoms. Timestep: 3570
N 79 96 0 
N 13 97 0 
N 17 33 0 
N 46 96 0 
N 38 62 0 
O 75 41 0 
6
Atoms. Timestep: 3571
N 78 96 0 
N 12 97 0 
N 17 32 0 
N 45 96 0 
N 38 61 0 
O 74 41 0 
6
Atoms. Timestep: 3572
N 77 96 0 
N 11 97 0 
N 17 33 0 
N 44 96 0 
N 38 62 0 
O 75 41 0 
6
Atoms. Timestep: 3573
N 76 96 0 
N 10 97 0 
N 17 32 0 
N 43 96 0 
N 38 61 0 
O 74 41 0 
6
Atoms. Timestep: 3574
N 75 96 0 
N 9 97 0 
N 17 33 0 
N 42 96 0 
N 38 62 0 
O 75 41 0 
6
Atoms. Timestep: 3575
N 74 96 0 
N 8 97 0 
N 17 32 0 
N 41 96 0 
N 38 61 0 
O 74 41 0 
6
Atoms. Timestep: 3576
N 73 96 0 
N 7 97 0 
N 17 33 0 
N 40 96 0 
N 38 62 0 
O 75 41 0 
6
Atoms. Timestep: 3577
N 72 96 0 
N 6 97 0 
N 17 32 0 
N 39 96 0 
N 38 61 0 
O 74 41 0 
6
Atoms. Timestep: 3578
N 71 96 0 
N 5 97 0 
N 17 33 0 
N 38 96 0 
N 38 62 0 
O 75 41 0 
6
Atoms. Timestep: 3579
N 70 96 0 
N 4 97 0 
N 17 32 0 
N 37 96 0 
N 38 61 0 
O 74 41 0 
6
Atoms. Timestep: 3580
N 69 96 0 
N 3 97 0 
N 17 31 0 
N 36 96 0 
N 38 62 0 
O 75 41 0 
6
Atoms. Timestep: 3581
N 68 96 0 
N 2 97 0 
N 17 32 0 
N 35 96 0 
N 38 61 0 
O 74 41 0 
6
Atoms. Timestep: 3582
N 67 96 0 
N 1 97 0 
N 17 31 0 
N 34 96 0 
N 38 62 0 
O 75 41 0 
6
Atoms. Timestep: 3583
N 66 96 0 
N 0 97 0 
N 17 30 0 
N 33 96 0 
N 38 61 0 
O 76 41 0 
6
Atoms. Timestep: 3584
N 65 96 0 
N 99 97 0 
N 17 29 0 
N 32 96 0 
N 38 60 0 
O 75 41 0 
6
Atoms. Timestep: 3585
N 64 96 0 
N 98 97 0 
N 17 30 0 
N 31 96 0 
N 38 59 0 
O 76 41 0 
6
Atoms. Timestep: 3586
N 63 96 0 
N 97 97 0 
N 17 31 0 
N 30 96 0 
N 38 60 0 
O 75 41 0 
6
Atoms. Timestep: 3587
N 62 96 0 
N 96 97 0 
N 17 30 0 
N 29 96 0 
N 38 61 0 
O 76 41 0 
6
Atoms. Timestep: 3588
N 61 96 0 
N 95 97 0 
N 17 31 0 
N 28 96 0 
N 38 60 0 
O 75 41 0 
6
Atoms. Timestep: 3589
N 60 96 0 
N 94 97 0 
N 17 32 0 
N 27 96 0 
N 38 61 0 
O 74 41 0 
6
Atoms. Timestep: 3590
N 59 96 0 
N 93 97 0 
N 17 31 0 
N 26 96 0 
N 38 62 0 
O 75 41 0 
6
Atoms. Timestep: 3591
N 58 96 0 
N 92 97 0 
N 17 32 0 
N 25 96 0 
N 38 61 0 
O 74 41 0 
6
Atoms. Timestep: 3592
N 57 96 0 
N 91 97 0 
N 17 33 0 
N 24 96 0 
N 38 62 0 
O 75 41 0 
6
Atoms. Timestep: 3593
N 56 96 0 
N 90 97 0 
N 17 32 0 
N 23 96 0 
N 38 63 0 
O 74 41 0 
6
Atoms. Timestep: 3594
N 55 96 0 
N 89 97 0 
N 17 33 0 
N 22 96 0 
N 38 62 0 
O 75 41 0 
6
Atoms. Timestep: 3595
N 54 96 0 
N 88 97 0 
N 17 32 0 
N 21 96 0 
N 38 63 0 
O 74 41 0 
6
Atoms. Timestep: 3596
N 53 96 0 
N 87 97 0 
N 17 33 0 
N 20 96 0 
N 38 62 0 
O 75 41 0 
6
Atoms. Timestep: 3597
N 52 96 0 
N 86 97 0 
N 17 32 0 
N 19 96 0 
N 38 63 0 
O 74 41 0 
6
Atoms. Timestep: 3598
N 51 96 0 
N 85 97 0 
N 17 33 0 
N 18 96 0 
N 38 62 0 
O 75 41 0 
6
Atoms. Timestep: 3599
N 50 96 0 
N 84 97 0 
N 17 32 0 
N 17 96 0 
N 38 63 0 
O 74 41 0 
6
Atoms. Timestep: 3600
N 49 96 0 
N 83 97 0 
N 17 33 0 
N 16 96 0 
N 38 62 0 
O 75 41 0 
6
Atoms. Timestep: 3601
N 48 96 0 
N 82 97 0 
N 17 32 0 
N 15 96 0 
N 38 61 0 
O 74 41 0 
6
Atoms. Timestep: 3602
N 47 96 0 
N 81 97 0 
N 17 33 0 
N 14 96 0 
N 38 62 0 
O 75 41 0 
6
Atoms. Timestep: 3603
N 46 96 0 
N 80 97 0 
N 17 32 0 
N 13 96 0 
N 38 61 0 
O 74 41 0 
6
Atoms. Timestep: 3604
N 45 96 0 
N 79 97 0 
N 17 31 0 
N 12 96 0 
N 38 60 0 
O 75 41 0 
6
Atoms. Timestep: 3605
N 44 96 0 
N 78 97 0 
N 17 32 0 
N 11 96 0 
N 38 61 0 
O 74 41 0 
6
Atoms. Timestep: 3606
N 43 96 0 
N 77 97 0 
N 17 31 0 
N 10 96 0 
N 38 60 0 
O 75 41 0 
6
Atoms. Timestep: 3607
N 42 96 0 
N 76 97 0 
N 17 32 0 
N 9 96 0 
N 38 61 0 
O 74 41 0 
6
Atoms. Timestep: 3608
N 41 96 0 
N 75 97 0 
N 17 31 0 
N 8 96 0 
N 38 60 0 
O 75 41 0 
6
Atoms. Timestep: 3609
N 40 96 0 
N 74 97 0 
N 17 32 0 
N 7 96 0 
N 38 61 0 
O 74 41 0 
6
Atoms. Timestep: 3610
N 39 96 0 
N 73 97 0 
N 17 31 0 
N 6 96 0 
N 38 60 0 
O 75 41 0 
6
Atoms. Timestep: 3611
N 38 96 0 
N 72 97 0 
N 17 30 0 
N 5 96 0 
N 38 61 0 
O 76 41 0 
6
Atoms. Timestep: 3612
N 37 96 0 
N 71 97 0 
N 17 31 0 
N 4 96 0 
N 38 60 0 
O 75 41 0 
6
Atoms. Timestep: 3613
N 36 96 0 
N 70 97 0 
N 17 30 0 
N 3 96 0 
N 38 61 0 
O 76 41 0 
6
Atoms. Timestep: 3614
N 35 96 0 
N 69 97 0 
N 17 29 0 
N 2 96 0 
N 38 60 0 
O 75 41 0 
6
Atoms. Timestep: 3615
N 34 96 0 
N 68 97 0 
N 17 30 0 
N 1 96 0 
N 38 59 0 
O 76 41 0 
6
Atoms. Timestep: 3616
N 33 96 0 
N 67 97 0 
N 17 29 0 
N 0 96 0 
N 38 60 0 
O 75 41 0 
6
Atoms. Timestep: 3617
N 32 96 0 
N 66 97 0 
N 17 30 0 
N 99 96 0 
N 38 59 0 
O 76 41 0 
6
Atoms. Timestep: 3618
N 31 96 0 
N 65 97 0 
N 17 29 0 
N 98 96 0 
N 38 60 0 
O 75 41 0 
6
Atoms. Timestep: 3619
N 30 96 0 
N 64 97 0 
N 17 30 0 
N 97 96 0 
N 38 59 0 
O 76 41 0 
6
Atoms. Timestep: 3620
N 31 96 0 
N 65 97 0 
N 17 31 0 
N 98 96 0 
N 38 60 0 
O 75 41 0 
6
Atoms. Timestep: 3621
N 30 96 0 
N 64 97 0 
N 17 30 0 
N 97 96 0 
N 38 61 0 
O 76 41 0 
6
Atoms. Timestep: 3622
N 29 96 0 
N 63 97 0 
N 17 31 0 
N 96 96 0 
N 38 60 0 
O 75 41 0 
6
Atoms. Timestep: 3623
N 28 96 0 
N 62 97 0 
N 17 30 0 
N 95 96 0 
N 39 60 0 
O 76 41 0 
6
Atoms. Timestep: 3624
N 27 96 0 
N 61 97 0 
N 17 31 0 
N 94 96 0 
N 39 59 0 
O 77 41 0 
6
Atoms. Timestep: 3625
N 26 96 0 
N 60 97 0 
N 17 32 0 
N 93 96 0 
N 39 60 0 
O 76 41 0 
6
Atoms. Timestep: 3626
N 25 96 0 
N 59 97 0 
N 17 31 0 
N 92 96 0 
N 39 61 0 
O 75 41 0 
6
Atoms. Timestep: 3627
N 24 96 0 
N 58 97 0 
N 17 32 0 
N 91 96 0 
N 39 60 0 
O 76 41 0 
6
Atoms. Timestep: 3628
N 23 96 0 
N 57 97 0 
N 17 33 0 
N 90 96 0 
N 39 61 0 
O 75 41 0 
6
Atoms. Timestep: 3629
N 22 96 0 
N 56 97 0 
N 17 32 0 
N 89 96 0 
N 39 62 0 
O 76 41 0 
6
Atoms. Timestep: 3630
N 21 96 0 
N 55 97 0 
N 17 33 0 
N 88 96 0 
N 39 63 0 
O 75 41 0 
6
Atoms. Timestep: 3631
N 20 96 0 
N 54 97 0 
N 17 32 0 
N 87 96 0 
N 39 62 0 
O 76 41 0 
6
Atoms. Timestep: 3632
N 19 96 0 
N 53 97 0 
N 17 33 0 
N 86 96 0 
N 39 63 0 
O 75 41 0 
6
Atoms. Timestep: 3633
N 18 96 0 
N 52 97 0 
N 17 32 0 
N 85 96 0 
N 39 62 0 
O 76 41 0 
6
Atoms. Timestep: 3634
N 17 96 0 
N 51 97 0 
N 17 33 0 
N 84 96 0 
N 39 61 0 
O 75 41 0 
6
Atoms. Timestep: 3635
N 16 96 0 
N 50 97 0 
N 17 32 0 
N 83 96 0 
N 39 62 0 
O 76 41 0 
6
Atoms. Timestep: 3636
N 15 96 0 
N 49 97 0 
N 17 33 0 
N 82 96 0 
N 39 61 0 
O 75 41 0 
6
Atoms. Timestep: 3637
N 14 96 0 
N 48 97 0 
N 17 32 0 
N 81 96 0 
N 39 62 0 
O 76 41 0 
6
Atoms. Timestep: 3638
N 13 96 0 
N 47 97 0 
N 17 33 0 
N 80 96 0 
N 39 61 0 
O 75 41 0 
6
Atoms. Timestep: 3639
N 12 96 0 
N 46 97 0 
N 17 32 0 
N 79 96 0 
N 39 62 0 
O 76 41 0 
6
Atoms. Timestep: 3640
N 11 96 0 
N 45 97 0 
N 17 33 0 
N 78 96 0 
N 39 61 0 
O 75 41 0 
6
Atoms. Timestep: 3641
N 10 96 0 
N 44 97 0 
N 17 32 0 
N 77 96 0 
N 39 62 0 
O 76 41 0 
6
Atoms. Timestep: 3642
N 9 96 0 
N 43 97 0 
N 17 33 0 
N 77 95 0 
N 39 61 0 
O 75 41 0 
6
Atoms. Timestep: 3643
N 8 96 0 
N 42 97 0 
N 17 32 0 
N 76 95 0 
N 39 62 0 
O 76 41 0 
6
Atoms. Timestep: 3644
N 7 96 0 
N 41 97 0 
N 17 31 0 
N 75 95 0 
N 39 61 0 
O 75 41 0 
6
Atoms. Timestep: 3645
N 6 96 0 
N 40 97 0 
N 17 32 0 
N 74 95 0 
N 39 60 0 
O 76 41 0 
6
Atoms. Timestep: 3646
N 5 96 0 
N 39 97 0 
N 17 31 0 
N 73 95 0 
N 39 61 0 
O 75 41 0 
6
Atoms. Timestep: 3647
N 4 96 0 
N 38 97 0 
N 17 30 0 
N 72 95 0 
N 39 60 0 
O 76 41 0 
6
Atoms. Timestep: 3648
N 3 96 0 
N 37 97 0 
N 17 31 0 
N 71 95 0 
N 39 59 0 
O 77 41 0 
6
Atoms. Timestep: 3649
N 2 96 0 
N 36 97 0 
N 17 30 0 
N 70 95 0 
N 39 60 0 
O 76 41 0 
6
Atoms. Timestep: 3650
N 3 96 0 
N 37 97 0 
N 17 29 0 
N 70 94 0 
N 39 59 0 
O 77 41 0 
6
Atoms. Timestep: 3651
N 2 96 0 
N 36 97 0 
N 17 30 0 
N 69 94 0 
N 39 60 0 
O 76 41 0 
6
Atoms. Timestep: 3652
N 1 96 0 
N 35 97 0 
N 17 29 0 
N 68 94 0 
N 39 59 0 
O 77 41 0 
6
Atoms. Timestep: 3653
N 0 96 0 
N 34 97 0 
N 17 30 0 
N 67 94 0 
N 39 60 0 
O 76 41 0 
6
Atoms. Timestep: 3654
N 99 96 0 
N 33 97 0 
N 17 29 0 
N 66 94 0 
N 39 59 0 
O 77 41 0 
6
Atoms. Timestep: 3655
N 98 96 0 
N 32 97 0 
N 17 30 0 
N 65 94 0 
N 39 60 0 
O 76 41 0 
6
Atoms. Timestep: 3656
N 97 96 0 
N 31 97 0 
N 17 31 0 
N 64 94 0 
N 39 59 0 
O 77 41 0 
6
Atoms. Timestep: 3657
N 96 96 0 
N 30 97 0 
N 17 32 0 
N 63 94 0 
N 39 60 0 
O 76 41 0 
6
Atoms. Timestep: 3658
N 95 96 0 
N 29 97 0 
N 17 31 0 
N 62 94 0 
N 39 61 0 
O 75 41 0 
6
Atoms. Timestep: 3659
N 94 96 0 
N 28 97 0 
N 17 32 0 
N 61 94 0 
N 39 60 0 
O 76 41 0 
6
Atoms. Timestep: 3660
N 93 96 0 
N 27 97 0 
N 17 33 0 
N 60 94 0 
N 39 61 0 
O 75 41 0 
6
Atoms. Timestep: 3661
N 92 96 0 
N 26 97 0 
N 17 32 0 
N 59 94 0 
N 39 62 0 
O 76 41 0 
6
Atoms. Timestep: 3662
N 91 96 0 
N 25 97 0 
N 17 33 0 
N 58 94 0 
N 39 61 0 
O 75 41 0 
6
Atoms. Timestep: 3663
N 90 96 0 
N 24 97 0 
N 17 34 0 
N 57 94 0 
N 39 62 0 
O 76 41 0 
6
Atoms. Timestep: 3664
N 89 96 0 
N 23 97 0 
N 17 33 0 
N 56 94 0 
N 39 63 0 
O 75 41 0 
6
Atoms. Timestep: 3665
N 88 96 0 
N 22 97 0 
N 17 34 0 
N 55 94 0 
N 39 62 0 
O 76 41 0 
6
Atoms. Timestep: 3666
N 87 96 0 
N 21 97 0 
N 17 33 0 
N 54 94 0 
N 39 63 0 
O 75 41 0 
6
Atoms. Timestep: 3667
N 86 96 0 
N 20 97 0 
N 17 34 0 
N 53 94 0 
N 39 62 0 
O 76 41 0 
6
Atoms. Timestep: 3668
N 85 96 0 
N 19 97 0 
N 17 33 0 
N 52 94 0 
N 39 61 0 
O 75 41 0 
6
Atoms. Timestep: 3669
N 84 96 0 
N 18 97 0 
N 17 34 0 
N 51 94 0 
N 39 62 0 
O 76 41 0 
6
Atoms. Timestep: 3670
N 83 96 0 
N 17 97 0 
N 17 33 0 
N 50 94 0 
N 39 61 0 
O 75 41 0 
6
Atoms. Timestep: 3671
N 82 96 0 
N 16 97 0 
N 17 32 0 
N 49 94 0 
N 39 60 0 
O 76 41 0 
6
Atoms. Timestep: 3672
N 81 96 0 
N 15 97 0 
N 17 33 0 
N 48 94 0 
N 39 61 0 
O 75 41 0 
6
Atoms. Timestep: 3673
N 80 96 0 
N 14 97 0 
N 17 32 0 
N 47 94 0 
N 39 60 0 
O 76 41 0 
6
Atoms. Timestep: 3674
N 79 96 0 
N 13 97 0 
N 16 32 0 
N 46 94 0 
N 39 59 0 
O 75 41 0 
6
Atoms. Timestep: 3675
N 78 96 0 
N 12 97 0 
N 16 33 0 
N 45 94 0 
N 39 60 0 
O 76 41 0 
6
Atoms. Timestep: 3676
N 77 96 0 
N 11 97 0 
N 16 32 0 
N 44 94 0 
N 39 59 0 
O 75 41 0 
6
Atoms. Timestep: 3677
N 76 96 0 
N 10 97 0 
N 16 33 0 
N 43 94 0 
N 39 60 0 
O 76 41 0 
6
Atoms. Timestep: 3678
N 75 96 0 
N 9 97 0 
N 16 32 0 
N 42 94 0 
N 39 59 0 
O 75 41 0 
6
Atoms. Timestep: 3679
N 74 96 0 
N 8 97 0 
N 16 33 0 
N 41 94 0 
N 39 60 0 
O 76 41 0 
6
Atoms. Timestep: 3680
N 73 96 0 
N 7 97 0 
N 16 32 0 
N 40 94 0 
N 39 59 0 
O 75 41 0 
6
Atoms. Timestep: 3681
N 72 96 0 
N 6 97 0 
N 16 33 0 
N 39 94 0 
N 39 60 0 
O 76 41 0 
6
Atoms. Timestep: 3682
N 71 96 0 
N 5 97 0 
N 16 32 0 
N 38 94 0 
N 39 59 0 
O 75 41 0 
6
Atoms. Timestep: 3683
N 70 96 0 
N 4 97 0 
N 16 33 0 
N 37 94 0 
N 39 60 0 
O 76 41 0 
6
Atoms. Timestep: 3684
N 69 96 0 
N 3 97 0 
N 16 32 0 
N 36 94 0 
N 39 59 0 
O 75 41 0 
6
Atoms. Timestep: 3685
N 68 96 0 
N 2 97 0 
N 16 31 0 
N 35 94 0 
N 39 60 0 
O 76 41 0 
6
Atoms. Timestep: 3686
N 67 96 0 
N 1 97 0 
N 16 32 0 
N 34 94 0 
N 39 59 0 
O 75 41 0 
6
Atoms. Timestep: 3687
N 66 96 0 
N 0 97 0 
N 16 31 0 
N 33 94 0 
N 39 60 0 
O 76 41 0 
6
Atoms. Timestep: 3688
N 65 96 0 
N 99 97 0 
N 16 30 0 
N 32 94 0 
N 39 59 0 
O 75 41 0 
6
Atoms. Timestep: 3689
N 64 96 0 
N 98 97 0 
N 16 29 0 
N 31 94 0 
N 39 58 0 
O 76 41 0 
6
Atoms. Timestep: 3690
N 63 96 0 
N 97 97 0 
N 16 30 0 
N 30 94 0 
N 39 57 0 
O 77 41 0 
6
Atoms. Timestep: 3691
N 62 96 0 
N 96 97 0 
N 16 29 0 
N 29 94 0 
N 39 58 0 
O 76 41 0 
6
Atoms. Timestep: 3692
N 61 96 0 
N 95 97 0 
N 16 30 0 
N 28 94 0 
N 39 59 0 
O 75 41 0 
6
Atoms. Timestep: 3693
N 60 96 0 
N 94 97 0 
N 16 29 0 
N 27 94 0 
N 39 58 0 
O 76 41 0 
6
Atoms. Timestep: 3694
N 59 96 0 
N 94 96 0 
N 16 30 0 
N 26 94 0 
N 39 59 0 
O 75 41 0 
6
Atoms. Timestep: 3695
N 60 96 0 
N 93 96 0 
N 16 31 0 
N 27 94 0 
N 39 60 0 
O 76 41 0 
6
Atoms. Timestep: 3696
N 59 96 0 
N 94 96 0 
N 16 30 0 
N 26 94 0 
N 39 59 0 
O 75 41 0 
6
Atoms. Timestep: 3697
N 60 96 0 
N 93 96 0 
N 16 31 0 
N 27 94 0 
N 39 60 0 
O 76 41 0 
6
Atoms. Timestep: 3698
N 59 96 0 
N 94 96 0 
N 16 30 0 
N 26 94 0 
N 39 59 0 
O 75 41 0 
6
Atoms. Timestep: 3699
N 60 96 0 
N 93 96 0 
N 16 31 0 
N 27 94 0 
N 39 60 0 
O 76 41 0 
6
Atoms. Timestep: 3700
N 59 96 0 
N 94 96 0 
N 16 30 0 
N 26 94 0 
N 39 59 0 
O 75 41 0 
6
Atoms. Timestep: 3701
N 60 96 0 
N 93 96 0 
N 16 29 0 
N 26 93 0 
N 39 60 0 
O 76 41 0 
6
Atoms. Timestep: 3702
N 61 96 0 
N 94 96 0 
N 16 30 0 
N 27 93 0 
N 39 59 0 
O 75 41 0 
6
Atoms. Timestep: 3703
N 62 96 0 
N 95 96 0 
N 16 29 0 
N 28 93 0 
N 39 58 0 
O 76 41 0 
6
Atoms. Timestep: 3704
N 63 96 0 
N 96 96 0 
N 16 28 0 
N 29 93 0 
N 39 57 0 
O 77 41 0 
6
Atoms. Timestep: 3705
N 64 96 0 
N 97 96 0 
N 16 29 0 
N 30 93 0 
N 39 58 0 
O 76 41 0 
6
Atoms. Timestep: 3706
N 65 96 0 
N 98 96 0 
N 16 28 0 
N 31 93 0 
N 39 57 0 
O 77 41 0 
6
Atoms. Timestep: 3707
N 66 96 0 
N 99 96 0 
N 16 29 0 
N 32 93 0 
N 39 56 0 
O 76 41 0 
6
Atoms. Timestep: 3708
N 67 96 0 
N 0 96 0 
N 16 28 0 
N 33 93 0 
N 39 57 0 
O 77 41 0 
6
Atoms. Timestep: 3709
N 68 96 0 
N 1 96 0 
N 16 29 0 
N 34 93 0 
N 39 56 0 
O 76 41 0 
6
Atoms. Timestep: 3710
N 69 96 0 
N 2 96 0 
N 16 30 0 
N 35 93 0 
N 39 57 0 
O 77 41 0 
6
Atoms. Timestep: 3711
N 70 96 0 
N 3 96 0 
N 16 31 0 
N 36 93 0 
N 39 58 0 
O 76 41 0 
6
Atoms. Timestep: 3712
N 71 96 0 
N 4 96 0 
N 16 30 0 
N 37 93 0 
N 39 59 0 
O 75 41 0 
6
Atoms. Timestep: 3713
N 72 96 0 
N 5 96 0 
N 16 31 0 
N 38 93 0 
N 39 58 0 
O 76 41 0 
6
Atoms. Timestep: 3714
N 73 96 0 
N 6 96 0 
N 16 32 0 
N 39 93 0 
N 39 59 0 
O 75 41 0 
6
Atoms. Timestep: 3715
N 74 96 0 
N 7 96 0 
N 16 31 0 
N 40 93 0 
N 39 58 0 
O 76 41 0 
6
Atoms. Timestep: 3716
N 75 96 0 
N 8 96 0 
N 16 32 0 
N 41 93 0 
N 39 59 0 
O 75 41 0 
6
Atoms. Timestep: 3717
N 76 96 0 
N 9 96 0 
N 16 31 0 
N 42 93 0 
N 39 58 0 
O 76 41 0 
6
Atoms. Timestep: 3718
N 77 96 0 
N 10 96 0 
N 16 32 0 
N 43 93 0 
N 39 59 0 
O 75 41 0 
6
Atoms. Timestep: 3719
N 78 96 0 
N 11 96 0 
N 16 31 0 
N 44 93 0 
N 39 58 0 
O 76 41 0 
6
Atoms. Timestep: 3720
N 79 96 0 
N 12 96 0 
N 16 32 0 
N 45 93 0 
N 39 59 0 
O 75 41 0 
6
Atoms. Timestep: 3721
N 80 96 0 
N 13 96 0 
N 15 32 0 
N 46 93 0 
N 39 58 0 
O 76 41 0 
6
Atoms. Timestep: 3722
N 81 96 0 
N 14 96 0 
N 15 33 0 
N 47 93 0 
N 39 59 0 
O 75 41 0 
6
Atoms. Timestep: 3723
N 82 96 0 
N 15 96 0 
N 15 32 0 
N 48 93 0 
N 39 58 0 
O 76 41 0 
6
Atoms. Timestep: 3724
N 83 96 0 
N 16 96 0 
N 15 33 0 
N 49 93 0 
N 39 59 0 
O 75 41 0 
6
Atoms. Timestep: 3725
N 84 96 0 
N 17 96 0 
N 15 32 0 
N 50 93 0 
N 39 60 0 
O 76 41 0 
6
Atoms. Timestep: 3726
N 85 96 0 
N 18 96 0 
N 15 33 0 
N 51 93 0 
N 39 59 0 
O 75 41 0 
6
Atoms. Timestep: 3727
N 86 96 0 
N 19 96 0 
N 15 32 0 
N 52 93 0 
N 39 60 0 
O 76 41 0 
6
Atoms. Timestep: 3728
N 87 96 0 
N 20 96 0 
N 15 33 0 
N 53 93 0 
N 39 59 0 
O 75 41 0 
6
Atoms. Timestep: 3729
N 88 96 0 
N 21 96 0 
N 15 32 0 
N 54 93 0 
N 39 60 0 
O 76 41 0 
6
Atoms. Timestep: 3730
N 89 96 0 
N 22 96 0 
N 15 33 0 
N 55 93 0 
N 39 61 0 
O 75 41 0 
6
Atoms. Timestep: 3731
N 90 96 0 
N 23 96 0 
N 15 32 0 
N 56 93 0 
N 39 60 0 
O 76 41 0 
6
Atoms. Timestep: 3732
N 91 96 0 
N 24 96 0 
N 15 33 0 
N 57 93 0 
N 39 61 0 
O 75 41 0 
6
Atoms. Timestep: 3733
N 92 96 0 
N 25 96 0 
N 15 32 0 
N 58 93 0 
N 39 62 0 
O 74 41 0 
6
Atoms. Timestep: 3734
N 93 96 0 
N 26 96 0 
N 15 33 0 
N 59 93 0 
N 39 61 0 
O 75 41 0 
6
Atoms. Timestep: 3735
N 94 96 0 
N 27 96 0 
N 15 32 0 
N 60 93 0 
N 39 62 0 
O 74 41 0 
6
Atoms. Timestep: 3736
N 95 96 0 
N 28 96 0 
N 15 33 0 
N 61 93 0 
N 39 61 0 
O 75 41 0 
6
Atoms. Timestep: 3737
N 96 96 0 
N 29 96 0 
N 15 32 0 
N 62 93 0 
N 39 60 0 
O 76 41 0 
6
Atoms. Timestep: 3738
N 97 96 0 
N 30 96 0 
N 15 31 0 
N 63 93 0 
N 39 61 0 
O 75 41 0 
6
Atoms. Timestep: 3739
N 98 96 0 
N 31 96 0 
N 15 30 0 
N 64 93 0 
N 39 60 0 
O 76 41 0 
6
Atoms. Timestep: 3740
N 99 96 0 
N 32 96 0 
N 15 31 0 
N 65 93 0 
N 39 59 0 
O 75 41 0 
6
Atoms. Timestep: 3741
N 0 96 0 
N 33 96 0 
N 15 30 0 
N 66 93 0 
N 39 60 0 
O 76 41 0 
6
Atoms. Timestep: 3742
N 1 96 0 
N 34 96 0 
N 15 31 0 
N 67 93 0 
N 39 59 0 
O 75 41 0 
6
Atoms. Timestep: 3743
N 2 96 0 
N 35 96 0 
N 15 32 0 
N 68 93 0 
N 39 60 0 
O 76 41 0 
6
Atoms. Timestep: 3744
N 3 96 0 
N 36 96 0 
N 15 31 0 
N 69 93 0 
N 39 59 0 
O 75 41 0 
6
Atoms. Timestep: 3745
N 4 96 0 
N 37 96 0 
N 15 32 0 
N 70 93 0 
N 39 60 0 
O 76 41 0 
6
Atoms. Timestep: 3746
N 5 96 0 
N 38 96 0 
N 15 31 0 
N 71 93 0 
N 39 59 0 
O 75 41 0 
6
Atoms. Timestep: 3747
N 6 96 0 
N 39 96 0 
N 15 32 0 
N 72 93 0 
N 39 60 0 
O 76 41 0 
6
Atoms. Timestep: 3748
N 7 96 0 
N 40 96 0 
N 15 31 0 
N 73 93 0 
N 39 59 0 
O 75 41 0 
6
Atoms. Timestep: 3749
N 8 96 0 
N 41 96 0 
N 15 32 0 
N 74 93 0 
N 39 60 0 
O 76 41 0 
6
Atoms. Timestep: 3750
N 9 96 0 
N 42 96 0 
N 15 33 0 
N 75 93 0 
N 39 59 0 
O 75 41 0 
6
Atoms. Timestep: 3751
N 10 96 0 
N 43 96 0 
N 15 32 0 
N 76 93 0 
N 39 60 0 
O 76 41 0 
6
Atoms. Timestep: 3752
N 11 96 0 
N 44 96 0 
N 15 33 0 
N 77 93 0 
N 39 59 0 
O 75 41 0 
6
Atoms. Timestep: 3753
N 12 96 0 
N 45 96 0 
N 15 32 0 
N 78 93 0 
N 39 60 0 
O 76 41 0 
6
Atoms. Timestep: 3754
N 13 96 0 
N 46 96 0 
N 15 33 0 
N 79 93 0 
N 39 59 0 
O 75 41 0 
6
Atoms. Timestep: 3755
N 14 96 0 
N 47 96 0 
N 15 32 0 
N 80 93 0 
N 39 60 0 
O 76 41 0 
6
Atoms. Timestep: 3756
N 15 96 0 
N 48 96 0 
N 15 33 0 
N 81 93 0 
N 39 59 0 
O 75 41 0 
6
Atoms. Timestep: 3757
N 16 96 0 
N 49 96 0 
N 15 32 0 
N 82 93 0 
N 39 60 0 
O 76 41 0 
6
Atoms. Timestep: 3758
N 17 96 0 
N 50 96 0 
N 15 33 0 
N 83 93 0 
N 39 61 0 
O 75 41 0 
6
Atoms. Timestep: 3759
N 18 96 0 
N 51 96 0 
N 15 32 0 
N 84 93 0 
N 39 60 0 
O 76 41 0 
6
Atoms. Timestep: 3760
N 19 96 0 
N 52 96 0 
N 15 33 0 
N 85 93 0 
N 39 61 0 
O 75 41 0 
6
Atoms. Timestep: 3761
N 20 96 0 
N 53 96 0 
N 15 34 0 
N 86 93 0 
N 39 62 0 
O 74 41 0 
6
Atoms. Timestep: 3762
N 21 96 0 
N 54 96 0 
N 15 33 0 
N 87 93 0 
N 39 61 0 
O 75 41 0 
6
Atoms. Timestep: 3763
N 22 96 0 
N 55 96 0 
N 15 34 0 
N 88 93 0 
N 39 62 0 
O 74 41 0 
6
Atoms. Timestep: 3764
N 23 96 0 
N 56 96 0 
N 15 33 0 
N 89 93 0 
N 39 63 0 
O 73 41 0 
6
Atoms. Timestep: 3765
N 24 96 0 
N 57 96 0 
N 15 34 0 
N 90 93 0 
N 39 62 0 
O 74 41 0 
6
Atoms. Timestep: 3766
N 25 96 0 
N 58 96 0 
N 15 33 0 
N 91 93 0 
N 39 63 0 
O 73 41 0 
6
Atoms. Timestep: 3767
N 26 96 0 
N 59 96 0 
N 15 32 0 
N 92 93 0 
N 39 62 0 
O 74 41 0 
6
Atoms. Timestep: 3768
N 27 96 0 
N 60 96 0 
N 15 33 0 
N 93 93 0 
N 39 61 0 
O 75 41 0 
6
Atoms. Timestep: 3769
N 28 96 0 
N 61 96 0 
N 15 32 0 
N 94 93 0 
N 39 62 0 
O 74 41 0 
6
Atoms. Timestep: 3770
N 29 96 0 
N 62 96 0 
N 15 31 0 
N 95 93 0 
N 39 61 0 
O 75 41 0 
6
Atoms. Timestep: 3771
N 30 96 0 
N 63 96 0 
N 15 32 0 
N 96 93 0 
N 39 60 0 
O 76 41 0 
6
Atoms. Timestep: 3772
N 31 96 0 
N 64 96 0 
N 15 31 0 
N 97 93 0 
N 39 61 0 
O 75 41 0 
6
Atoms. Timestep: 3773
N 32 96 0 
N 65 96 0 
N 15 30 0 
N 98 93 0 
N 39 60 0 
O 76 41 0 
6
Atoms. Timestep: 3774
N 33 96 0 
N 66 96 0 
N 15 29 0 
N 99 93 0 
N 39 59 0 
O 75 41 0 
6
Atoms. Timestep: 3775
N 34 96 0 
N 67 96 0 
N 15 30 0 
N 0 93 0 
N 39 58 0 
O 76 41 0 
6
Atoms. Timestep: 3776
N 35 96 0 
N 68 96 0 
N 15 29 0 
N 1 93 0 
N 39 59 0 
O 75 41 0 
6
Atoms. Timestep: 3777
N 36 96 0 
N 69 96 0 
N 15 28 0 
N 2 93 0 
N 39 58 0 
O 76 41 0 
6
Atoms. Timestep: 3778
N 37 96 0 
N 70 96 0 
N 15 29 0 
N 3 93 0 
N 39 57 0 
O 75 41 0 
6
Atoms. Timestep: 3779
N 38 96 0 
N 71 96 0 
N 15 30 0 
N 4 93 0 
N 39 58 0 
O 76 41 0 
6
Atoms. Timestep: 3780
N 39 96 0 
N 72 96 0 
N 15 29 0 
N 5 93 0 
N 39 59 0 
O 75 41 0 
6
Atoms. Timestep: 3781
N 40 96 0 
N 73 96 0 
N 15 30 0 
N 6 93 0 
N 39 58 0 
O 76 41 0 
6
Atoms. Timestep: 3782
N 41 96 0 
N 74 96 0 
N 15 31 0 
N 7 93 0 
N 39 59 0 
O 75 41 0 
6
Atoms. Timestep: 3783
N 42 96 0 
N 75 96 0 
N 15 30 0 
N 8 93 0 
N 39 60 0 
O 76 41 0 
6
Atoms. Timestep: 3784
N 43 96 0 
N 76 96 0 
N 15 31 0 
N 9 93 0 
N 39 59 0 
O 75 41 0 
6
Atoms. Timestep: 3785
N 44 96 0 
N 77 96 0 
N 15 30 0 
N 10 93 0 
N 39 60 0 
O 76 41 0 
6
Atoms. Timestep: 3786
N 45 96 0 
N 78 96 0 
N 15 31 0 
N 11 93 0 
N 39 59 0 
O 75 41 0 
6
Atoms. Timestep: 3787
N 46 96 0 
N 79 96 0 
N 15 30 0 
N 12 93 0 
N 39 60 0 
O 76 41 0 
6
Atoms. Timestep: 3788
N 47 96 0 
N 80 96 0 
N 15 31 0 
N 13 93 0 
N 39 59 0 
O 75 41 0 
6
Atoms. Timestep: 3789
N 48 96 0 
N 81 96 0 
N 15 30 0 
N 14 93 0 
N 39 60 0 
O 76 41 0 
6
Atoms. Timestep: 3790
N 49 96 0 
N 82 96 0 
N 15 31 0 
N 15 93 0 
N 39 59 0 
O 75 41 0 
6
Atoms. Timestep: 3791
N 50 96 0 
N 83 96 0 
N 15 30 0 
N 16 93 0 
N 39 60 0 
O 76 41 0 
6
Atoms. Timestep: 3792
N 51 96 0 
N 84 96 0 
N 15 31 0 
N 17 93 0 
N 39 59 0 
O 75 41 0 
6
Atoms. Timestep: 3793
N 52 96 0 
N 85 96 0 
N 15 30 0 
N 18 93 0 
N 39 60 0 
O 76 41 0 
6
Atoms. Timestep: 3794
N 53 96 0 
N 86 96 0 
N 15 31 0 
N 19 93 0 
N 39 59 0 
O 75 41 0 
6
Atoms. Timestep: 3795
N 54 96 0 
N 87 96 0 
N 15 30 0 
N 20 93 0 
N 39 60 0 
O 76 41 0 
6
Atoms. Timestep: 3796
N 55 96 0 
N 88 96 0 
N 15 31 0 
N 21 93 0 
N 39 61 0 
O 75 41 0 
6
Atoms. Timestep: 3797
N 56 96 0 
N 89 96 0 
N 15 30 0 
N 22 93 0 
N 39 60 0 
O 76 41 0 
6
Atoms. Timestep: 3798
N 57 96 0 
N 90 96 0 
N 15 31 0 
N 23 93 0 
N 39 59 0 
O 75 41 0 
6
Atoms. Timestep: 3799
N 58 96 0 
N 91 96 0 
N 15 30 0 
N 24 93 0 
N 39 60 0 
O 76 41 0 
6
Atoms. Timestep: 3800
N 59 96 0 
N 92 96 0 
N 15 29 0 
N 25 93 0 
N 39 59 0 
O 75 41 0 
6
Atoms. Timestep: 3801
N 60 96 0 
N 93 96 0 
N 15 30 0 
N 26 93 0 
N 39 58 0 
O 76 41 0 
6
Atoms. Timestep: 3802
N 61 96 0 
N 94 96 0 
N 15 29 0 
N 27 93 0 
N 39 59 0 
O 75 41 0 
6
Atoms. Timestep: 3803
N 62 96 0 
N 95 96 0 
N 15 28 0 
N 28 93 0 
N 39 58 0 
O 76 41 0 
6
Atoms. Timestep: 3804
N 63 96 0 
N 96 96 0 
N 15 29 0 
N 29 93 0 
N 39 57 0 
O 75 41 0 
6
Atoms. Timestep: 3805
N 64 96 0 
N 97 96 0 
N 15 28 0 
N 30 93 0 
N 39 58 0 
O 76 41 0 
6
Atoms. Timestep: 3806
N 65 96 0 
N 98 96 0 
N 15 29 0 
N 31 93 0 
N 39 57 0 
O 75 41 0 
6
Atoms. Timestep: 3807
N 66 96 0 
N 99 96 0 
N 15 30 0 
N 32 93 0 
N 39 58 0 
O 76 41 0 
6
Atoms. Timestep: 3808
N 67 96 0 
N 0 96 0 
N 15 29 0 
N 33 93 0 
N 39 57 0 
O 75 41 0 
6
Atoms. Timestep: 3809
N 68 96 0 
N 1 96 0 
N 15 30 0 
N 34 93 0 
N 39 58 0 
O 76 41 0 
6
Atoms. Timestep: 3810
N 69 96 0 
N 2 96 0 
N 15 31 0 
N 35 93 0 
N 39 57 0 
O 75 41 0 
6
Atoms. Timestep: 3811
N 70 96 0 
N 3 96 0 
N 15 30 0 
N 36 93 0 
N 39 58 0 
O 76 41 0 
6
Atoms. Timestep: 3812
N 71 96 0 
N 4 96 0 
N 15 31 0 
N 37 93 0 
N 39 57 0 
O 75 41 0 
6
Atoms. Timestep: 3813
N 72 96 0 
N 5 96 0 
N 15 32 0 
N 38 93 0 
N 39 58 0 
O 76 41 0 
6
Atoms. Timestep: 3814
N 73 96 0 
N 6 96 0 
N 15 31 0 
N 39 93 0 
N 39 59 0 
O 75 41 0 
6
Atoms. Timestep: 3815
N 74 96 0 
N 7 96 0 
N 15 32 0 
N 40 93 0 
N 39 58 0 
O 76 41 0 
6
Atoms. Timestep: 3816
N 75 96 0 
N 8 96 0 
N 15 33 0 
N 41 93 0 
N 39 59 0 
O 75 41 0 
6
Atoms. Timestep: 3817
N 76 96 0 
N 9 96 0 
N 15 32 0 
N 42 93 0 
N 39 58 0 
O 76 41 0 
6
Atoms. Timestep: 3818
N 77 96 0 
N 10 96 0 
N 15 33 0 
N 43 93 0 
N 39 59 0 
O 75 41 0 
6
Atoms. Timestep: 3819
N 78 96 0 
N 11 96 0 
N 15 32 0 
N 44 93 0 
N 39 58 0 
O 76 41 0 
6
Atoms. Timestep: 3820
N 79 96 0 
N 12 96 0 
N 15 33 0 
N 45 93 0 
N 39 59 0 
O 75 41 0 
6
Atoms. Timestep: 3821
N 80 96 0 
N 13 96 0 
N 15 32 0 
N 46 93 0 
N 39 58 0 
O 76 41 0 
6
Atoms. Timestep: 3822
N 81 96 0 
N 14 96 0 
N 15 31 0 
N 47 93 0 
N 39 57 0 
O 75 41 0 
6
Atoms. Timestep: 3823
N 82 96 0 
N 15 96 0 
N 15 32 0 
N 48 93 0 
N 39 58 0 
O 76 41 0 
6
Atoms. Timestep: 3824
N 83 96 0 
N 16 96 0 
N 15 33 0 
N 49 93 0 
N 39 59 0 
O 75 41 0 
6
Atoms. Timestep: 3825
N 84 96 0 
N 17 96 0 
N 15 32 0 
N 50 93 0 
N 39 60 0 
O 76 41 0 
6
Atoms. Timestep: 3826
N 85 96 0 
N 18 96 0 
N 15 33 0 
N 51 93 0 
N 39 59 0 
O 75 41 0 
6
Atoms. Timestep: 3827
N 86 96 0 
N 19 96 0 
N 15 32 0 
N 52 93 0 
N 39 60 0 
O 76 41 0 
6
Atoms. Timestep: 3828
N 87 96 0 
N 20 96 0 
N 15 33 0 
N 53 93 0 
N 39 59 0 
O 75 41 0 
6
Atoms. Timestep: 3829
N 88 96 0 
N 21 96 0 
N 15 32 0 
N 54 93 0 
N 39 60 0 
O 76 41 0 
6
Atoms. Timestep: 3830
N 89 96 0 
N 22 96 0 
N 15 33 0 
N 55 93 0 
N 39 61 0 
O 75 41 0 
6
Atoms. Timestep: 3831
N 90 96 0 
N 23 96 0 
N 15 32 0 
N 56 93 0 
N 39 60 0 
O 76 41 0 
6
Atoms. Timestep: 3832
N 91 96 0 
N 24 96 0 
N 15 33 0 
N 57 93 0 
N 39 61 0 
O 75 41 0 
6
Atoms. Timestep: 3833
N 92 96 0 
N 25 96 0 
N 15 32 0 
N 58 93 0 
N 39 62 0 
O 74 41 0 
6
Atoms. Timestep: 3834
N 93 96 0 
N 26 96 0 
N 15 33 0 
N 59 93 0 
N 39 61 0 
O 75 41 0 
6
Atoms. Timestep: 3835
N 94 96 0 
N 27 96 0 
N 15 32 0 
N 60 93 0 
N 39 62 0 
O 74 41 0 
6
Atoms. Timestep: 3836
N 95 96 0 
N 28 96 0 
N 15 33 0 
N 61 93 0 
N 39 61 0 
O 75 41 0 
6
Atoms. Timestep: 3837
N 96 96 0 
N 29 96 0 
N 15 32 0 
N 62 93 0 
N 39 60 0 
O 76 41 0 
6
Atoms. Timestep: 3838
N 97 96 0 
N 30 96 0 
N 15 31 0 
N 63 93 0 
N 39 61 0 
O 75 41 0 
6
Atoms. Timestep: 3839
N 96 96 0 
N 30 95 0 
N 15 30 0 
N 64 93 0 
N 39 60 0 
O 76 41 0 
6
Atoms. Timestep: 3840
N 95 96 0 
N 29 95 0 
N 15 29 0 
N 63 93 0 
N 39 59 0 
O 75 41 0 
6
Atoms. Timestep: 3841
N 94 96 0 
N 28 95 0 
N 15 30 0 
N 62 93 0 
N 39 58 0 
O 76 41 0 
6
Atoms. Timestep: 3842
N 93 96 0 
N 27 95 0 
N 15 31 0 
N 61 93 0 
N 39 59 0 
O 75 41 0 
6
Atoms. Timestep: 3843
N 92 96 0 
N 26 95 0 
N 15 32 0 
N 60 93 0 
N 39 60 0 
O 76 41 0 
6
Atoms. Timestep: 3844
N 91 96 0 
N 25 95 0 
N 15 31 0 
N 59 93 0 
N 39 61 0 
O 75 41 0 
6
Atoms. Timestep: 3845
N 90 96 0 
N 24 95 0 
N 15 32 0 
N 58 93 0 
N 39 60 0 
O 76 41 0 
6
Atoms. Timestep: 3846
N 89 96 0 
N 23 95 0 
N 15 31 0 
N 57 93 0 
N 39 61 0 
O 75 41 0 
6
Atoms. Timestep: 3847
N 88 96 0 
N 22 95 0 
N 15 32 0 
N 56 93 0 
N 39 60 0 
O 76 41 0 
6
Atoms. Timestep: 3848
N 87 96 0 
N 21 95 0 
N 15 33 0 
N 55 93 0 
N 39 61 0 
O 75 41 0 
6
Atoms. Timestep: 3849
N 86 96 0 
N 20 95 0 
N 15 32 0 
N 54 93 0 
N 39 60 0 
O 76 41 0 
6
Atoms. Timestep: 3850
N 85 96 0 
N 19 95 0 
N 15 33 0 
N 53 93 0 
N 39 61 0 
O 75 41 0 
6
Atoms. Timestep: 3851
N 84 96 0 
N 18 95 0 
N 15 32 0 
N 52 93 0 
N 39 60 0 
O 76 41 0 
6
Atoms. Timestep: 3852
N 83 96 0 
N 17 95 0 
N 15 31 0 
N 51 93 0 
N 39 59 0 
O 75 41 0 
6
Atoms. Timestep: 3853
N 82 96 0 
N 16 95 0 
N 15 32 0 
N 50 93 0 
N 39 60 0 
O 76 41 0 
6
Atoms. Timestep: 3854
N 81 96 0 
N 15 95 0 
N 15 31 0 
N 49 93 0 
N 39 59 0 
O 75 41 0 
6
Atoms. Timestep: 3855
N 80 96 0 
N 14 95 0 
N 15 32 0 
N 48 93 0 
N 39 58 0 
O 76 41 0 
6
Atoms. Timestep: 3856
N 79 96 0 
N 13 95 0 
N 15 31 0 
N 47 93 0 
N 39 59 0 
O 75 41 0 
6
Atoms. Timestep: 3857
N 78 96 0 
N 12 95 0 
N 15 32 0 
N 46 93 0 
N 39 58 0 
O 76 41 0 
6
Atoms. Timestep: 3858
N 77 96 0 
N 11 95 0 
N 15 31 0 
N 45 93 0 
N 39 59 0 
O 75 41 0 
6
Atoms. Timestep: 3859
N 76 96 0 
N 10 95 0 
N 15 32 0 
N 44 93 0 
N 39 58 0 
O 76 41 0 
6
Atoms. Timestep: 3860
N 75 96 0 
N 9 95 0 
N 15 31 0 
N 43 93 0 
N 39 59 0 
O 75 41 0 
6
Atoms. Timestep: 3861
N 74 96 0 
N 8 95 0 
N 15 32 0 
N 42 93 0 
N 39 58 0 
O 76 41 0 
6
Atoms. Timestep: 3862
N 73 96 0 
N 7 95 0 
N 15 31 0 
N 41 93 0 
N 39 59 0 
O 75 41 0 
6
Atoms. Timestep: 3863
N 72 96 0 
N 6 95 0 
N 15 32 0 
N 40 93 0 
N 39 58 0 
O 76 41 0 
6
Atoms. Timestep: 3864
N 71 96 0 
N 5 95 0 
N 15 31 0 
N 39 93 0 
N 39 59 0 
O 75 41 0 
6
Atoms. Timestep: 3865
N 70 96 0 
N 4 95 0 
N 15 30 0 
N 38 93 0 
N 39 58 0 
O 76 41 0 
6
Atoms. Timestep: 3866
N 69 96 0 
N 3 95 0 
N 15 31 0 
N 37 93 0 
N 39 57 0 
O 75 41 0 
6
Atoms. Timestep: 3867
N 68 96 0 
N 2 95 0 
N 15 30 0 
N 36 93 0 
N 39 58 0 
O 76 41 0 
6
Atoms. Timestep: 3868
N 67 96 0 
N 1 95 0 
N 14 30 0 
N 35 93 0 
N 39 57 0 
O 75 41 0 
6
Atoms. Timestep: 3869
N 66 96 0 
N 0 95 0 
N 14 31 0 
N 34 93 0 
N 39 58 0 
O 76 41 0 
6
Atoms. Timestep: 3870
N 65 96 0 
N 99 95 0 
N 14 30 0 
N 33 93 0 
N 39 57 0 
O 75 41 0 
6
Atoms. Timestep: 3871
N 64 96 0 
N 98 95 0 
N 14 29 0 
N 32 93 0 
N 39 58 0 
O 76 41 0 
6
Atoms. Timestep: 3872
N 63 96 0 
N 97 95 0 
N 14 30 0 
N 31 93 0 
N 39 57 0 
O 75 41 0 
6
Atoms. Timestep: 3873
N 62 96 0 
N 96 95 0 
N 14 29 0 
N 30 93 0 
N 39 58 0 
O 76 41 0 
6
Atoms. Timestep: 3874
N 61 96 0 
N 95 95 0 
N 14 28 0 
N 29 93 0 
N 39 57 0 
O 75 41 0 
6
Atoms. Timestep: 3875
N 60 96 0 
N 94 95 0 
N 14 29 0 
N 28 93 0 
N 39 56 0 
O 76 41 0 
6
Atoms. Timestep: 3876
N 59 96 0 
N 93 95 0 
N 14 28 0 
N 27 93 0 
N 39 57 0 
O 75 41 0 
6
Atoms. Timestep: 3877
N 58 96 0 
N 92 95 0 
N 14 29 0 
N 26 93 0 
N 39 56 0 
O 76 41 0 
6
Atoms. Timestep: 3878
N 57 96 0 
N 91 95 0 
N 14 30 0 
N 25 93 0 
N 39 57 0 
O 75 41 0 
6
Atoms. Timestep: 3879
N 56 96 0 
N 90 95 0 
N 14 29 0 
N 24 93 0 
N 39 58 0 
O 76 41 0 
6
Atoms. Timestep: 3880
N 55 96 0 
N 89 95 0 
N 14 30 0 
N 23 93 0 
N 39 59 0 
O 75 41 0 
6
Atoms. Timestep: 3881
N 54 96 0 
N 88 95 0 
N 14 31 0 
N 22 93 0 
N 39 58 0 
O 76 41 0 
6
Atoms. Timestep: 3882
N 53 96 0 
N 87 95 0 
N 14 30 0 
N 21 93 0 
N 39 59 0 
O 75 41 0 
6
Atoms. Timestep: 3883
N 52 96 0 
N 86 95 0 
N 14 31 0 
N 20 93 0 
N 39 60 0 
O 74 41 0 
6
Atoms. Timestep: 3884
N 51 96 0 
N 85 95 0 
N 14 30 0 
N 19 93 0 
N 39 59 0 
O 75 41 0 
6
Atoms. Timestep: 3885
N 50 96 0 
N 84 95 0 
N 14 31 0 
N 18 93 0 
N 39 58 0 
O 76 41 0 
6
Atoms. Timestep: 3886
N 49 96 0 
N 83 95 0 
N 14 30 0 
N 17 93 0 
N 39 59 0 
O 75 41 0 
6
Atoms. Timestep: 3887
N 48 96 0 
N 82 95 0 
N 14 31 0 
N 16 93 0 
N 39 58 0 
O 76 41 0 
6
Atoms. Timestep: 3888
N 47 96 0 
N 81 95 0 
N 14 30 0 
N 15 93 0 
N 39 59 0 
O 75 41 0 
6
Atoms. Timestep: 3889
N 46 96 0 
N 80 95 0 
N 14 31 0 
N 14 93 0 
N 39 58 0 
O 76 41 0 
6
Atoms. Timestep: 3890
N 45 96 0 
N 79 95 0 
N 14 30 0 
N 13 93 0 
N 39 59 0 
O 75 41 0 
6
Atoms. Timestep: 3891
N 44 96 0 
N 78 95 0 
N 14 31 0 
N 12 93 0 
N 39 58 0 
O 76 41 0 
6
Atoms. Timestep: 3892
N 43 96 0 
N 77 95 0 
N 14 30 0 
N 11 93 0 
N 39 59 0 
O 75 41 0 
6
Atoms. Timestep: 3893
N 42 96 0 
N 76 95 0 
N 14 31 0 
N 10 93 0 
N 39 58 0 
O 76 41 0 
6
Atoms. Timestep: 3894
N 41 96 0 
N 75 95 0 
N 14 30 0 
N 9 93 0 
N 39 59 0 
O 75 41 0 
6
Atoms. Timestep: 3895
N 40 96 0 
N 74 95 0 
N 14 31 0 
N 8 93 0 
N 39 58 0 
O 76 41 0 
6
Atoms. Timestep: 3896
N 39 96 0 
N 73 95 0 
N 14 30 0 
N 7 93 0 
N 39 59 0 
O 75 41 0 
6
Atoms. Timestep: 3897
N 38 96 0 
N 72 95 0 
N 14 31 0 
N 6 93 0 
N 39 58 0 
O 76 41 0 
6
Atoms. Timestep: 3898
N 37 96 0 
N 71 95 0 
N 14 30 0 
N 5 93 0 
N 39 59 0 
O 75 41 0 
6
Atoms. Timestep: 3899
N 36 96 0 
N 70 95 0 
N 14 29 0 
N 4 93 0 
N 39 58 0 
O 76 41 0 
6
Atoms. Timestep: 3900
N 35 96 0 
N 69 95 0 
N 14 30 0 
N 3 93 0 
N 39 57 0 
O 75 41 0 
6
Atoms. Timestep: 3901
N 34 96 0 
N 68 95 0 
N 14 29 0 
N 2 93 0 
N 39 58 0 
O 76 41 0 
6
Atoms. Timestep: 3902
N 33 96 0 
N 67 95 0 
N 14 28 0 
N 1 93 0 
N 39 57 0 
O 75 41 0 
6
Atoms. Timestep: 3903
N 32 96 0 
N 66 95 0 
N 14 29 0 
N 0 93 0 
N 39 58 0 
O 76 41 0 
6
Atoms. Timestep: 3904
N 31 96 0 
N 65 95 0 
N 14 30 0 
N 99 93 0 
N 39 57 0 
O 75 41 0 
6
Atoms. Timestep: 3905
N 30 96 0 
N 64 95 0 
N 14 29 0 
N 98 93 0 
N 39 58 0 
O 76 41 0 
6
Atoms. Timestep: 3906
N 29 96 0 
N 63 95 0 
N 14 30 0 
N 97 93 0 
N 39 59 0 
O 75 41 0 
6
Atoms. Timestep: 3907
N 28 96 0 
N 62 95 0 
N 14 31 0 
N 96 93 0 
N 39 58 0 
O 76 41 0 
6
Atoms. Timestep: 3908
N 27 96 0 
N 61 95 0 
N 14 32 0 
N 95 93 0 
N 39 59 0 
O 75 41 0 
6
Atoms. Timestep: 3909
N 26 96 0 
N 60 95 0 
N 14 31 0 
N 94 93 0 
N 39 60 0 
O 74 41 0 
6
Atoms. Timestep: 3910
N 25 96 0 
N 59 95 0 
N 14 32 0 
N 93 93 0 
N 39 59 0 
O 75 41 0 
6
Atoms. Timestep: 3911
N 24 96 0 
N 58 95 0 
N 14 33 0 
N 92 93 0 
N 39 60 0 
O 74 41 0 
6
Atoms. Timestep: 3912
N 23 96 0 
N 57 95 0 
N 14 32 0 
N 91 93 0 
N 39 61 0 
O 75 41 0 
6
Atoms. Timestep: 3913
N 22 96 0 
N 56 95 0 
N 14 33 0 
N 90 93 0 
N 39 60 0 
O 74 41 0 
6
Atoms. Timestep: 3914
N 21 96 0 
N 55 95 0 
N 14 34 0 
N 89 93 0 
N 39 61 0 
O 73 41 0 
6
Atoms. Timestep: 3915
N 22 96 0 
N 56 95 0 
N 14 33 0 
N 89 94 0 
N 39 62 0 
O 74 41 0 
6
Atoms. Timestep: 3916
N 21 96 0 
N 55 95 0 
N 14 34 0 
N 88 94 0 
N 39 61 0 
O 73 41 0 
6
Atoms. Timestep: 3917
N 20 96 0 
N 54 95 0 
N 14 33 0 
N 87 94 0 
N 39 62 0 
O 74 41 0 
6
Atoms. Timestep: 3918
N 19 96 0 
N 53 95 0 
N 14 34 0 
N 86 94 0 
N 39 61 0 
O 73 41 0 
6
Atoms. Timestep: 3919
N 18 96 0 
N 52 95 0 
N 14 33 0 
N 85 94 0 
N 39 60 0 
O 74 41 0 
6
Atoms. Timestep: 3920
N 17 96 0 
N 51 95 0 
N 14 34 0 
N 84 94 0 
N 39 61 0 
O 73 41 0 
6
Atoms. Timestep: 3921
N 16 96 0 
N 50 95 0 
N 14 33 0 
N 83 94 0 
N 39 60 0 
O 74 41 0 
6
Atoms. Timestep: 3922
N 15 96 0 
N 49 95 0 
N 14 32 0 
N 82 94 0 
N 39 59 0 
O 75 41 0 
6
Atoms. Timestep: 3923
N 14 96 0 
N 48 95 0 
N 14 33 0 
N 81 94 0 
N 39 60 0 
O 74 41 0 
6
Atoms. Timestep: 3924
N 13 96 0 
N 47 95 0 
N 14 32 0 
N 80 94 0 
N 39 59 0 
O 75 41 0 
6
Atoms. Timestep: 3925
N 12 96 0 
N 46 95 0 
N 14 33 0 
N 79 94 0 
N 39 58 0 
O 74 41 0 
6
Atoms. Timestep: 3926
N 11 96 0 
N 45 95 0 
N 14 32 0 
N 78 94 0 
N 39 59 0 
O 75 41 0 
6
Atoms. Timestep: 3927
N 10 96 0 
N 44 95 0 
N 14 33 0 
N 77 94 0 
N 39 58 0 
O 74 41 0 
6
Atoms. Timestep: 3928
N 9 96 0 
N 43 95 0 
N 14 32 0 
N 76 94 0 
N 39 59 0 
O 75 41 0 
6
Atoms. Timestep: 3929
N 8 96 0 
N 42 95 0 
N 14 33 0 
N 75 94 0 
N 39 58 0 
O 74 41 0 
6
Atoms. Timestep: 3930
N 7 96 0 
N 41 95 0 
N 13 33 0 
N 74 94 0 
N 40 58 0 
O 75 41 0 
6
Atoms. Timestep: 3931
N 6 96 0 
N 40 95 0 
N 13 34 0 
N 73 94 0 
N 41 58 0 
O 74 41 0 
6
Atoms. Timestep: 3932
N 5 96 0 
N 39 95 0 
N 12 34 0 
N 72 94 0 
N 42 58 0 
O 75 41 0 
6
Atoms. Timestep: 3933
N 4 96 0 
N 38 95 0 
N 11 34 0 
N 71 94 0 
N 42 57 0 
O 74 41 0 
6
Atoms. Timestep: 3934
N 3 96 0 
N 37 95 0 
N 10 34 0 
N 70 94 0 
N 43 57 0 
O 75 41 0 
6
Atoms. Timestep: 3935
N 2 96 0 
N 36 95 0 
N 9 34 0 
N 69 94 0 
N 44 57 0 
O 74 41 0 
6
Atoms. Timestep: 3936
N 1 96 0 
N 35 95 0 
N 8 34 0 
N 68 94 0 
N 45 57 0 
O 75 41 0 
6
Atoms. Timestep: 3937
N 0 96 0 
N 34 95 0 
N 7 34 0 
N 67 94 0 
N 46 57 0 
O 74 41 0 
6
Atoms. Timestep: 3938
N 99 96 0 
N 33 95 0 
N 6 34 0 
N 66 94 0 
N 47 57 0 
O 75 41 0 
6
Atoms. Timestep: 3939
N 98 96 0 
N 32 95 0 
N 5 34 0 
N 65 94 0 
N 48 57 0 
O 74 41 0 
6
Atoms. Timestep: 3940
N 97 96 0 
N 31 95 0 
N 4 34 0 
N 64 94 0 
N 49 57 0 
O 75 41 0 
6
Atoms. Timestep: 3941
N 96 96 0 
N 30 95 0 
N 3 34 0 
N 63 94 0 
N 50 57 0 
O 74 41 0 
6
Atoms. Timestep: 3942
N 95 96 0 
N 29 95 0 
N 2 34 0 
N 62 94 0 
N 51 57 0 
O 73 41 0 
6
Atoms. Timestep: 3943
N 94 96 0 
N 28 95 0 
N 1 34 0 
N 61 94 0 
N 52 57 0 
O 74 41 0 
6
Atoms. Timestep: 3944
N 93 96 0 
N 27 95 0 
N 0 34 0 
N 60 94 0 
N 53 57 0 
O 73 41 0 
6
Atoms. Timestep: 3945
N 92 96 0 
N 26 95 0 
N 99 34 0 
N 59 94 0 
N 54 57 0 
O 74 41 0 
6
Atoms. Timestep: 3946
N 91 96 0 
N 25 95 0 
N 98 34 0 
N 58 94 0 
N 55 57 0 
O 75 41 0 
6
Atoms. Timestep: 3947
N 90 96 0 
N 24 95 0 
N 97 34 0 
N 57 94 0 
N 56 57 0 
O 74 41 0 
6
Atoms. Timestep: 3948
N 89 96 0 
N 23 95 0 
N 96 34 0 
N 56 94 0 
N 57 57 0 
O 73 41 0 
6
Atoms. Timestep: 3949
N 88 96 0 
N 22 95 0 
N 95 34 0 
N 55 94 0 
N 58 57 0 
O 73 40 0 
6
Atoms. Timestep: 3950
N 87 96 0 
N 21 95 0 
N 94 34 0 
N 54 94 0 
N 58 56 0 
O 72 40 0 
6
Atoms. Timestep: 3951
N 86 96 0 
N 21 94 0 
N 93 34 0 
N 53 94 0 
N 58 55 0 
O 72 39 0 
6
Atoms. Timestep: 3952
N 87 96 0 
N 20 94 0 
N 92 34 0 
N 54 94 0 
N 58 54 0 
O 71 39 0 
6
Atoms. Timestep: 3953
N 86 96 0 
N 21 94 0 
N 91 34 0 
N 53 94 0 
N 58 53 0 
O 71 38 0 
6
Atoms. Timestep: 3954
N 87 96 0 
N 20 94 0 
N 90 34 0 
N 54 94 0 
N 58 52 0 
O 70 38 0 
6
Atoms. Timestep: 3955
N 86 96 0 
N 21 94 0 
N 89 34 0 
N 53 94 0 
N 58 51 0 
O 70 37 0 
6
Atoms. Timestep: 3956
N 87 96 0 
N 20 94 0 
N 88 34 0 
N 54 94 0 
N 58 50 0 
O 70 36 0 
6
Atoms. Timestep: 3957
N 86 96 0 
N 21 94 0 
N 87 34 0 
N 53 94 0 
N 58 49 0 
O 69 36 0 
6
Atoms. Timestep: 3958
N 87 96 0 
N 20 94 0 
N 86 34 0 
N 54 94 0 
N 58 48 0 
O 69 35 0 
6
Atoms. Timestep: 3959
N 86 96 0 
N 21 94 0 
N 85 34 0 
N 53 94 0 
N 58 47 0 
O 68 35 0 
6
Atoms. Timestep: 3960
N 87 96 0 
N 20 94 0 
N 84 34 0 
N 54 94 0 
N 58 46 0 
O 68 34 0 
6
Atoms. Timestep: 3961
N 86 96 0 
N 21 94 0 
N 83 34 0 
N 53 94 0 
N 58 45 0 
O 68 33 0 
6
Atoms. Timestep: 3962
N 87 96 0 
N 20 94 0 
N 82 34 0 
N 54 94 0 
N 58 44 0 
O 67 33 0 
6
Atoms. Timestep: 3963
N 86 96 0 
N 21 94 0 
N 81 34 0 
N 53 94 0 
N 58 43 0 
O 67 32 0 
6
Atoms. Timestep: 3964
N 87 96 0 
N 20 94 0 
N 80 34 0 
N 54 94 0 
N 58 42 0 
O 66 32 0 
6
Atoms. Timestep: 3965
N 86 96 0 
N 21 94 0 
N 79 34 0 
N 53 94 0 
N 58 41 0 
O 66 31 0 
6
Atoms. Timestep: 3966
N 87 96 0 
N 20 94 0 
N 78 34 0 
N 54 94 0 
N 58 40 0 
O 65 31 0 
6
Atoms. Timestep: 3967
N 86 96 0 
N 21 94 0 
N 77 34 0 
N 53 94 0 
N 58 39 0 
O 65 30 0 
6
Atoms. Timestep: 3968
N 87 96 0 
N 20 94 0 
N 76 34 0 
N 54 94 0 
N 58 38 0 
O 65 29 0 
6
Atoms. Timestep: 3969
N 86 96 0 
N 21 94 0 
N 75 34 0 
N 53 94 0 
N 58 37 0 
O 65 28 0 
6
Atoms. Timestep: 3970
N 87 96 0 
N 20 94 0 
N 74 34 0 
N 54 94 0 
N 58 36 0 
O 64 28 0 
6
Atoms. Timestep: 3971
N 86 96 0 
N 21 94 0 
N 73 34 0 
N 53 94 0 
N 58 35 0 
O 64 27 0 
6
Atoms. Timestep: 3972
N 87 96 0 
N 20 94 0 
N 72 34 0 
N 54 94 0 
N 58 34 0 
O 64 26 0 
6
Atoms. Timestep: 3973
N 86 96 0 
N 21 94 0 
N 72 33 0 
N 53 94 0 
N 58 33 0 
O 64 25 0 
6
Atoms. Timestep: 3974
N 87 96 0 
N 20 94 0 
N 71 33 0 
N 54 94 0 
N 58 32 0 
O 64 24 0 
6
Atoms. Timestep: 3975
N 88 96 0 
N 21 94 0 
N 71 32 0 
N 54 95 0 
N 58 31 0 
O 64 23 0 
6
Atoms. Timestep: 3976
N 87 96 0 
N 22 94 0 
N 71 31 0 
N 54 96 0 
N 58 30 0 
O 64 22 0 
6
Atoms. Timestep: 3977
N 88 96 0 
N 21 94 0 
N 71 30 0 
N 54 97 0 
N 58 29 0 
O 64 21 0 
6
Atoms. Timestep: 3978
N 87 96 0 
N 22 94 0 
N 71 29 0 
N 54 98 0 
N 58 28 0 
O 64 20 0 
6
Atoms. Timestep: 3979
N 88 96 0 
N 21 94 0 
N 71 28 0 
N 54 99 0 
N 58 27 0 
O 64 19 0 
6
Atoms. Timestep: 3980
N 87 96 0 
N 22 94 0 
N 71 27 0 
N 54 0 0 
N 58 26 0 
O 64 18 0 
6
Atoms. Timestep: 3981
N 86 96 0 
N 21 94 0 
N 71 26 0 
N 54 1 0 
N 58 25 0 
O 64 17 0 
6
Atoms. Timestep: 3982
N 85 96 0 
N 20 94 0 
N 71 25 0 
N 54 2 0 
N 58 24 0 
O 64 16 0 
6
Atoms. Timestep: 3983
N 84 96 0 
N 19 94 0 
N 71 24 0 
N 53 2 0 
N 58 23 0 
O 64 15 0 
6
Atoms. Timestep: 3984
N 83 96 0 
N 20 94 0 
N 71 23 0 
N 53 3 0 
N 58 22 0 
O 64 14 0 
6
Atoms. Timestep: 3985
N 82 96 0 
N 19 94 0 
N 71 22 0 
N 54 3 0 
N 58 21 0 
O 64 13 0 
6
Atoms. Timestep: 3986
N 81 96 0 
N 20 94 0 
N 71 21 0 
N 55 3 0 
N 58 20 0 
O 64 12 0 
6
Atoms. Timestep: 3987
N 80 96 0 
N 19 94 0 
N 71 20 0 
N 56 3 0 
N 58 19 0 
O 64 11 0 
6
Atoms. Timestep: 3988
N 79 96 0 
N 18 94 0 
N 71 19 0 
N 56 4 0 
N 58 18 0 
O 64 10 0 
6
Atoms. Timestep: 3989
N 78 96 0 
N 19 94 0 
N 71 18 0 
N 57 4 0 
N 58 17 0 
O 65 10 0 
6
Atoms. Timestep: 3990
N 78 97 0 
N 18 94 0 
N 71 17 0 
N 58 4 0 
N 58 16 0 
O 65 9 0 
6
Atoms. Timestep: 3991
N 77 97 0 
N 19 94 0 
N 71 16 0 
N 59 4 0 
N 58 15 0 
O 66 9 0 
6
Atoms. Timestep: 3992
N 77 98 0 
N 20 94 0 
N 71 15 0 
N 60 4 0 
N 59 15 0 
O 66 8 0 
6
Atoms. Timestep: 3993
N 76 98 0 
N 19 94 0 
N 71 14 0 
N 61 4 0 
N 59 14 0 
O 67 8 0 
6
Atoms. Timestep: 3994
N 76 99 0 
N 20 94 0 
N 71 13 0 
N 62 4 0 
N 59 15 0 
O 67 7 0 
6
Atoms. Timestep: 3995
N 75 99 0 
N 21 94 0 
N 71 12 0 
N 63 4 0 
N 59 16 0 
O 68 7 0 
6
Atoms. Timestep: 3996
N 75 0 0 
N 20 94 0 
N 71 11 0 
N 64 4 0 
N 58 16 0 
O 68 6 0 
6
Atoms. Timestep: 3997
N 74 0 0 
N 19 94 0 
N 71 10 0 
N 65 4 0 
N 57 16 0 
O 69 6 0 
6
Atoms. Timestep: 3998
N 74 1 0 
N 18 94 0 
N 71 9 0 
N 66 4 0 
N 57 17 0 
O 69 5 0 
6
Atoms. Timestep: 3999
N 73 1 0 
N 19 94 0 
N 71 8 0 
N 67 4 0 
N 56 17 0 
O 70 5 0 
6
Atoms. Timestep: 4000
N 74 1 0 
N 18 94 0 
N 71 7 0 
N 68 4 0 
N 55 17 0 
O 70 4 0 
6
Atoms. Timestep: 4001
N 75 1 0 
N 17 94 0 
N 71 8 0 
N 69 4 0 
N 54 17 0 
O 71 4 0 
6
Atoms. Timestep: 4002
N 76 1 0 
N 18 94 0 
N 71 9 0 
N 70 4 0 
N 53 17 0 
O 72 4 0 
6
Atoms. Timestep: 4003
N 77 1 0 
N 17 94 0 
N 71 10 0 
N 71 4 0 
N 52 17 0 
O 73 4 0 
6
Atoms. Timestep: 4004
N 78 1 0 
N 18 94 0 
N 71 11 0 
N 72 4 0 
N 51 17 0 
O 74 4 0 
6
Atoms. Timestep: 4005
N 79 1 0 
N 17 94 0 
N 71 12 0 
N 73 4 0 
N 50 17 0 
O 75 4 0 
6
Atoms. Timestep: 4006
N 80 1 0 
N 18 94 0 
N 71 13 0 
N 74 4 0 
N 49 17 0 
O 76 4 0 
6
Atoms. Timestep: 4007
N 81 1 0 
N 17 94 0 
N 71 14 0 
N 75 4 0 
N 48 17 0 
O 77 4 0 
6
Atoms. Timestep: 4008
N 82 1 0 
N 18 94 0 
N 71 15 0 
N 76 4 0 
N 47 17 0 
O 78 4 0 
6
Atoms. Timestep: 4009
N 83 1 0 
N 19 94 0 
N 71 16 0 
N 77 4 0 
N 46 17 0 
O 79 4 0 
6
Atoms. Timestep: 4010
N 84 1 0 
N 18 94 0 
N 71 17 0 
N 78 4 0 
N 45 17 0 
O 80 4 0 
6
Atoms. Timestep: 4011
N 85 1 0 
N 19 94 0 
N 71 18 0 
N 79 4 0 
N 44 17 0 
O 81 4 0 
6
Atoms. Timestep: 4012
N 86 1 0 
N 18 94 0 
N 71 19 0 
N 80 4 0 
N 43 17 0 
O 82 4 0 
6
Atoms. Timestep: 4013
N 87 1 0 
N 19 94 0 
N 71 20 0 
N 81 4 0 
N 42 17 0 
O 83 4 0 
6
Atoms. Timestep: 4014
N 88 1 0 
N 19 93 0 
N 71 21 0 
N 82 4 0 
N 41 17 0 
O 84 4 0 
6
Atoms. Timestep: 4015
N 89 1 0 
N 19 92 0 
N 71 22 0 
N 83 4 0 
N 40 17 0 
O 85 4 0 
6
Atoms. Timestep: 4016
N 90 1 0 
N 20 92 0 
N 71 23 0 
N 84 4 0 
N 39 17 0 
O 86 4 0 
6
Atoms. Timestep: 4017
N 91 1 0 
N 21 92 0 
N 71 24 0 
N 85 4 0 
N 39 18 0 
O 87 4 0 
6
Atoms. Timestep: 4018
N 92 1 0 
N 22 92 0 
N 71 25 0 
N 86 4 0 
N 39 19 0 
O 88 4 0 
6
Atoms. Timestep: 4019
N 93 1 0 
N 23 92 0 
N 71 26 0 
N 87 4 0 
N 39 20 0 
O 89 4 0 
6
Atoms. Timestep: 4020
N 94 1 0 
N 24 92 0 
N 71 27 0 
N 88 4 0 
N 39 21 0 
O 90 4 0 
6
Atoms. Timestep: 4021
N 95 1 0 
N 25 92 0 
N 71 28 0 
N 89 4 0 
N 39 22 0 
O 91 4 0 
6
Atoms. Timestep: 4022
N 96 1 0 
N 26 92 0 
N 71 29 0 
N 90 4 0 
N 38 22 0 
O 92 4 0 
6
Atoms. Timestep: 4023
N 97 1 0 
N 27 92 0 
N 71 30 0 
N 91 4 0 
N 38 23 0 
O 93 4 0 
6
Atoms. Timestep: 4024
N 98 1 0 
N 28 92 0 
N 71 31 0 
N 92 4 0 
N 38 24 0 
O 94 4 0 
6
Atoms. Timestep: 4025
N 99 1 0 
N 29 92 0 
N 72 31 0 
N 93 4 0 
N 38 25 0 
O 95 4 0 
6
Atoms. Timestep: 4026
N 0 1 0 
N 30 92 0 
N 72 32 0 
N 94 4 0 
N 38 26 0 
O 96 4 0 
6
Atoms. Timestep: 4027
N 1 1 0 
N 31 92 0 
N 73 32 0 
N 95 4 0 
N 38 27 0 
O 97 4 0 
6
Atoms. Timestep: 4028
N 2 1 0 
N 32 92 0 
N 74 32 0 
N 96 4 0 
N 38 28 0 
O 98 4 0 
6
Atoms. Timestep: 4029
N 3 1 0 
N 33 92 0 
N 74 33 0 
N 97 4 0 
N 38 29 0 
O 99 4 0 
6
Atoms. Timestep: 4030
N 2 1 0 
N 34 92 0 
N 74 34 0 
N 98 4 0 
N 37 29 0 
O 0 4 0 
6
Atoms. Timestep: 4031
N 2 2 0 
N 35 92 0 
N 75 34 0 
N 99 4 0 
N 37 30 0 
O 1 4 0 
6
Atoms. Timestep: 4032
N 3 2 0 
N 36 92 0 
N 76 34 0 
N 0 4 0 
N 37 31 0 
O 2 4 0 
6
Atoms. Timestep: 4033
N 4 2 0 
N 37 92 0 
N 76 35 0 
N 1 4 0 
N 37 32 0 
O 3 4 0 
6
Atoms. Timestep: 4034
N 4 1 0 
N 38 92 0 
N 76 36 0 
N 2 4 0 
N 36 32 0 
O 4 4 0 
6
Atoms. Timestep: 4035
N 4 0 0 
N 39 92 0 
N 77 36 0 
N 3 4 0 
N 36 33 0 
O 5 4 0 
6
Atoms. Timestep: 4036
N 4 99 0 
N 40 92 0 
N 77 37 0 
N 4 4 0 
N 36 34 0 
O 6 4 0 
6
Atoms. Timestep: 4037
N 4 98 0 
N 41 92 0 
N 78 37 0 
N 5 4 0 
N 35 34 0 
O 7 4 0 
6
Atoms. Timestep: 4038
N 4 97 0 
N 40 92 0 
N 78 38 0 
N 6 4 0 
N 35 33 0 
O 8 4 0 
6
Atoms. Timestep: 4039
N 4 96 0 
N 39 92 0 
N 79 38 0 
N 7 4 0 
N 35 32 0 
O 9 4 0 
6
Atoms. Timestep: 4040
N 4 95 0 
N 38 92 0 
N 79 39 0 
N 8 4 0 
N 35 31 0 
O 10 4 0 
6
Atoms. Timestep: 4041
N 4 94 0 
N 37 92 0 
N 80 39 0 
N 9 4 0 
N 35 30 0 
O 11 4 0 
6
Atoms. Timestep: 4042
N 4 93 0 
N 36 92 0 
N 80 40 0 
N 10 4 0 
N 35 29 0 
O 12 4 0 
6
Atoms. Timestep: 4043
N 4 92 0 
N 35 92 0 
N 81 40 0 
N 11 4 0 
N 35 28 0 
O 13 4 0 
6
Atoms. Timestep: 4044
N 4 91 0 
N 36 92 0 
N 81 41 0 
N 12 4 0 
N 35 27 0 
O 14 4 0 
6
Atoms. Timestep: 4045
N 4 90 0 
N 37 92 0 
N 81 42 0 
N 13 4 0 
N 35 26 0 
O 15 4 0 
6
Atoms. Timestep: 4046
N 4 89 0 
N 38 92 0 
N 82 42 0 
N 14 4 0 
N 35 25 0 
O 16 4 0 
6
Atoms. Timestep: 4047
N 4 88 0 
N 39 92 0 
N 82 43 0 
N 15 4 0 
N 35 24 0 
O 17 4 0 
6
Atoms. Timestep: 4048
N 4 87 0 
N 40 92 0 
N 82 42 0 
N 16 4 0 
N 35 23 0 
O 18 4 0 
6
Atoms. Timestep: 4049
N 4 86 0 
N 41 92 0 
N 82 41 0 
N 17 4 0 
N 35 22 0 
O 19 4 0 
6
Atoms. Timestep: 4050
N 4 85 0 
N 42 92 0 
N 82 40 0 
N 18 4 0 
N 35 21 0 
O 20 4 0 
6
Atoms. Timestep: 4051
N 4 84 0 
N 43 92 0 
N 82 39 0 
N 19 4 0 
N 35 20 0 
O 21 4 0 
6
Atoms. Timestep: 4052
N 4 83 0 
N 44 92 0 
N 82 38 0 
N 20 4 0 
N 35 19 0 
O 22 4 0 
6
Atoms. Timestep: 4053
N 4 82 0 
N 45 92 0 
N 82 37 0 
N 21 4 0 
N 35 18 0 
O 23 4 0 
6
Atoms. Timestep: 4054
N 4 81 0 
N 46 92 0 
N 82 36 0 
N 22 4 0 
N 35 17 0 
O 24 4 0 
6
Atoms. Timestep: 4055
N 4 80 0 
N 47 92 0 
N 82 35 0 
N 23 4 0 
N 35 16 0 
O 25 4 0 
6
Atoms. Timestep: 4056
N 4 79 0 
N 48 92 0 
N 82 34 0 
N 24 4 0 
N 35 15 0 
O 26 4 0 
6
Atoms. Timestep: 4057
N 4 78 0 
N 49 92 0 
N 82 33 0 
N 25 4 0 
N 35 14 0 
O 27 4 0 
6
Atoms. Timestep: 4058
N 4 77 0 
N 50 92 0 
N 82 32 0 
N 26 4 0 
N 35 13 0 
O 28 4 0 
6
Atoms. Timestep: 4059
N 4 76 0 
N 51 92 0 
N 82 31 0 
N 27 4 0 
N 35 12 0 
O 29 4 0 
6
Atoms. Timestep: 4060
N 4 75 0 
N 51 91 0 
N 82 32 0 
N 28 4 0 
N 35 11 0 
O 30 4 0 
6
Atoms. Timestep: 4061
N 4 74 0 
N 51 90 0 
N 82 31 0 
N 29 4 0 
N 35 10 0 
O 31 4 0 
6
Atoms. Timestep: 4062
N 4 73 0 
N 51 89 0 
N 82 30 0 
N 30 4 0 
N 35 9 0 
O 32 4 0 
6
Atoms. Timestep: 4063
N 4 72 0 
N 51 88 0 
N 82 29 0 
N 31 4 0 
N 35 8 0 
O 33 4 0 
6
Atoms. Timestep: 4064
N 4 71 0 
N 52 88 0 
N 82 28 0 
N 32 4 0 
N 35 7 0 
O 34 4 0 
6
Atoms. Timestep: 4065
N 4 70 0 
N 53 88 0 
N 82 27 0 
N 33 4 0 
N 35 6 0 
O 35 4 0 
6
Atoms. Timestep: 4066
N 4 69 0 
N 54 88 0 
N 82 26 0 
N 34 4 0 
N 35 7 0 
O 36 4 0 
6
Atoms. Timestep: 4067
N 4 68 0 
N 55 88 0 
N 82 27 0 
N 35 4 0 
N 35 8 0 
O 37 4 0 
6
Atoms. Timestep: 4068
N 4 69 0 
N 56 88 0 
N 82 26 0 
N 36 4 0 
N 35 9 0 
O 38 4 0 
6
Atoms. Timestep: 4069
N 4 70 0 
N 57 88 0 
N 82 27 0 
N 37 4 0 
N 35 10 0 
O 39 4 0 
6
Atoms. Timestep: 4070
N 4 71 0 
N 58 88 0 
N 82 28 0 
N 38 4 0 
N 35 11 0 
O 40 4 0 
6
Atoms. Timestep: 4071
N 4 72 0 
N 59 88 0 
N 82 29 0 
N 39 4 0 
N 35 12 0 
O 41 4 0 
6
Atoms. Timestep: 4072
N 5 72 0 
N 60 88 0 
N 82 30 0 
N 40 4 0 
N 35 13 0 
O 42 4 0 
6
Atoms. Timestep: 4073
N 6 72 0 
N 61 88 0 
N 82 29 0 
N 41 4 0 
N 35 14 0 
O 43 4 0 
6
Atoms. Timestep: 4074
N 7 72 0 
N 62 88 0 
N 82 30 0 
N 42 4 0 
N 35 15 0 
O 44 4 0 
6
Atoms. Timestep: 4075
N 8 72 0 
N 63 88 0 
N 82 31 0 
N 43 4 0 
N 35 16 0 
O 45 4 0 
6
Atoms. Timestep: 4076
N 9 72 0 
N 64 88 0 
N 81 31 0 
N 44 4 0 
N 35 17 0 
O 46 4 0 
6
Atoms. Timestep: 4077
N 10 72 0 
N 65 88 0 
N 80 31 0 
N 45 4 0 
N 35 18 0 
O 47 4 0 
6
Atoms. Timestep: 4078
N 11 72 0 
N 66 88 0 
N 79 31 0 
N 46 4 0 
N 35 19 0 
O 48 4 0 
6
Atoms. Timestep: 4079
N 12 72 0 
N 67 88 0 
N 80 31 0 
N 47 4 0 
N 35 20 0 
O 49 4 0 
6
Atoms. Timestep: 4080
N 13 72 0 
N 68 88 0 
N 81 31 0 
N 48 4 0 
N 35 21 0 
O 50 4 0 
6
Atoms. Timestep: 4081
N 14 72 0 
N 69 88 0 
N 82 31 0 
N 49 4 0 
N 35 22 0 
O 51 4 0 
6
Atoms. Timestep: 4082
N 15 72 0 
N 70 88 0 
N 83 31 0 
N 50 4 0 
N 35 23 0 
O 52 4 0 
6
Atoms. Timestep: 4083
N 16 72 0 
N 71 88 0 
N 84 31 0 
N 51 4 0 
N 35 24 0 
O 53 4 0 
6
Atoms. Timestep: 4084
N 17 72 0 
N 72 88 0 
N 85 31 0 
N 52 4 0 
N 35 25 0 
O 54 4 0 
6
Atoms. Timestep: 4085
N 18 72 0 
N 73 88 0 
N 86 31 0 
N 53 4 0 
N 35 26 0 
O 55 4 0 
6
Atoms. Timestep: 4086
N 19 72 0 
N 74 88 0 
N 87 31 0 
N 54 4 0 
N 35 27 0 
O 56 4 0 
6
Atoms. Timestep: 4087
N 20 72 0 
N 75 88 0 
N 88 31 0 
N 55 4 0 
N 35 28 0 
O 57 4 0 
6
Atoms. Timestep: 4088
N 20 73 0 
N 76 88 0 
N 89 31 0 
N 56 4 0 
N 35 29 0 
O 58 4 0 
6
Atoms. Timestep: 4089
N 21 73 0 
N 77 88 0 
N 90 31 0 
N 57 4 0 
N 35 30 0 
O 59 4 0 
6
Atoms. Timestep: 4090
N 21 74 0 
N 78 88 0 
N 91 31 0 
N 58 4 0 
N 35 31 0 
O 60 4 0 
6
Atoms. Timestep: 4091
N 22 74 0 
N 79 88 0 
N 92 31 0 
N 59 4 0 
N 35 32 0 
O 61 4 0 
6
Atoms. Timestep: 4092
N 22 75 0 
N 80 88 0 
N 93 31 0 
N 60 4 0 
N 35 33 0 
O 62 4 0 
6
Atoms. Timestep: 4093
N 23 75 0 
N 81 88 0 
N 94 31 0 
N 61 4 0 
N 35 34 0 
O 63 4 0 
6
Atoms. Timestep: 4094
N 23 76 0 
N 82 88 0 
N 95 31 0 
N 62 4 0 
N 35 35 0 
O 64 4 0 
6
Atoms. Timestep: 4095
N 24 76 0 
N 83 88 0 
N 96 31 0 
N 63 4 0 
N 36 35 0 
O 65 4 0 
6
Atoms. Timestep: 4096
N 25 76 0 
N 84 88 0 
N 97 31 0 
N 64 4 0 
N 37 35 0 
O 66 4 0 
6
Atoms. Timestep: 4097
N 26 76 0 
N 85 88 0 
N 98 31 0 
N 65 4 0 
N 38 35 0 
O 67 4 0 
6
Atoms. Timestep: 4098
N 27 76 0 
N 86 88 0 
N 99 31 0 
N 66 4 0 
N 39 35 0 
O 68 4 0 
6
Atoms. Timestep: 4099
N 28 76 0 
N 87 88 0 
N 0 31 0 
N 67 4 0 
N 40 35 0 
O 69 4 0 
6
Atoms. Timestep: 4100
N 29 76 0 
N 88 88 0 
N 1 31 0 
N 68 4 0 
N 41 35 0 
O 70 4 0 
6
Atoms. Timestep: 4101
N 30 76 0 
N 89 88 0 
N 2 31 0 
N 69 4 0 
N 42 35 0 
O 71 4 0 
6
Atoms. Timestep: 4102
N 31 76 0 
N 90 88 0 
N 3 31 0 
N 70 4 0 
N 43 35 0 
O 72 4 0 
6
Atoms. Timestep: 4103
N 32 76 0 
N 91 88 0 
N 4 31 0 
N 71 4 0 
N 44 35 0 
O 73 4 0 
6
Atoms. Timestep: 4104
N 33 76 0 
N 92 88 0 
N 5 31 0 
N 72 4 0 
N 45 35 0 
O 74 4 0 
6
Atoms. Timestep: 4105
N 34 76 0 
N 93 88 0 
N 6 31 0 
N 73 4 0 
N 46 35 0 
O 75 4 0 
6
Atoms. Timestep: 4106
N 35 76 0 
N 94 88 0 
N 7 31 0 
N 74 4 0 
N 47 35 0 
O 76 4 0 
6
Atoms. Timestep: 4107
N 36 76 0 
N 95 88 0 
N 8 31 0 
N 75 4 0 
N 48 35 0 
O 77 4 0 
6
Atoms. Timestep: 4108
N 37 76 0 
N 96 88 0 
N 9 31 0 
N 76 4 0 
N 49 35 0 
O 78 4 0 
6
Atoms. Timestep: 4109
N 38 76 0 
N 97 88 0 
N 10 31 0 
N 77 4 0 
N 50 35 0 
O 79 4 0 
6
Atoms. Timestep: 4110
N 39 76 0 
N 98 88 0 
N 11 31 0 
N 78 4 0 
N 51 35 0 
O 80 4 0 
6
Atoms. Timestep: 4111
N 40 76 0 
N 99 88 0 
N 12 31 0 
N 79 4 0 
N 52 35 0 
O 81 4 0 
6
Atoms. Timestep: 4112
N 41 76 0 
N 0 88 0 
N 13 31 0 
N 80 4 0 
N 53 35 0 
O 82 4 0 
6
Atoms. Timestep: 4113
N 42 76 0 
N 1 88 0 
N 14 31 0 
N 81 4 0 
N 54 35 0 
O 83 4 0 
6
Atoms. Timestep: 4114
N 43 76 0 
N 2 88 0 
N 15 31 0 
N 82 4 0 
N 55 35 0 
O 84 4 0 
6
Atoms. Timestep: 4115
N 44 76 0 
N 3 88 0 
N 16 31 0 
N 83 4 0 
N 56 35 0 
O 85 4 0 
6
Atoms. Timestep: 4116
N 45 76 0 
N 4 88 0 
N 17 31 0 
N 84 4 0 
N 57 35 0 
O 86 4 0 
6
Atoms. Timestep: 4117
N 46 76 0 
N 5 88 0 
N 18 31 0 
N 85 4 0 
N 58 35 0 
O 87 4 0 
6
Atoms. Timestep: 4118
N 47 76 0 
N 6 88 0 
N 19 31 0 
N 86 4 0 
N 59 35 0 
O 88 4 0 
6
Atoms. Timestep: 4119
N 48 76 0 
N 7 88 0 
N 20 31 0 
N 87 4 0 
N 60 35 0 
O 89 4 0 
6
Atoms. Timestep: 4120
N 49 76 0 
N 8 88 0 
N 21 31 0 
N 88 4 0 
N 61 35 0 
O 90 4 0 
6
Atoms. Timestep: 4121
N 50 76 0 
N 9 88 0 
N 22 31 0 
N 89 4 0 
N 62 35 0 
O 91 4 0 
6
Atoms. Timestep: 4122
N 51 76 0 
N 10 88 0 
N 23 31 0 
N 90 4 0 
N 63 35 0 
O 92 4 0 
6
Atoms. Timestep: 4123
N 52 76 0 
N 11 88 0 
N 24 31 0 
N 91 4 0 
N 64 35 0 
O 93 4 0 
6
Atoms. Timestep: 4124
N 53 76 0 
N 12 88 0 
N 25 31 0 
N 92 4 0 
N 65 35 0 
O 94 4 0 
6
Atoms. Timestep: 4125
N 54 76 0 
N 13 88 0 
N 26 31 0 
N 93 4 0 
N 66 35 0 
O 95 4 0 
6
Atoms. Timestep: 4126
N 55 76 0 
N 14 88 0 
N 27 31 0 
N 94 4 0 
N 67 35 0 
O 96 4 0 
6
Atoms. Timestep: 4127
N 56 76 0 
N 15 88 0 
N 27 30 0 
N 95 4 0 
N 68 35 0 
O 97 4 0 
6
Atoms. Timestep: 4128
N 57 76 0 
N 16 88 0 
N 26 30 0 
N 96 4 0 
N 69 35 0 
O 98 4 0 
6
Atoms. Timestep: 4129
N 58 76 0 
N 17 88 0 
N 27 30 0 
N 97 4 0 
N 69 36 0 
O 99 4 0 
6
Atoms. Timestep: 4130
N 59 76 0 
N 18 88 0 
N 28 30 0 
N 98 4 0 
N 69 35 0 
O 0 4 0 
6
Atoms. Timestep: 4131
N 60 76 0 
N 19 88 0 
N 29 30 0 
N 99 4 0 
N 70 35 0 
O 1 4 0 
6
Atoms. Timestep: 4132
N 61 76 0 
N 20 88 0 
N 30 30 0 
N 0 4 0 
N 71 35 0 
O 2 4 0 
6
Atoms. Timestep: 4133
N 62 76 0 
N 21 88 0 
N 31 30 0 
N 1 4 0 
N 72 35 0 
O 3 4 0 
6
Atoms. Timestep: 4134
N 63 76 0 
N 22 88 0 
N 32 30 0 
N 2 4 0 
N 73 35 0 
O 4 4 0 
6
Atoms. Timestep: 4135
N 64 76 0 
N 23 88 0 
N 33 30 0 
N 3 4 0 
N 74 35 0 
O 5 4 0 
6
Atoms. Timestep: 4136
N 65 76 0 
N 24 88 0 
N 34 30 0 
N 4 4 0 
N 75 35 0 
O 6 4 0 
6
Atoms. Timestep: 4137
N 66 76 0 
N 25 88 0 
N 35 30 0 
N 5 4 0 
N 76 35 0 
O 7 4 0 
6
Atoms. Timestep: 4138
N 67 76 0 
N 26 88 0 
N 36 30 0 
N 6 4 0 
N 77 35 0 
O 8 4 0 
6
Atoms. Timestep: 4139
N 68 76 0 
N 27 88 0 
N 37 30 0 
N 7 4 0 
N 78 35 0 
O 9 4 0 
6
Atoms. Timestep: 4140
N 69 76 0 
N 28 88 0 
N 38 30 0 
N 8 4 0 
N 79 35 0 
O 10 4 0 
6
Atoms. Timestep: 4141
N 70 76 0 
N 29 88 0 
N 39 30 0 
N 9 4 0 
N 80 35 0 
O 11 4 0 
6
Atoms. Timestep: 4142
N 71 76 0 
N 30 88 0 
N 40 30 0 
N 10 4 0 
N 81 35 0 
O 12 4 0 
6
Atoms. Timestep: 4143
N 72 76 0 
N 31 88 0 
N 41 30 0 
N 11 4 0 
N 82 35 0 
O 13 4 0 
6
Atoms. Timestep: 4144
N 73 76 0 
N 32 88 0 
N 42 30 0 
N 12 4 0 
N 83 35 0 
O 14 4 0 
6
Atoms. Timestep: 4145
N 74 76 0 
N 33 88 0 
N 43 30 0 
N 13 4 0 
N 84 35 0 
O 15 4 0 
6
Atoms. Timestep: 4146
N 75 76 0 
N 34 88 0 
N 44 30 0 
N 14 4 0 
N 85 35 0 
O 16 4 0 
6
Atoms. Timestep: 4147
N 76 76 0 
N 35 88 0 
N 45 30 0 
N 15 4 0 
N 86 35 0 
O 17 4 0 
6
Atoms. Timestep: 4148
N 77 76 0 
N 36 88 0 
N 46 30 0 
N 16 4 0 
N 87 35 0 
O 18 4 0 
6
Atoms. Timestep: 4149
N 78 76 0 
N 37 88 0 
N 47 30 0 
N 17 4 0 
N 88 35 0 
O 19 4 0 
6
Atoms. Timestep: 4150
N 79 76 0 
N 38 88 0 
N 48 30 0 
N 18 4 0 
N 89 35 0 
O 20 4 0 
6
Atoms. Timestep: 4151
N 80 76 0 
N 39 88 0 
N 49 30 0 
N 19 4 0 
N 90 35 0 
O 21 4 0 
6
Atoms. Timestep: 4152
N 81 76 0 
N 40 88 0 
N 50 30 0 
N 20 4 0 
N 91 35 0 
O 22 4 0 
6
Atoms. Timestep: 4153
N 82 76 0 
N 41 88 0 
N 51 30 0 
N 21 4 0 
N 92 35 0 
O 23 4 0 
6
Atoms. Timestep: 4154
N 83 76 0 
N 42 88 0 
N 52 30 0 
N 22 4 0 
N 93 35 0 
O 24 4 0 
6
Atoms. Timestep: 4155
N 84 76 0 
N 43 88 0 
N 53 30 0 
N 23 4 0 
N 94 35 0 
O 25 4 0 
6
Atoms. Timestep: 4156
N 85 76 0 
N 44 88 0 
N 54 30 0 
N 24 4 0 
N 95 35 0 
O 26 4 0 
6
Atoms. Timestep: 4157
N 86 76 0 
N 45 88 0 
N 55 30 0 
N 25 4 0 
N 96 35 0 
O 27 4 0 
6
Atoms. Timestep: 4158
N 87 76 0 
N 46 88 0 
N 56 30 0 
N 26 4 0 
N 97 35 0 
O 28 4 0 
6
Atoms. Timestep: 4159
N 88 76 0 
N 47 88 0 
N 57 30 0 
N 27 4 0 
N 98 35 0 
O 29 4 0 
6
Atoms. Timestep: 4160
N 89 76 0 
N 48 88 0 
N 58 30 0 
N 28 4 0 
N 99 35 0 
O 30 4 0 
6
Atoms. Timestep: 4161
N 90 76 0 
N 49 88 0 
N 59 30 0 
N 29 4 0 
N 0 35 0 
O 31 4 0 
6
Atoms. Timestep: 4162
N 91 76 0 
N 50 88 0 
N 60 30 0 
N 30 4 0 
N 1 35 0 
O 32 4 0 
6
Atoms. Timestep: 4163
N 92 76 0 
N 51 88 0 
N 61 30 0 
N 31 4 0 
N 2 35 0 
O 33 4 0 
6
Atoms. Timestep: 4164
N 93 76 0 
N 52 88 0 
N 62 30 0 
N 32 4 0 
N 3 35 0 
O 34 4 0 
6
Atoms. Timestep: 4165
N 94 76 0 
N 53 88 0 
N 63 30 0 
N 33 4 0 
N 4 35 0 
O 35 4 0 
6
Atoms. Timestep: 4166
N 95 76 0 
N 54 88 0 
N 64 30 0 
N 34 4 0 
N 5 35 0 
O 36 4 0 
6
Atoms. Timestep: 4167
N 96 76 0 
N 55 88 0 
N 65 30 0 
N 35 4 0 
N 6 35 0 
O 37 4 0 
6
Atoms. Timestep: 4168
N 97 76 0 
N 56 88 0 
N 66 30 0 
N 36 4 0 
N 7 35 0 
O 38 4 0 
6
Atoms. Timestep: 4169
N 98 76 0 
N 57 88 0 
N 67 30 0 
N 37 4 0 
N 8 35 0 
O 39 4 0 
6
Atoms. Timestep: 4170
N 99 76 0 
N 58 88 0 
N 68 30 0 
N 38 4 0 
N 9 35 0 
O 40 4 0 
6
Atoms. Timestep: 4171
N 0 76 0 
N 59 88 0 
N 69 30 0 
N 39 4 0 
N 10 35 0 
O 41 4 0 
6
Atoms. Timestep: 4172
N 1 76 0 
N 60 88 0 
N 70 30 0 
N 40 4 0 
N 11 35 0 
O 42 4 0 
6
Atoms. Timestep: 4173
N 2 76 0 
N 61 88 0 
N 71 30 0 
N 41 4 0 
N 12 35 0 
O 43 4 0 
6
Atoms. Timestep: 4174
N 3 76 0 
N 62 88 0 
N 72 30 0 
N 42 4 0 
N 13 35 0 
O 44 4 0 
6
Atoms. Timestep: 4175
N 4 76 0 
N 63 88 0 
N 73 30 0 
N 43 4 0 
N 14 35 0 
O 45 4 0 
6
Atoms. Timestep: 4176
N 5 76 0 
N 64 88 0 
N 74 30 0 
N 44 4 0 
N 15 35 0 
O 46 4 0 
6
Atoms. Timestep: 4177
N 6 76 0 
N 65 88 0 
N 75 30 0 
N 45 4 0 
N 16 35 0 
O 47 4 0 
6
Atoms. Timestep: 4178
N 7 76 0 
N 66 88 0 
N 76 30 0 
N 46 4 0 
N 17 35 0 
O 48 4 0 
6
Atoms. Timestep: 4179
N 8 76 0 
N 67 88 0 
N 77 30 0 
N 47 4 0 
N 18 35 0 
O 49 4 0 
6
Atoms. Timestep: 4180
N 9 76 0 
N 68 88 0 
N 78 30 0 
N 48 4 0 
N 19 35 0 
O 50 4 0 
6
Atoms. Timestep: 4181
N 10 76 0 
N 69 88 0 
N 79 30 0 
N 49 4 0 
N 20 35 0 
O 51 4 0 
6
Atoms. Timestep: 4182
N 11 76 0 
N 70 88 0 
N 80 30 0 
N 50 4 0 
N 21 35 0 
O 52 4 0 
6
Atoms. Timestep: 4183
N 12 76 0 
N 71 88 0 
N 81 30 0 
N 51 4 0 
N 22 35 0 
O 53 4 0 
6
Atoms. Timestep: 4184
N 13 76 0 
N 72 88 0 
N 82 30 0 
N 52 4 0 
N 23 35 0 
O 54 4 0 
6
Atoms. Timestep: 4185
N 14 76 0 
N 73 88 0 
N 83 30 0 
N 53 4 0 
N 24 35 0 
O 55 4 0 
6
Atoms. Timestep: 4186
N 15 76 0 
N 74 88 0 
N 84 30 0 
N 54 4 0 
N 25 35 0 
O 56 4 0 
6
Atoms. Timestep: 4187
N 16 76 0 
N 75 88 0 
N 85 30 0 
N 55 4 0 
N 26 35 0 
O 57 4 0 
6
Atoms. Timestep: 4188
N 17 76 0 
N 76 88 0 
N 86 30 0 
N 56 4 0 
N 27 35 0 
O 58 4 0 
6
Atoms. Timestep: 4189
N 18 76 0 
N 77 88 0 
N 87 30 0 
N 57 4 0 
N 28 35 0 
O 59 4 0 
6
Atoms. Timestep: 4190
N 19 76 0 
N 78 88 0 
N 88 30 0 
N 58 4 0 
N 29 35 0 
O 60 4 0 
6
Atoms. Timestep: 4191
N 20 76 0 
N 79 88 0 
N 89 30 0 
N 59 4 0 
N 30 35 0 
O 61 4 0 
6
Atoms. Timestep: 4192
N 21 76 0 
N 80 88 0 
N 90 30 0 
N 60 4 0 
N 31 35 0 
O 62 4 0 
6
Atoms. Timestep: 4193
N 22 76 0 
N 81 88 0 
N 91 30 0 
N 61 4 0 
N 32 35 0 
O 63 4 0 
6
Atoms. Timestep: 4194
N 23 76 0 
N 82 88 0 
N 92 30 0 
N 62 4 0 
N 33 35 0 
O 64 4 0 
6
Atoms. Timestep: 4195
N 24 76 0 
N 83 88 0 
N 93 30 0 
N 63 4 0 
N 34 35 0 
O 65 4 0 
6
Atoms. Timestep: 4196
N 25 76 0 
N 84 88 0 
N 94 30 0 
N 64 4 0 
N 35 35 0 
O 66 4 0 
6
Atoms. Timestep: 4197
N 26 76 0 
N 85 88 0 
N 95 30 0 
N 65 4 0 
N 36 35 0 
O 67 4 0 
6
Atoms. Timestep: 4198
N 27 76 0 
N 86 88 0 
N 96 30 0 
N 66 4 0 
N 37 35 0 
O 68 4 0 
6
Atoms. Timestep: 4199
N 28 76 0 
N 87 88 0 
N 97 30 0 
N 67 4 0 
N 38 35 0 
O 69 4 0 
6
Atoms. Timestep: 4200
N 29 76 0 
N 88 88 0 
N 98 30 0 
N 68 4 0 
N 39 35 0 
O 70 4 0 
6
Atoms. Timestep: 4201
N 30 76 0 
N 89 88 0 
N 99 30 0 
N 69 4 0 
N 40 35 0 
O 71 4 0 
6
Atoms. Timestep: 4202
N 31 76 0 
N 90 88 0 
N 0 30 0 
N 70 4 0 
N 41 35 0 
O 72 4 0 
6
Atoms. Timestep: 4203
N 32 76 0 
N 91 88 0 
N 1 30 0 
N 71 4 0 
N 42 35 0 
O 73 4 0 
6
Atoms. Timestep: 4204
N 33 76 0 
N 92 88 0 
N 2 30 0 
N 72 4 0 
N 43 35 0 
O 74 4 0 
6
Atoms. Timestep: 4205
N 34 76 0 
N 93 88 0 
N 3 30 0 
N 73 4 0 
N 44 35 0 
O 75 4 0 
6
Atoms. Timestep: 4206
N 35 76 0 
N 94 88 0 
N 4 30 0 
N 74 4 0 
N 45 35 0 
O 76 4 0 
6
Atoms. Timestep: 4207
N 36 76 0 
N 95 88 0 
N 5 30 0 
N 75 4 0 
N 46 35 0 
O 77 4 0 
6
Atoms. Timestep: 4208
N 37 76 0 
N 96 88 0 
N 6 30 0 
N 76 4 0 
N 47 35 0 
O 78 4 0 
6
Atoms. Timestep: 4209
N 38 76 0 
N 97 88 0 
N 7 30 0 
N 77 4 0 
N 48 35 0 
O 79 4 0 
6
Atoms. Timestep: 4210
N 39 76 0 
N 98 88 0 
N 8 30 0 
N 78 4 0 
N 49 35 0 
O 80 4 0 
6
Atoms. Timestep: 4211
N 40 76 0 
N 99 88 0 
N 9 30 0 
N 79 4 0 
N 50 35 0 
O 81 4 0 
6
Atoms. Timestep: 4212
N 41 76 0 
N 0 88 0 
N 10 30 0 
N 80 4 0 
N 51 35 0 
O 82 4 0 
6
Atoms. Timestep: 4213
N 42 76 0 
N 1 88 0 
N 11 30 0 
N 81 4 0 
N 52 35 0 
O 83 4 0 
6
Atoms. Timestep: 4214
N 43 76 0 
N 2 88 0 
N 12 30 0 
N 82 4 0 
N 52 36 0 
O 84 4 0 
6
Atoms. Timestep: 4215
N 43 77 0 
N 1 88 0 
N 11 30 0 
N 82 3 0 
N 53 36 0 
O 85 4 0 
6
Atoms. Timestep: 4216
N 44 77 0 
N 1 89 0 
N 11 29 0 
N 83 3 0 
N 53 35 0 
O 86 4 0 
6
Atoms. Timestep: 4217
N 44 78 0 
N 1 90 0 
N 10 29 0 
N 84 3 0 
N 53 34 0 
O 87 4 0 
6
Atoms. Timestep: 4218
N 45 78 0 
N 1 91 0 
N 10 28 0 
N 85 3 0 
N 54 34 0 
O 88 4 0 
6
Atoms. Timestep: 4219
N 45 79 0 
N 0 91 0 
N 10 27 0 
N 86 3 0 
N 54 35 0 
O 89 4 0 
6
Atoms. Timestep: 4220
N 46 79 0 
N 1 91 0 
N 10 26 0 
N 87 3 0 
N 54 34 0 
O 90 4 0 
6
Atoms. Timestep: 4221
N 47 79 0 
N 2 91 0 
N 10 25 0 
N 88 3 0 
N 55 34 0 
O 91 4 0 
6
Atoms. Timestep: 4222
N 48 79 0 
N 3 91 0 
N 10 24 0 
N 89 3 0 
N 55 33 0 
O 92 4 0 
6
Atoms. Timestep: 4223
N 49 79 0 
N 4 91 0 
N 10 23 0 
N 90 3 0 
N 56 33 0 
O 93 4 0 
6
Atoms. Timestep: 4224
N 50 79 0 
N 5 91 0 
N 10 22 0 
N 91 3 0 
N 55 33 0 
O 94 4 0 
6
Atoms. Timestep: 4225
N 51 79 0 
N 6 91 0 
N 10 21 0 
N 92 3 0 
N 55 32 0 
O 95 4 0 
6
Atoms. Timestep: 4226
N 52 79 0 
N 7 91 0 
N 10 20 0 
N 93 3 0 
N 56 32 0 
O 96 4 0 
6
Atoms. Timestep: 4227
N 53 79 0 
N 8 91 0 
N 10 19 0 
N 94 3 0 
N 56 31 0 
O 97 4 0 
6
Atoms. Timestep: 4228
N 54 79 0 
N 9 91 0 
N 10 18 0 
N 95 3 0 
N 57 31 0 
O 98 4 0 
6
Atoms. Timestep: 4229
N 55 79 0 
N 10 91 0 
N 10 17 0 
N 96 3 0 
N 56 31 0 
O 99 4 0 
6
Atoms. Timestep: 4230
N 56 79 0 
N 11 91 0 
N 10 16 0 
N 97 3 0 
N 56 30 0 
O 0 4 0 
6
Atoms. Timestep: 4231
N 57 79 0 
N 12 91 0 
N 10 15 0 
N 98 3 0 
N 57 30 0 
O 1 4 0 
6
Atoms. Timestep: 4232
N 58 79 0 
N 13 91 0 
N 10 14 0 
N 99 3 0 
N 57 29 0 
O 2 4 0 
6
Atoms. Timestep: 4233
N 59 79 0 
N 14 91 0 
N 10 13 0 
N 0 3 0 
N 58 29 0 
O 3 4 0 
6
Atoms. Timestep: 4234
N 60 79 0 
N 15 91 0 
N 10 12 0 
N 1 3 0 
N 57 29 0 
O 4 4 0 
6
Atoms. Timestep: 4235
N 61 79 0 
N 16 91 0 
N 10 11 0 
N 2 3 0 
N 58 29 0 
O 5 4 0 
6
Atoms. Timestep: 4236
N 62 79 0 
N 17 91 0 
N 10 10 0 
N 3 3 0 
N 57 29 0 
O 6 4 0 
6
Atoms. Timestep: 4237
N 63 79 0 
N 17 92 0 
N 10 9 0 
N 3 4 0 
N 56 29 0 
O 7 4 0 
6
Atoms. Timestep: 4238
N 64 79 0 
N 17 93 0 
N 10 8 0 
N 4 4 0 
N 55 29 0 
O 8 4 0 
6
Atoms. Timestep: 4239
N 63 79 0 
N 17 94 0 
N 10 7 0 
N 5 4 0 
N 56 29 0 
O 8 3 0 
6
Atoms. Timestep: 4240
N 64 79 0 
N 17 95 0 
N 10 6 0 
N 6 4 0 
N 55 29 0 
O 9 3 0 
6
Atoms. Timestep: 4241
N 65 79 0 
N 17 96 0 
N 11 6 0 
N 7 4 0 
N 54 29 0 
O 10 3 0 
6
Atoms. Timestep: 4242
N 64 79 0 
N 17 97 0 
N 12 6 0 
N 8 4 0 
N 55 29 0 
O 11 3 0 
6
Atoms. Timestep: 4243
N 65 79 0 
N 17 98 0 
N 13 6 0 
N 9 4 0 
N 56 29 0 
O 12 3 0 
6
Atoms. Timestep: 4244
N 66 79 0 
N 16 98 0 
N 14 6 0 
N 10 4 0 
N 57 29 0 
O 13 3 0 
6
Atoms. Timestep: 4245
N 67 79 0 
N 16 99 0 
N 15 6 0 
N 11 4 0 
N 58 29 0 
O 14 3 0 
6
Atoms. Timestep: 4246
N 68 79 0 
N 16 0 0 
N 16 6 0 
N 12 4 0 
N 59 29 0 
O 15 3 0 
6
Atoms. Timestep: 4247
N 69 79 0 
N 16 1 0 
N 17 6 0 
N 13 4 0 
N 60 29 0 
O 15 4 0 
6
Atoms. Timestep: 4248
N 70 79 0 
N 16 0 0 
N 17 5 0 
N 14 4 0 
N 61 29 0 
O 16 4 0 
6
Atoms. Timestep: 4249
N 69 79 0 
N 16 99 0 
N 16 5 0 
N 15 4 0 
N 60 29 0 
O 16 3 0 
6
Atoms. Timestep: 4250
N 68 79 0 
N 16 98 0 
N 16 6 0 
N 15 3 0 
N 59 29 0 
O 17 3 0 
6
Atoms. Timestep: 4251
N 69 79 0 
N 16 97 0 
N 16 7 0 
N 16 3 0 
N 60 29 0 
O 18 3 0 
6
Atoms. Timestep: 4252
N 68 79 0 
N 16 96 0 
N 16 8 0 
N 17 3 0 
N 61 29 0 
O 19 3 0 
6
Atoms. Timestep: 4253
N 67 79 0 
N 16 95 0 
N 16 9 0 
N 18 3 0 
N 62 29 0 
O 20 3 0 
6
Atoms. Timestep: 4254
N 68 79 0 
N 16 94 0 
N 16 10 0 
N 19 3 0 
N 61 29 0 
O 21 3 0 
6
Atoms. Timestep: 4255
N 67 79 0 
N 16 93 0 
N 16 11 0 
N 20 3 0 
N 60 29 0 
O 22 3 0 
6
Atoms. Timestep: 4256
N 66 79 0 
N 16 92 0 
N 16 12 0 
N 21 3 0 
N 59 29 0 
O 23 3 0 
6
Atoms. Timestep: 4257
N 65 79 0 
N 16 91 0 
N 16 13 0 
N 22 3 0 
N 58 29 0 
O 24 3 0 
6
Atoms. Timestep: 4258
N 64 79 0 
N 16 90 0 
N 16 14 0 
N 23 3 0 
N 57 29 0 
O 25 3 0 
6
Atoms. Timestep: 4259
N 63 79 0 
N 16 89 0 
N 16 15 0 
N 24 3 0 
N 56 29 0 
O 26 3 0 
6
Atoms. Timestep: 4260
N 64 79 0 
N 16 88 0 
N 16 16 0 
N 25 3 0 
N 55 29 0 
O 27 3 0 
6
Atoms. Timestep: 4261
N 65 79 0 
N 16 87 0 
N 16 17 0 
N 26 3 0 
N 54 29 0 
O 28 3 0 
6
Atoms. Timestep: 4262
N 66 79 0 
N 16 86 0 
N 16 18 0 
N 27 3 0 
N 53 29 0 
O 29 3 0 
6
Atoms. Timestep: 4263
N 67 79 0 
N 16 85 0 
N 16 19 0 
N 28 3 0 
N 53 28 0 
O 30 3 0 
6
Atoms. Timestep: 4264
N 67 80 0 
N 16 84 0 
N 16 20 0 
N 29 3 0 
N 53 27 0 
O 31 3 0 
6
Atoms. Timestep: 4265
N 66 80 0 
N 16 83 0 
N 16 21 0 
N 30 3 0 
N 53 26 0 
O 32 3 0 
6
Atoms. Timestep: 4266
N 67 80 0 
N 16 82 0 
N 16 22 0 
N 31 3 0 
N 53 25 0 
O 33 3 0 
6
Atoms. Timestep: 4267
N 68 80 0 
N 16 81 0 
N 16 23 0 
N 32 3 0 
N 53 24 0 
O 34 3 0 
6
Atoms. Timestep: 4268
N 69 80 0 
N 16 80 0 
N 16 24 0 
N 33 3 0 
N 53 23 0 
O 35 3 0 
6
Atoms. Timestep: 4269
N 70 80 0 
N 16 79 0 
N 16 25 0 
N 34 3 0 
N 53 22 0 
O 36 3 0 
6
Atoms. Timestep: 4270
N 71 80 0 
N 16 78 0 
N 16 26 0 
N 35 3 0 
N 53 21 0 
O 37 3 0 
6
Atoms. Timestep: 4271
N 72 80 0 
N 16 77 0 
N 16 27 0 
N 36 3 0 
N 53 20 0 
O 38 3 0 
6
Atoms. Timestep: 4272
N 73 80 0 
N 16 76 0 
N 16 28 0 
N 37 3 0 
N 53 19 0 
O 39 3 0 
6
Atoms. Timestep: 4273
N 74 80 0 
N 16 75 0 
N 16 29 0 
N 38 3 0 
N 53 18 0 
O 40 3 0 
6
Atoms. Timestep: 4274
N 75 80 0 
N 16 74 0 
N 16 30 0 
N 39 3 0 
N 53 17 0 
O 41 3 0 
6
Atoms. Timestep: 4275
N 74 80 0 
N 16 73 0 
N 16 31 0 
N 40 3 0 
N 53 16 0 
O 42 3 0 
6
Atoms. Timestep: 4276
N 73 80 0 
N 16 72 0 
N 16 32 0 
N 41 3 0 
N 53 15 0 
O 43 3 0 
6
Atoms. Timestep: 4277
N 72 80 0 
N 16 73 0 
N 16 33 0 
N 42 3 0 
N 53 14 0 
O 44 3 0 
6
Atoms. Timestep: 4278
N 71 80 0 
N 16 72 0 
N 16 32 0 
N 43 3 0 
N 53 13 0 
O 45 3 0 
6
Atoms. Timestep: 4279
N 70 80 0 
N 16 73 0 
N 16 31 0 
N 44 3 0 
N 53 12 0 
O 46 3 0 
6
Atoms. Timestep: 4280
N 71 80 0 
N 16 72 0 
N 15 31 0 
N 45 3 0 
N 53 11 0 
O 47 3 0 
6
Atoms. Timestep: 4281
N 72 80 0 
N 16 73 0 
N 15 30 0 
N 46 3 0 
N 53 10 0 
O 48 3 0 
6
Atoms. Timestep: 4282
N 73 80 0 
N 16 74 0 
N 14 30 0 
N 47 3 0 
N 53 9 0 
O 49 3 0 
6
Atoms. Timestep: 4283
N 74 80 0 
N 17 74 0 
N 13 30 0 
N 48 3 0 
N 53 8 0 
O 50 3 0 
6
Atoms. Timestep: 4284
N 75 80 0 
N 18 74 0 
N 13 29 0 
N 49 3 0 
N 53 7 0 
O 51 3 0 
6
Atoms. Timestep: 4285
N 76 80 0 
N 19 74 0 
N 13 28 0 
N 50 3 0 
N 53 6 0 
O 52 3 0 
6
Atoms. Timestep: 4286
N 77 80 0 
N 20 74 0 
N 12 28 0 
N 51 3 0 
N 53 5 0 
O 53 3 0 
6
Atoms. Timestep: 4287
N 78 80 0 
N 21 74 0 
N 12 27 0 
N 52 3 0 
N 54 5 0 
O 54 3 0 
6
Atoms. Timestep: 4288
N 79 80 0 
N 22 74 0 
N 11 27 0 
N 53 3 0 
N 54 6 0 
O 55 3 0 
6
Atoms. Timestep: 4289
N 80 80 0 
N 23 74 0 
N 10 27 0 
N 54 3 0 
N 54 7 0 
O 56 3 0 
6
Atoms. Timestep: 4290
N 81 80 0 
N 24 74 0 
N 9 27 0 
N 55 3 0 
N 54 8 0 
O 57 3 0 
6
Atoms. Timestep: 4291
N 82 80 0 
N 25 74 0 
N 8 27 0 
N 56 3 0 
N 54 9 0 
O 58 3 0 
6
Atoms. Timestep: 4292
N 83 80 0 
N 26 74 0 
N 8 26 0 
N 57 3 0 
N 54 10 0 
O 59 3 0 
6
Atoms. Timestep: 4293
N 82 80 0 
N 25 74 0 
N 7 26 0 
N 57 2 0 
N 54 11 0 
O 60 3 0 
6
Atoms. Timestep: 4294
N 82 81 0 
N 26 74 0 
N 6 26 0 
N 58 2 0 
N 54 12 0 
O 61 3 0 
6
Atoms. Timestep: 4295
N 82 82 0 
N 25 74 0 
N 5 26 0 
N 59 2 0 
N 54 13 0 
O 62 3 0 
6
Atoms. Timestep: 4296
N 83 82 0 
N 26 74 0 
N 4 26 0 
N 60 2 0 
N 54 14 0 
O 63 3 0 
6
Atoms. Timestep: 4297
N 84 82 0 
N 27 74 0 
N 3 26 0 
N 61 2 0 
N 54 15 0 
O 64 3 0 
6
Atoms. Timestep: 4298
N 85 82 0 
N 28 74 0 
N 2 26 0 
N 62 2 0 
N 54 16 0 
O 65 3 0 
6
Atoms. Timestep: 4299
N 86 82 0 
N 29 74 0 
N 1 26 0 
N 63 2 0 
N 54 17 0 
O 66 3 0 
6
Atoms. Timestep: 4300
N 87 82 0 
N 30 74 0 
N 0 26 0 
N 64 2 0 
N 54 18 0 
O 67 3 0 
6
Atoms. Timestep: 4301
N 88 82 0 
N 31 74 0 
N 99 26 0 
N 65 2 0 
N 54 19 0 
O 68 3 0 
6
Atoms. Timestep: 4302
N 89 82 0 
N 32 74 0 
N 98 26 0 
N 66 2 0 
N 54 20 0 
O 69 3 0 
6
Atoms. Timestep: 4303
N 90 82 0 
N 33 74 0 
N 97 26 0 
N 67 2 0 
N 54 21 0 
O 70 3 0 
6
Atoms. Timestep: 4304
N 91 82 0 
N 34 74 0 
N 96 26 0 
N 68 2 0 
N 54 22 0 
O 71 3 0 
6
Atoms. Timestep: 4305
N 92 82 0 
N 34 73 0 
N 95 26 0 
N 69 2 0 
N 54 23 0 
O 72 3 0 
6
Atoms. Timestep: 4306
N 93 82 0 
N 35 73 0 
N 95 25 0 
N 70 2 0 
N 54 24 0 
O 73 3 0 
6
Atoms. Timestep: 4307
N 94 82 0 
N 36 73 0 
N 95 24 0 
N 71 2 0 
N 54 25 0 
O 74 3 0 
6
Atoms. Timestep: 4308
N 95 82 0 
N 37 73 0 
N 95 23 0 
N 72 2 0 
N 54 26 0 
O 75 3 0 
6
Atoms. Timestep: 4309
N 96 82 0 
N 38 73 0 
N 94 23 0 
N 73 2 0 
N 54 27 0 
O 76 3 0 
6
Atoms. Timestep: 4310
N 97 82 0 
N 39 73 0 
N 94 22 0 
N 74 2 0 
N 54 28 0 
O 77 3 0 
6
Atoms. Timestep: 4311
N 98 82 0 
N 40 73 0 
N 94 21 0 
N 75 2 0 
N 54 29 0 
O 78 3 0 
6
Atoms. Timestep: 4312
N 99 82 0 
N 41 73 0 
N 94 20 0 
N 76 2 0 
N 54 30 0 
O 79 3 0 
6
Atoms. Timestep: 4313
N 0 82 0 
N 42 73 0 
N 94 19 0 
N 77 2 0 
N 54 31 0 
O 80 3 0 
6
Atoms. Timestep: 4314
N 1 82 0 
N 43 73 0 
N 94 18 0 
N 78 2 0 
N 54 32 0 
O 81 3 0 
6
Atoms. Timestep: 4315
N 2 82 0 
N 43 74 0 
N 94 17 0 
N 79 2 0 
N 54 33 0 
O 82 3 0 
6
Atoms. Timestep: 4316
N 3 82 0 
N 44 74 0 
N 94 16 0 
N 80 2 0 
N 54 34 0 
O 83 3 0 
6
Atoms. Timestep: 4317
N 4 82 0 
N 45 74 0 
N 94 15 0 
N 81 2 0 
N 54 33 0 
O 84 3 0 
6
Atoms. Timestep: 4318
N 5 82 0 
N 46 74 0 
N 94 14 0 
N 82 2 0 
N 54 32 0 
O 85 3 0 
6
Atoms. Timestep: 4319
N 6 82 0 
N 47 74 0 
N 94 13 0 
N 83 2 0 
N 54 33 0 
O 86 3 0 
6
Atoms. Timestep: 4320
N 7 82 0 
N 48 74 0 
N 94 14 0 
N 84 2 0 
N 54 32 0 
O 87 3 0 
6
Atoms. Timestep: 4321
N 8 82 0 
N 49 74 0 
N 94 13 0 
N 85 2 0 
N 54 31 0 
O 88 3 0 
6
Atoms. Timestep: 4322
N 9 82 0 
N 50 74 0 
N 94 12 0 
N 86 2 0 
N 53 31 0 
O 89 3 0 
6
Atoms. Timestep: 4323
N 10 82 0 
N 51 74 0 
N 94 11 0 
N 87 2 0 
N 53 30 0 
O 90 3 0 
6
Atoms. Timestep: 4324
N 11 82 0 
N 52 74 0 
N 94 10 0 
N 88 2 0 
N 53 29 0 
O 91 3 0 
6
Atoms. Timestep: 4325
N 12 82 0 
N 53 74 0 
N 94 9 0 
N 89 2 0 
N 52 29 0 
O 92 3 0 
6
Atoms. Timestep: 4326
N 13 82 0 
N 54 74 0 
N 94 8 0 
N 90 2 0 
N 52 28 0 
O 93 3 0 
6
Atoms. Timestep: 4327
N 14 82 0 
N 55 74 0 
N 94 7 0 
N 91 2 0 
N 52 27 0 
O 94 3 0 
6
Atoms. Timestep: 4328
N 15 82 0 
N 56 74 0 
N 94 6 0 
N 92 2 0 
N 51 27 0 
O 95 3 0 
6
Atoms. Timestep: 4329
N 16 82 0 
N 57 74 0 
N 94 5 0 
N 93 2 0 
N 51 26 0 
O 95 2 0 
6
Atoms. Timestep: 4330
N 17 82 0 
N 58 74 0 
N 94 6 0 
N 94 2 0 
N 50 26 0 
O 96 2 0 
6
Atoms. Timestep: 4331
N 18 82 0 
N 59 74 0 
N 94 7 0 
N 95 2 0 
N 50 25 0 
O 97 2 0 
6
Atoms. Timestep: 4332
N 19 82 0 
N 60 74 0 
N 94 8 0 
N 96 2 0 
N 49 25 0 
O 98 2 0 
6
Atoms. Timestep: 4333
N 20 82 0 
N 61 74 0 
N 94 9 0 
N 97 2 0 
N 48 25 0 
O 99 2 0 
6
Atoms. Timestep: 4334
N 21 82 0 
N 62 74 0 
N 94 10 0 
N 98 2 0 
N 47 25 0 
O 0 2 0 
6
Atoms. Timestep: 4335
N 22 82 0 
N 63 74 0 
N 94 11 0 
N 99 2 0 
N 46 25 0 
O 1 2 0 
6
Atoms. Timestep: 4336
N 23 82 0 
N 64 74 0 
N 94 12 0 
N 0 2 0 
N 46 26 0 
O 2 2 0 
6
Atoms. Timestep: 4337
N 24 82 0 
N 65 74 0 
N 94 13 0 
N 1 2 0 
N 46 27 0 
O 3 2 0 
6
Atoms. Timestep: 4338
N 25 82 0 
N 66 74 0 
N 94 14 0 
N 2 2 0 
N 45 27 0 
O 4 2 0 
6
Atoms. Timestep: 4339
N 26 82 0 
N 67 74 0 
N 94 15 0 
N 3 2 0 
N 44 27 0 
O 5 2 0 
6
Atoms. Timestep: 4340
N 27 82 0 
N 68 74 0 
N 94 16 0 
N 4 2 0 
N 43 27 0 
O 6 2 0 
6
Atoms. Timestep: 4341
N 28 82 0 
N 69 74 0 
N 94 17 0 
N 5 2 0 
N 42 27 0 
O 7 2 0 
6
Atoms. Timestep: 4342
N 29 82 0 
N 70 74 0 
N 94 18 0 
N 6 2 0 
N 41 27 0 
O 8 2 0 
6
Atoms. Timestep: 4343
N 30 82 0 
N 71 74 0 
N 94 19 0 
N 7 2 0 
N 40 27 0 
O 9 2 0 
6
Atoms. Timestep: 4344
N 31 82 0 
N 72 74 0 
N 94 20 0 
N 8 2 0 
N 39 27 0 
O 10 2 0 
6
Atoms. Timestep: 4345
N 32 82 0 
N 73 74 0 
N 94 21 0 
N 9 2 0 
N 38 27 0 
O 11 2 0 
6
Atoms. Timestep: 4346
N 33 82 0 
N 74 74 0 
N 94 22 0 
N 10 2 0 
N 37 27 0 
O 12 2 0 
6
Atoms. Timestep: 4347
N 34 82 0 
N 75 74 0 
N 94 23 0 
N 11 2 0 
N 37 26 0 
O 13 2 0 
6
Atoms. Timestep: 4348
N 35 82 0 
N 76 74 0 
N 94 24 0 
N 12 2 0 
N 37 25 0 
O 14 2 0 
6
Atoms. Timestep: 4349
N 36 82 0 
N 77 74 0 
N 94 25 0 
N 13 2 0 
N 36 25 0 
O 15 2 0 
6
Atoms. Timestep: 4350
N 37 82 0 
N 78 74 0 
N 94 26 0 
N 14 2 0 
N 36 24 0 
O 16 2 0 
6
Atoms. Timestep: 4351
N 38 82 0 
N 79 74 0 
N 94 27 0 
N 15 2 0 
N 36 23 0 
O 17 2 0 
6
Atoms. Timestep: 4352
N 39 82 0 
N 80 74 0 
N 94 28 0 
N 16 2 0 
N 36 22 0 
O 18 2 0 
6
Atoms. Timestep: 4353
N 40 82 0 
N 81 74 0 
N 94 29 0 
N 17 2 0 
N 36 21 0 
O 19 2 0 
6
Atoms. Timestep: 4354
N 41 82 0 
N 82 74 0 
N 94 30 0 
N 18 2 0 
N 36 20 0 
O 20 2 0 
6
Atoms. Timestep: 4355
N 42 82 0 
N 83 74 0 
N 94 31 0 
N 19 2 0 
N 36 19 0 
O 21 2 0 
6
Atoms. Timestep: 4356
N 43 82 0 
N 84 74 0 
N 94 32 0 
N 20 2 0 
N 36 18 0 
O 22 2 0 
6
Atoms. Timestep: 4357
N 44 82 0 
N 85 74 0 
N 94 33 0 
N 21 2 0 
N 36 17 0 
O 23 2 0 
6
Atoms. Timestep: 4358
N 45 82 0 
N 86 74 0 
N 94 32 0 
N 22 2 0 
N 36 16 0 
O 24 2 0 
6
Atoms. Timestep: 4359
N 46 82 0 
N 87 74 0 
N 94 33 0 
N 23 2 0 
N 36 15 0 
O 25 2 0 
6
Atoms. Timestep: 4360
N 47 82 0 
N 88 74 0 
N 94 32 0 
N 24 2 0 
N 36 14 0 
O 26 2 0 
6
Atoms. Timestep: 4361
N 48 82 0 
N 89 74 0 
N 94 31 0 
N 25 2 0 
N 36 13 0 
O 27 2 0 
6
Atoms. Timestep: 4362
N 49 82 0 
N 90 74 0 
N 94 30 0 
N 26 2 0 
N 36 12 0 
O 28 2 0 
6
Atoms. Timestep: 4363
N 50 82 0 
N 91 74 0 
N 93 30 0 
N 27 2 0 
N 36 11 0 
O 29 2 0 
6
Atoms. Timestep: 4364
N 51 82 0 
N 92 74 0 
N 93 29 0 
N 28 2 0 
N 36 10 0 
O 30 2 0 
6
Atoms. Timestep: 4365
N 52 82 0 
N 93 74 0 
N 93 28 0 
N 29 2 0 
N 36 9 0 
O 31 2 0 
6
Atoms. Timestep: 4366
N 53 82 0 
N 94 74 0 
N 92 28 0 
N 30 2 0 
N 36 8 0 
O 32 2 0 
6
Atoms. Timestep: 4367
N 54 82 0 
N 95 74 0 
N 92 27 0 
N 31 2 0 
N 36 7 0 
O 33 2 0 
6
Atoms. Timestep: 4368
N 55 82 0 
N 96 74 0 
N 92 26 0 
N 32 2 0 
N 36 6 0 
O 34 2 0 
6
Atoms. Timestep: 4369
N 56 82 0 
N 97 74 0 
N 91 26 0 
N 33 2 0 
N 36 5 0 
O 35 2 0 
6
Atoms. Timestep: 4370
N 57 82 0 
N 98 74 0 
N 91 25 0 
N 34 2 0 
N 36 4 0 
O 36 2 0 
6
Atoms. Timestep: 4371
N 58 82 0 
N 99 74 0 
N 91 24 0 
N 35 2 0 
N 37 4 0 
O 37 2 0 
6
Atoms. Timestep: 4372
N 59 82 0 
N 0 74 0 
N 90 24 0 
N 36 2 0 
N 37 5 0 
O 38 2 0 
6
Atoms. Timestep: 4373
N 60 82 0 
N 1 74 0 
N 89 24 0 
N 37 2 0 
N 37 6 0 
O 39 2 0 
6
Atoms. Timestep: 4374
N 61 82 0 
N 2 74 0 
N 88 24 0 
N 38 2 0 
N 37 7 0 
O 40 2 0 
6
Atoms. Timestep: 4375
N 62 82 0 
N 3 74 0 
N 88 25 0 
N 39 2 0 
N 37 8 0 
O 41 2 0 
6
Atoms. Timestep: 4376
N 63 82 0 
N 4 74 0 
N 88 26 0 
N 40 2 0 
N 37 9 0 
O 42 2 0 
6
Atoms. Timestep: 4377
N 64 82 0 
N 5 74 0 
N 88 27 0 
N 41 2 0 
N 37 10 0 
O 43 2 0 
6
Atoms. Timestep: 4378
N 65 82 0 
N 6 74 0 
N 88 26 0 
N 42 2 0 
N 37 11 0 
O 44 2 0 
6
Atoms. Timestep: 4379
N 66 82 0 
N 7 74 0 
N 88 27 0 
N 43 2 0 
N 37 12 0 
O 45 2 0 
6
Atoms. Timestep: 4380
N 67 82 0 
N 8 74 0 
N 87 27 0 
N 44 2 0 
N 37 13 0 
O 46 2 0 
6
Atoms. Timestep: 4381
N 68 82 0 
N 9 74 0 
N 88 27 0 
N 45 2 0 
N 37 14 0 
O 47 2 0 
6
Atoms. Timestep: 4382
N 69 82 0 
N 10 74 0 
N 89 27 0 
N 46 2 0 
N 37 15 0 
O 48 2 0 
6
Atoms. Timestep: 4383
N 70 82 0 
N 11 74 0 
N 90 27 0 
N 47 2 0 
N 37 16 0 
O 49 2 0 
6
Atoms. Timestep: 4384
N 71 82 0 
N 12 74 0 
N 91 27 0 
N 48 2 0 
N 37 17 0 
O 50 2 0 
6
Atoms. Timestep: 4385
N 72 82 0 
N 13 74 0 
N 90 27 0 
N 49 2 0 
N 37 18 0 
O 51 2 0 
6
Atoms. Timestep: 4386
N 73 82 0 
N 14 74 0 
N 89 27 0 
N 50 2 0 
N 37 19 0 
O 52 2 0 
6
Atoms. Timestep: 4387
N 74 82 0 
N 15 74 0 
N 88 27 0 
N 51 2 0 
N 37 20 0 
O 53 2 0 
6
Atoms. Timestep: 4388
N 75 82 0 
N 16 74 0 
N 89 27 0 
N 52 2 0 
N 37 21 0 
O 54 2 0 
6
Atoms. Timestep: 4389
N 76 82 0 
N 17 74 0 
N 90 27 0 
N 53 2 0 
N 37 22 0 
O 55 2 0 
6
Atoms. Timestep: 4390
N 77 82 0 
N 18 74 0 
N 91 27 0 
N 54 2 0 
N 37 23 0 
O 56 2 0 
6
Atoms. Timestep: 4391
N 78 82 0 
N 19 74 0 
N 92 27 0 
N 55 2 0 
N 37 24 0 
O 57 2 0 
6
Atoms. Timestep: 4392
N 79 82 0 
N 20 74 0 
N 93 27 0 
N 56 2 0 
N 37 25 0 
O 58 2 0 
6
Atoms. Timestep: 4393
N 80 82 0 
N 21 74 0 
N 94 27 0 
N 57 2 0 
N 37 26 0 
O 59 2 0 
6
Atoms. Timestep: 4394
N 81 82 0 
N 22 74 0 
N 95 27 0 
N 58 2 0 
N 37 27 0 
O 60 2 0 
6
Atoms. Timestep: 4395
N 82 82 0 
N 23 74 0 
N 94 27 0 
N 59 2 0 
N 37 28 0 
O 61 2 0 
6
Atoms. Timestep: 4396
N 83 82 0 
N 24 74 0 
N 93 27 0 
N 60 2 0 
N 37 29 0 
O 62 2 0 
6
Atoms. Timestep: 4397
N 84 82 0 
N 25 74 0 
N 92 27 0 
N 61 2 0 
N 37 30 0 
O 63 2 0 
6
Atoms. Timestep: 4398
N 85 82 0 
N 26 74 0 
N 91 27 0 
N 62 2 0 
N 37 31 0 
O 64 2 0 
6
Atoms. Timestep: 4399
N 86 82 0 
N 27 74 0 
N 90 27 0 
N 63 2 0 
N 37 32 0 
O 65 2 0 
6
Atoms. Timestep: 4400
N 86 81 0 
N 28 74 0 
N 89 27 0 
N 64 2 0 
N 37 33 0 
O 66 2 0 
6
Atoms. Timestep: 4401
N 86 80 0 
N 29 74 0 
N 89 26 0 
N 65 2 0 
N 37 32 0 
O 67 2 0 
6
Atoms. Timestep: 4402
N 86 79 0 
N 29 75 0 
N 89 25 0 
N 66 2 0 
N 37 33 0 
O 68 2 0 
6
Atoms. Timestep: 4403
N 86 78 0 
N 30 75 0 
N 89 26 0 
N 67 2 0 
N 37 32 0 
O 69 2 0 
6
Atoms. Timestep: 4404
N 86 79 0 
N 30 76 0 
N 89 27 0 
N 68 2 0 
N 37 33 0 
O 70 2 0 
6
Atoms. Timestep: 4405
N 86 78 0 
N 31 76 0 
N 89 26 0 
N 69 2 0 
N 37 32 0 
O 71 2 0 
6
Atoms. Timestep: 4406
N 86 77 0 
N 31 77 0 
N 89 27 0 
N 70 2 0 
N 36 32 0 
O 72 2 0 
6
Atoms. Timestep: 4407
N 86 78 0 
N 32 77 0 
N 89 28 0 
N 71 2 0 
N 36 31 0 
O 73 2 0 
6
Atoms. Timestep: 4408
N 86 77 0 
N 33 77 0 
N 89 27 0 
N 72 2 0 
N 35 31 0 
O 74 2 0 
6
Atoms. Timestep: 4409
N 86 78 0 
N 34 77 0 
N 89 28 0 
N 73 2 0 
N 35 30 0 
O 75 2 0 
6
Atoms. Timestep: 4410
N 86 79 0 
N 33 77 0 
N 89 27 0 
N 74 2 0 
N 36 30 0 
O 76 2 0 
6
Atoms. Timestep: 4411
N 86 78 0 
N 34 77 0 
N 89 28 0 
N 75 2 0 
N 36 29 0 
O 77 2 0 
6
Atoms. Timestep: 4412
N 86 79 0 
N 35 77 0 
N 89 27 0 
N 76 2 0 
N 37 29 0 
O 78 2 0 
6
Atoms. Timestep: 4413
N 86 78 0 
N 34 77 0 
N 89 28 0 
N 77 2 0 
N 36 29 0 
O 79 2 0 
6
Atoms. Timestep: 4414
N 86 77 0 
N 35 77 0 
N 89 27 0 
N 78 2 0 
N 37 29 0 
O 80 2 0 
6
Atoms. Timestep: 4415
N 86 76 0 
N 36 77 0 
N 89 28 0 
N 79 2 0 
N 37 28 0 
O 81 2 0 
6
Atoms. Timestep: 4416
N 86 75 0 
N 36 78 0 
N 89 29 0 
N 80 2 0 
N 38 28 0 
O 82 2 0 
6
Atoms. Timestep: 4417
N 86 74 0 
N 36 79 0 
N 89 28 0 
N 81 2 0 
N 39 28 0 
O 83 2 0 
6
Atoms. Timestep: 4418
N 86 73 0 
N 36 80 0 
N 89 29 0 
N 82 2 0 
N 39 29 0 
O 84 2 0 
6
Atoms. Timestep: 4419
N 86 72 0 
N 36 81 0 
N 89 30 0 
N 83 2 0 
N 39 30 0 
O 85 2 0 
6
Atoms. Timestep: 4420
N 86 71 0 
N 36 82 0 
N 89 31 0 
N 84 2 0 
N 39 31 0 
O 86 2 0 
6
Atoms. Timestep: 4421
N 86 70 0 
N 35 82 0 
N 89 32 0 
N 85 2 0 
N 39 32 0 
O 87 2 0 
6
Atoms. Timestep: 4422
N 86 69 0 
N 36 82 0 
N 89 33 0 
N 86 2 0 
N 40 32 0 
O 88 2 0 
6
Atoms. Timestep: 4423
N 86 68 0 
N 35 82 0 
N 89 34 0 
N 87 2 0 
N 39 32 0 
O 89 2 0 
6
Atoms. Timestep: 4424
N 86 69 0 
N 36 82 0 
N 89 35 0 
N 88 2 0 
N 40 32 0 
O 90 2 0 
6
Atoms. Timestep: 4425
N 86 70 0 
N 35 82 0 
N 89 36 0 
N 89 2 0 
N 39 32 0 
O 91 2 0 
6
Atoms. Timestep: 4426
N 86 69 0 
N 34 82 0 
N 89 35 0 
N 90 2 0 
N 40 32 0 
O 92 2 0 
6
Atoms. Timestep: 4427
N 86 70 0 
N 33 82 0 
N 89 36 0 
N 91 2 0 
N 39 32 0 
O 93 2 0 
6
Atoms. Timestep: 4428
N 86 69 0 
N 32 82 0 
N 89 35 0 
N 92 2 0 
N 40 32 0 
O 94 2 0 
6
Atoms. Timestep: 4429
N 86 70 0 
N 31 82 0 
N 89 36 0 
N 93 2 0 
N 39 32 0 
O 95 2 0 
6
Atoms. Timestep: 4430
N 86 69 0 
N 30 82 0 
N 89 35 0 
N 94 2 0 
N 40 32 0 
O 96 2 0 
6
Atoms. Timestep: 4431
N 86 70 0 
N 29 82 0 
N 89 36 0 
N 95 2 0 
N 39 32 0 
O 97 2 0 
6
Atoms. Timestep: 4432
N 86 69 0 
N 28 82 0 
N 89 35 0 
N 96 2 0 
N 40 32 0 
O 98 2 0 
6
Atoms. Timestep: 4433
N 86 70 0 
N 29 82 0 
N 89 36 0 
N 97 2 0 
N 39 32 0 
O 99 2 0 
6
Atoms. Timestep: 4434
N 86 69 0 
N 30 82 0 
N 89 35 0 
N 98 2 0 
N 40 32 0 
O 0 2 0 
6
Atoms. Timestep: 4435
N 86 70 0 
N 31 82 0 
N 89 34 0 
N 99 2 0 
N 39 32 0 
O 1 2 0 
6
Atoms. Timestep: 4436
N 86 69 0 
N 32 82 0 
N 89 35 0 
N 0 2 0 
N 38 32 0 
O 2 2 0 
6
Atoms. Timestep: 4437
N 86 70 0 
N 33 82 0 
N 89 34 0 
N 1 2 0 
N 37 32 0 
O 3 2 0 
6
Atoms. Timestep: 4438
N 86 71 0 
N 34 82 0 
N 89 35 0 
N 2 2 0 
N 36 32 0 
O 4 2 0 
6
Atoms. Timestep: 4439
N 86 72 0 
N 35 82 0 
N 89 36 0 
N 3 2 0 
N 35 32 0 
O 5 2 0 
6
Atoms. Timestep: 4440
N 86 71 0 
N 36 82 0 
N 89 35 0 
N 4 2 0 
N 34 32 0 
O 6 2 0 
6
Atoms. Timestep: 4441
N 86 70 0 
N 37 82 0 
N 89 34 0 
N 5 2 0 
N 34 31 0 
O 7 2 0 
6
Atoms. Timestep: 4442
N 86 71 0 
N 38 82 0 
N 89 33 0 
N 6 2 0 
N 34 30 0 
O 8 2 0 
6
Atoms. Timestep: 4443
N 86 72 0 
N 39 82 0 
N 89 34 0 
N 7 2 0 
N 34 29 0 
O 9 2 0 
6
Atoms. Timestep: 4444
N 86 73 0 
N 40 82 0 
N 89 35 0 
N 8 2 0 
N 34 28 0 
O 10 2 0 
6
Atoms. Timestep: 4445
N 86 72 0 
N 41 82 0 
N 89 34 0 
N 9 2 0 
N 34 27 0 
O 11 2 0 
6
Atoms. Timestep: 4446
N 86 71 0 
N 42 82 0 
N 89 33 0 
N 10 2 0 
N 34 26 0 
O 12 2 0 
6
Atoms. Timestep: 4447
N 86 72 0 
N 43 82 0 
N 89 32 0 
N 11 2 0 
N 34 25 0 
O 13 2 0 
6
Atoms. Timestep: 4448
N 86 73 0 
N 44 82 0 
N 89 33 0 
N 12 2 0 
N 34 24 0 
O 14 2 0 
6
Atoms. Timestep: 4449
N 86 74 0 
N 45 82 0 
N 89 34 0 
N 13 2 0 
N 34 23 0 
O 15 2 0 
6
Atoms. Timestep: 4450
N 85 74 0 
N 46 82 0 
N 89 33 0 
N 14 2 0 
N 34 22 0 
O 16 2 0 
6
Atoms. Timestep: 4451
N 86 74 0 
N 47 82 0 
N 89 34 0 
N 15 2 0 
N 34 21 0 
O 17 2 0 
6
Atoms. Timestep: 4452
N 87 74 0 
N 48 82 0 
N 89 33 0 
N 16 2 0 
N 34 20 0 
O 18 2 0 
6
Atoms. Timestep: 4453
N 88 74 0 
N 49 82 0 
N 89 32 0 
N 17 2 0 
N 34 19 0 
O 19 2 0 
6
Atoms. Timestep: 4454
N 89 74 0 
N 50 82 0 
N 89 33 0 
N 18 2 0 
N 34 18 0 
O 20 2 0 
6
Atoms. Timestep: 4455
N 90 74 0 
N 51 82 0 
N 89 32 0 
N 19 2 0 
N 34 17 0 
O 21 2 0 
6
Atoms. Timestep: 4456
N 91 74 0 
N 52 82 0 
N 89 31 0 
N 20 2 0 
N 34 16 0 
O 22 2 0 
6
Atoms. Timestep: 4457
N 92 74 0 
N 53 82 0 
N 89 30 0 
N 21 2 0 
N 34 15 0 
O 23 2 0 
6
Atoms. Timestep: 4458
N 93 74 0 
N 54 82 0 
N 88 30 0 
N 22 2 0 
N 34 14 0 
O 24 2 0 
6
Atoms. Timestep: 4459
N 94 74 0 
N 55 82 0 
N 88 29 0 
N 23 2 0 
N 34 13 0 
O 25 2 0 
6
Atoms. Timestep: 4460
N 95 74 0 
N 56 82 0 
N 88 28 0 
N 24 2 0 
N 34 12 0 
O 26 2 0 
6
Atoms. Timestep: 4461
N 96 74 0 
N 57 82 0 
N 87 28 0 
N 25 2 0 
N 34 11 0 
O 27 2 0 
6
Atoms. Timestep: 4462
N 97 74 0 
N 58 82 0 
N 87 27 0 
N 26 2 0 
N 34 10 0 
O 28 2 0 
6
Atoms. Timestep: 4463
N 98 74 0 
N 59 82 0 
N 86 27 0 
N 27 2 0 
N 34 9 0 
O 29 2 0 
6
Atoms. Timestep: 4464
N 99 74 0 
N 60 82 0 
N 86 26 0 
N 28 2 0 
N 34 8 0 
O 30 2 0 
6
Atoms. Timestep: 4465
N 0 74 0 
N 61 82 0 
N 86 25 0 
N 29 2 0 
N 34 7 0 
O 31 2 0 
6
Atoms. Timestep: 4466
N 0 73 0 
N 62 82 0 
N 86 26 0 
N 30 2 0 
N 34 6 0 
O 32 2 0 
6
Atoms. Timestep: 4467
N 1 73 0 
N 63 82 0 
N 86 25 0 
N 31 2 0 
N 34 5 0 
O 33 2 0 
6
Atoms. Timestep: 4468
N 2 73 0 
N 64 82 0 
N 86 26 0 
N 32 2 0 
N 34 4 0 
O 34 2 0 
6
Atoms. Timestep: 4469
N 3 73 0 
N 65 82 0 
N 86 25 0 
N 33 2 0 
N 35 4 0 
O 35 2 0 
6
Atoms. Timestep: 4470
N 4 73 0 
N 66 82 0 
N 86 26 0 
N 34 2 0 
N 36 4 0 
O 36 2 0 
6
Atoms. Timestep: 4471
N 5 73 0 
N 67 82 0 
N 86 27 0 
N 35 2 0 
N 36 5 0 
O 37 2 0 
6
Atoms. Timestep: 4472
N 6 73 0 
N 68 82 0 
N 86 28 0 
N 36 2 0 
N 36 6 0 
O 38 2 0 
6
Atoms. Timestep: 4473
N 7 73 0 
N 69 82 0 
N 86 27 0 
N 37 2 0 
N 36 7 0 
O 39 2 0 
6
Atoms. Timestep: 4474
N 8 73 0 
N 70 82 0 
N 86 28 0 
N 38 2 0 
N 36 8 0 
O 40 2 0 
6
Atoms. Timestep: 4475
N 9 73 0 
N 71 82 0 
N 86 29 0 
N 39 2 0 
N 36 9 0 
O 41 2 0 
6
Atoms. Timestep: 4476
N 10 73 0 
N 72 82 0 
N 86 28 0 
N 40 2 0 
N 36 10 0 
O 42 2 0 
6
Atoms. Timestep: 4477
N 11 73 0 
N 73 82 0 
N 86 29 0 
N 41 2 0 
N 36 11 0 
O 43 2 0 
6
Atoms. Timestep: 4478
N 12 73 0 
N 74 82 0 
N 86 30 0 
N 42 2 0 
N 36 12 0 
O 44 2 0 
6
Atoms. Timestep: 4479
N 13 73 0 
N 75 82 0 
N 86 31 0 
N 43 2 0 
N 36 13 0 
O 45 2 0 
6
Atoms. Timestep: 4480
N 14 73 0 
N 76 82 0 
N 86 30 0 
N 44 2 0 
N 36 14 0 
O 46 2 0 
6
Atoms. Timestep: 4481
N 15 73 0 
N 77 82 0 
N 85 30 0 
N 45 2 0 
N 36 15 0 
O 47 2 0 
6
Atoms. Timestep: 4482
N 16 73 0 
N 78 82 0 
N 84 30 0 
N 46 2 0 
N 36 16 0 
O 48 2 0 
6
Atoms. Timestep: 4483
N 17 73 0 
N 79 82 0 
N 83 30 0 
N 47 2 0 
N 36 17 0 
O 49 2 0 
6
Atoms. Timestep: 4484
N 18 73 0 
N 80 82 0 
N 84 30 0 
N 48 2 0 
N 36 18 0 
O 50 2 0 
6
Atoms. Timestep: 4485
N 19 73 0 
N 81 82 0 
N 85 30 0 
N 49 2 0 
N 36 19 0 
O 51 2 0 
6
Atoms. Timestep: 4486
N 20 73 0 
N 82 82 0 
N 86 30 0 
N 50 2 0 
N 36 20 0 
O 52 2 0 
6
Atoms. Timestep: 4487
N 21 73 0 
N 83 82 0 
N 87 30 0 
N 51 2 0 
N 36 21 0 
O 53 2 0 
6
Atoms. Timestep: 4488
N 22 73 0 
N 84 82 0 
N 88 30 0 
N 52 2 0 
N 36 22 0 
O 54 2 0 
6
Atoms. Timestep: 4489
N 23 73 0 
N 85 82 0 
N 89 30 0 
N 53 2 0 
N 36 23 0 
O 55 2 0 
6
Atoms. Timestep: 4490
N 24 73 0 
N 86 82 0 
N 90 30 0 
N 54 2 0 
N 36 24 0 
O 56 2 0 
6
Atoms. Timestep: 4491
N 25 73 0 
N 87 82 0 
N 91 30 0 
N 55 2 0 
N 36 25 0 
O 57 2 0 
6
Atoms. Timestep: 4492
N 26 73 0 
N 88 82 0 
N 92 30 0 
N 56 2 0 
N 36 26 0 
O 58 2 0 
6
Atoms. Timestep: 4493
N 27 73 0 
N 89 82 0 
N 93 30 0 
N 57 2 0 
N 36 27 0 
O 59 2 0 
6
Atoms. Timestep: 4494
N 28 73 0 
N 90 82 0 
N 92 30 0 
N 58 2 0 
N 36 28 0 
O 60 2 0 
6
Atoms. Timestep: 4495
N 29 73 0 
N 91 82 0 
N 91 30 0 
N 59 2 0 
N 36 29 0 
O 61 2 0 
6
Atoms. Timestep: 4496
N 30 73 0 
N 92 82 0 
N 92 30 0 
N 60 2 0 
N 36 30 0 
O 62 2 0 
6
Atoms. Timestep: 4497
N 31 73 0 
N 93 82 0 
N 93 30 0 
N 61 2 0 
N 36 31 0 
O 63 2 0 
6
Atoms. Timestep: 4498
N 32 73 0 
N 94 82 0 
N 94 30 0 
N 62 2 0 
N 36 32 0 
O 64 2 0 
6
Atoms. Timestep: 4499
N 33 73 0 
N 95 82 0 
N 95 30 0 
N 63 2 0 
N 36 33 0 
O 65 2 0 
6
Atoms. Timestep: 4500
N 34 73 0 
N 96 82 0 
N 96 30 0 
N 64 2 0 
N 36 32 0 
O 66 2 0 
6
Atoms. Timestep: 4501
N 35 73 0 
N 97 82 0 
N 97 30 0 
N 65 2 0 
N 37 32 0 
O 67 2 0 
6
Atoms. Timestep: 4502
N 36 73 0 
N 98 82 0 
N 98 30 0 
N 66 2 0 
N 38 32 0 
O 68 2 0 
6
Atoms. Timestep: 4503
N 37 73 0 
N 99 82 0 
N 99 30 0 
N 67 2 0 
N 39 32 0 
O 69 2 0 
6
Atoms. Timestep: 4504
N 38 73 0 
N 99 81 0 
N 0 30 0 
N 68 2 0 
N 40 32 0 
O 70 2 0 
6
Atoms. Timestep: 4505
N 39 73 0 
N 98 81 0 
N 1 30 0 
N 69 2 0 
N 41 32 0 
O 71 2 0 
6
Atoms. Timestep: 4506
N 39 74 0 
N 97 81 0 
N 2 30 0 
N 70 2 0 
N 42 32 0 
O 72 2 0 
6
Atoms. Timestep: 4507
N 38 74 0 
N 96 81 0 
N 3 30 0 
N 71 2 0 
N 43 32 0 
O 73 2 0 
6
Atoms. Timestep: 4508
N 39 74 0 
N 97 81 0 
N 4 30 0 
N 72 2 0 
N 44 32 0 
O 74 2 0 
6
Atoms. Timestep: 4509
N 40 74 0 
N 98 81 0 
N 5 30 0 
N 73 2 0 
N 45 32 0 
O 75 2 0 
6
Atoms. Timestep: 4510
N 41 74 0 
N 99 81 0 
N 6 30 0 
N 74 2 0 
N 46 32 0 
O 76 2 0 
6
Atoms. Timestep: 4511
N 42 74 0 
N 0 81 0 
N 7 30 0 
N 75 2 0 
N 47 32 0 
O 77 2 0 
6
Atoms. Timestep: 4512
N 43 74 0 
N 1 81 0 
N 8 30 0 
N 76 2 0 
N 48 32 0 
O 78 2 0 
6
Atoms. Timestep: 4513
N 44 74 0 
N 2 81 0 
N 9 30 0 
N 77 2 0 
N 49 32 0 
O 79 2 0 
6
Atoms. Timestep: 4514
N 45 74 0 
N 3 81 0 
N 10 30 0 
N 78 2 0 
N 50 32 0 
O 80 2 0 
6
Atoms. Timestep: 4515
N 46 74 0 
N 4 81 0 
N 11 30 0 
N 79 2 0 
N 51 32 0 
O 81 2 0 
6
Atoms. Timestep: 4516
N 47 74 0 
N 5 81 0 
N 12 30 0 
N 80 2 0 
N 52 32 0 
O 82 2 0 
6
Atoms. Timestep: 4517
N 48 74 0 
N 6 81 0 
N 13 30 0 
N 81 2 0 
N 53 32 0 
O 83 2 0 
6
Atoms. Timestep: 4518
N 49 74 0 
N 7 81 0 
N 14 30 0 
N 82 2 0 
N 54 32 0 
O 84 2 0 
6
Atoms. Timestep: 4519
N 50 74 0 
N 8 81 0 
N 15 30 0 
N 83 2 0 
N 55 32 0 
O 85 2 0 
6
Atoms. Timestep: 4520
N 51 74 0 
N 9 81 0 
N 16 30 0 
N 84 2 0 
N 56 32 0 
O 86 2 0 
6
Atoms. Timestep: 4521
N 52 74 0 
N 10 81 0 
N 17 30 0 
N 85 2 0 
N 57 32 0 
O 87 2 0 
6
Atoms. Timestep: 4522
N 53 74 0 
N 11 81 0 
N 18 30 0 
N 86 2 0 
N 58 32 0 
O 88 2 0 
6
Atoms. Timestep: 4523
N 54 74 0 
N 12 81 0 
N 19 30 0 
N 87 2 0 
N 59 32 0 
O 89 2 0 
6
Atoms. Timestep: 4524
N 55 74 0 
N 13 81 0 
N 20 30 0 
N 88 2 0 
N 60 32 0 
O 90 2 0 
6
Atoms. Timestep: 4525
N 56 74 0 
N 14 81 0 
N 21 30 0 
N 89 2 0 
N 61 32 0 
O 91 2 0 
6
Atoms. Timestep: 4526
N 57 74 0 
N 15 81 0 
N 22 30 0 
N 90 2 0 
N 62 32 0 
O 92 2 0 
6
Atoms. Timestep: 4527
N 58 74 0 
N 16 81 0 
N 23 30 0 
N 91 2 0 
N 63 32 0 
O 93 2 0 
6
Atoms. Timestep: 4528
N 59 74 0 
N 17 81 0 
N 24 30 0 
N 92 2 0 
N 64 32 0 
O 94 2 0 
6
Atoms. Timestep: 4529
N 60 74 0 
N 18 81 0 
N 25 30 0 
N 93 2 0 
N 65 32 0 
O 95 2 0 
6
Atoms. Timestep: 4530
N 61 74 0 
N 19 81 0 
N 26 30 0 
N 94 2 0 
N 66 32 0 
O 96 2 0 
6
Atoms. Timestep: 4531
N 62 74 0 
N 20 81 0 
N 27 30 0 
N 95 2 0 
N 67 32 0 
O 97 2 0 
6
Atoms. Timestep: 4532
N 63 74 0 
N 21 81 0 
N 28 30 0 
N 96 2 0 
N 68 32 0 
O 98 2 0 
6
Atoms. Timestep: 4533
N 64 74 0 
N 22 81 0 
N 29 30 0 
N 97 2 0 
N 69 32 0 
O 99 2 0 
6
Atoms. Timestep: 4534
N 65 74 0 
N 23 81 0 
N 30 30 0 
N 98 2 0 
N 70 32 0 
O 0 2 0 
6
Atoms. Timestep: 4535
N 66 74 0 
N 24 81 0 
N 31 30 0 
N 99 2 0 
N 71 32 0 
O 1 2 0 
6
Atoms. Timestep: 4536
N 67 74 0 
N 25 81 0 
N 32 30 0 
N 0 2 0 
N 72 32 0 
O 2 2 0 
6
Atoms. Timestep: 4537
N 68 74 0 
N 26 81 0 
N 33 30 0 
N 1 2 0 
N 73 32 0 
O 3 2 0 
6
Atoms. Timestep: 4538
N 69 74 0 
N 27 81 0 
N 34 30 0 
N 2 2 0 
N 74 32 0 
O 4 2 0 
6
Atoms. Timestep: 4539
N 70 74 0 
N 28 81 0 
N 35 30 0 
N 3 2 0 
N 75 32 0 
O 5 2 0 
6
Atoms. Timestep: 4540
N 71 74 0 
N 29 81 0 
N 36 30 0 
N 4 2 0 
N 76 32 0 
O 6 2 0 
6
Atoms. Timestep: 4541
N 72 74 0 
N 30 81 0 
N 37 30 0 
N 5 2 0 
N 77 32 0 
O 7 2 0 
6
Atoms. Timestep: 4542
N 73 74 0 
N 31 81 0 
N 38 30 0 
N 6 2 0 
N 78 32 0 
O 8 2 0 
6
Atoms. Timestep: 4543
N 74 74 0 
N 32 81 0 
N 39 30 0 
N 7 2 0 
N 79 32 0 
O 9 2 0 
6
Atoms. Timestep: 4544
N 75 74 0 
N 33 81 0 
N 40 30 0 
N 8 2 0 
N 80 32 0 
O 10 2 0 
6
Atoms. Timestep: 4545
N 76 74 0 
N 34 81 0 
N 41 30 0 
N 9 2 0 
N 81 32 0 
O 11 2 0 
6
Atoms. Timestep: 4546
N 77 74 0 
N 35 81 0 
N 42 30 0 
N 10 2 0 
N 82 32 0 
O 12 2 0 
6
Atoms. Timestep: 4547
N 78 74 0 
N 36 81 0 
N 43 30 0 
N 11 2 0 
N 83 32 0 
O 13 2 0 
6
Atoms. Timestep: 4548
N 79 74 0 
N 37 81 0 
N 44 30 0 
N 12 2 0 
N 84 32 0 
O 14 2 0 
6
Atoms. Timestep: 4549
N 80 74 0 
N 38 81 0 
N 45 30 0 
N 13 2 0 
N 85 32 0 
O 15 2 0 
6
Atoms. Timestep: 4550
N 81 74 0 
N 39 81 0 
N 46 30 0 
N 14 2 0 
N 86 32 0 
O 16 2 0 
6
Atoms. Timestep: 4551
N 82 74 0 
N 40 81 0 
N 47 30 0 
N 15 2 0 
N 87 32 0 
O 17 2 0 
6
Atoms. Timestep: 4552
N 83 74 0 
N 41 81 0 
N 46 30 0 
N 16 2 0 
N 86 32 0 
O 18 2 0 
6
Atoms. Timestep: 4553
N 84 74 0 
N 42 81 0 
N 46 29 0 
N 17 2 0 
N 87 32 0 
O 19 2 0 
6
Atoms. Timestep: 4554
N 85 74 0 
N 43 81 0 
N 47 29 0 
N 18 2 0 
N 88 32 0 
O 20 2 0 
6
Atoms. Timestep: 4555
N 86 74 0 
N 44 81 0 
N 48 29 0 
N 19 2 0 
N 89 32 0 
O 21 2 0 
6
Atoms. Timestep: 4556
N 87 74 0 
N 45 81 0 
N 49 29 0 
N 20 2 0 
N 90 32 0 
O 22 2 0 
6
Atoms. Timestep: 4557
N 87 75 0 
N 44 81 0 
N 50 29 0 
N 21 2 0 
N 91 32 0 
O 23 2 0 
6
Atoms. Timestep: 4558
N 87 76 0 
N 43 81 0 
N 51 29 0 
N 22 2 0 
N 92 32 0 
O 24 2 0 
6
Atoms. Timestep: 4559
N 88 76 0 
N 43 82 0 
N 52 29 0 
N 23 2 0 
N 93 32 0 
O 25 2 0 
6
Atoms. Timestep: 4560
N 87 76 0 
N 43 83 0 
N 53 29 0 
N 24 2 0 
N 94 32 0 
O 26 2 0 
6
Atoms. Timestep: 4561
N 88 76 0 
N 43 84 0 
N 54 29 0 
N 25 2 0 
N 95 32 0 
O 27 2 0 
6
Atoms. Timestep: 4562
N 88 77 0 
N 43 83 0 
N 55 29 0 
N 26 2 0 
N 96 32 0 
O 28 2 0 
6
Atoms. Timestep: 4563
N 89 77 0 
N 43 82 0 
N 56 29 0 
N 27 2 0 
N 97 32 0 
O 29 2 0 
6
Atoms. Timestep: 4564
N 89 78 0 
N 43 83 0 
N 57 29 0 
N 28 2 0 
N 98 32 0 
O 30 2 0 
6
Atoms. Timestep: 4565
N 90 78 0 
N 43 82 0 
N 58 29 0 
N 29 2 0 
N 99 32 0 
O 31 2 0 
6
Atoms. Timestep: 4566
N 89 78 0 
N 43 81 0 
N 59 29 0 
N 30 2 0 
N 0 32 0 
O 32 2 0 
6
Atoms. Timestep: 4567
N 90 78 0 
N 43 82 0 
N 58 29 0 
N 31 2 0 
N 1 32 0 
O 33 2 0 
6
Atoms. Timestep: 4568
N 91 78 0 
N 43 81 0 
N 58 28 0 
N 32 2 0 
N 0 32 0 
O 34 2 0 
6
Atoms. Timestep: 4569
N 91 79 0 
N 43 82 0 
N 58 27 0 
N 33 2 0 
N 1 32 0 
O 35 2 0 
6
Atoms. Timestep: 4570
N 92 79 0 
N 43 81 0 
N 58 26 0 
N 34 2 0 
N 2 32 0 
O 36 2 0 
6
Atoms. Timestep: 4571
N 92 80 0 
N 43 80 0 
N 58 25 0 
N 35 2 0 
N 1 32 0 
O 37 2 0 
6
Atoms. Timestep: 4572
N 93 80 0 
N 43 81 0 
N 58 26 0 
N 36 2 0 
N 2 32 0 
O 38 2 0 
6
Atoms. Timestep: 4573
N 92 80 0 
N 43 80 0 
N 58 27 0 
N 37 2 0 
N 3 32 0 
O 39 2 0 
6
Atoms. Timestep: 4574
N 93 80 0 
N 43 79 0 
N 58 26 0 
N 38 2 0 
N 4 32 0 
O 40 2 0 
6
Atoms. Timestep: 4575
N 93 81 0 
N 43 78 0 
N 58 27 0 
N 39 2 0 
N 3 32 0 
O 41 2 0 
6
Atoms. Timestep: 4576
N 93 82 0 
N 43 77 0 
N 58 28 0 
N 40 2 0 
N 4 32 0 
O 42 2 0 
6
Atoms. Timestep: 4577
N 93 83 0 
N 43 76 0 
N 58 27 0 
N 41 2 0 
N 5 32 0 
O 43 2 0 
6
Atoms. Timestep: 4578
N 93 84 0 
N 43 75 0 
N 58 28 0 
N 42 2 0 
N 4 32 0 
O 44 2 0 
6
Atoms. Timestep: 4579
N 93 83 0 
N 43 74 0 
N 58 27 0 
N 43 2 0 
N 5 32 0 
O 45 2 0 
6
Atoms. Timestep: 4580
N 93 84 0 
N 43 73 0 
N 58 28 0 
N 44 2 0 
N 6 32 0 
O 46 2 0 
6
Atoms. Timestep: 4581
N 93 83 0 
N 43 72 0 
N 58 27 0 
N 45 2 0 
N 7 32 0 
O 47 2 0 
6
Atoms. Timestep: 4582
N 92 83 0 
N 43 71 0 
N 58 28 0 
N 46 2 0 
N 6 32 0 
O 48 2 0 
6
Atoms. Timestep: 4583
N 91 83 0 
N 43 70 0 
N 58 27 0 
N 47 2 0 
N 7 32 0 
O 49 2 0 
6
Atoms. Timestep: 4584
N 90 83 0 
N 43 69 0 
N 58 28 0 
N 48 2 0 
N 8 32 0 
O 50 2 0 
6
Atoms. Timestep: 4585
N 89 83 0 
N 43 68 0 
N 58 29 0 
N 49 2 0 
N 8 31 0 
O 51 2 0 
6
Atoms. Timestep: 4586
N 88 83 0 
N 43 67 0 
N 57 29 0 
N 50 2 0 
N 8 30 0 
O 52 2 0 
6
Atoms. Timestep: 4587
N 87 83 0 
N 43 66 0 
N 57 30 0 
N 51 2 0 
N 7 30 0 
O 53 2 0 
6
Atoms. Timestep: 4588
N 86 83 0 
N 43 67 0 
N 57 31 0 
N 52 2 0 
N 7 29 0 
O 54 2 0 
6
Atoms. Timestep: 4589
N 85 83 0 
N 43 66 0 
N 57 32 0 
N 53 2 0 
N 7 30 0 
O 55 2 0 
6
Atoms. Timestep: 4590
N 84 83 0 
N 43 67 0 
N 57 33 0 
N 54 2 0 
N 6 30 0 
O 56 2 0 
6
Atoms. Timestep: 4591
N 83 83 0 
N 43 68 0 
N 57 34 0 
N 55 2 0 
N 7 30 0 
O 57 2 0 
6
Atoms. Timestep: 4592
N 82 83 0 
N 43 69 0 
N 57 35 0 
N 56 2 0 
N 7 29 0 
O 58 2 0 
6
Atoms. Timestep: 4593
N 81 83 0 
N 43 70 0 
N 57 36 0 
N 57 2 0 
N 7 28 0 
O 59 2 0 
6
Atoms. Timestep: 4594
N 82 83 0 
N 43 71 0 
N 57 37 0 
N 58 2 0 
N 7 27 0 
O 60 2 0 
6
Atoms. Timestep: 4595
N 83 83 0 
N 43 70 0 
N 57 38 0 
N 59 2 0 
N 7 28 0 
O 61 2 0 
6
Atoms. Timestep: 4596
N 84 83 0 
N 43 71 0 
N 57 37 0 
N 60 2 0 
N 7 27 0 
O 62 2 0 
6
Atoms. Timestep: 4597
N 85 83 0 
N 43 72 0 
N 57 38 0 
N 61 2 0 
N 7 28 0 
O 63 2 0 
6
Atoms. Timestep: 4598
N 86 83 0 
N 43 71 0 
N 57 37 0 
N 62 2 0 
N 7 29 0 
O 64 2 0 
6
Atoms. Timestep: 4599
N 87 83 0 
N 43 72 0 
N 57 38 0 
N 63 2 0 
N 7 30 0 
O 65 2 0 
6
Atoms. Timestep: 4600
N 88 83 0 
N 43 71 0 
N 57 37 0 
N 64 2 0 
N 7 29 0 
O 66 2 0 
6
Atoms. Timestep: 4601
N 89 83 0 
N 42 71 0 
N 57 38 0 
N 65 2 0 
N 7 30 0 
O 67 2 0 
6
Atoms. Timestep: 4602
N 90 83 0 
N 42 72 0 
N 57 37 0 
N 66 2 0 
N 6 30 0 
O 68 2 0 
6
Atoms. Timestep: 4603
N 91 83 0 
N 42 73 0 
N 57 38 0 
N 67 2 0 
N 5 30 0 
O 69 2 0 
6
Atoms. Timestep: 4604
N 92 83 0 
N 43 73 0 
N 57 39 0 
N 68 2 0 
N 4 30 0 
O 70 2 0 
6
Atoms. Timestep: 4605
N 93 83 0 
N 43 74 0 
N 57 38 0 
N 69 2 0 
N 3 30 0 
O 71 2 0 
6
Atoms. Timestep: 4606
N 94 83 0 
N 43 73 0 
N 57 37 0 
N 70 2 0 
N 2 30 0 
O 72 2 0 
6
Atoms. Timestep: 4607
N 95 83 0 
N 43 74 0 
N 57 38 0 
N 71 2 0 
N 1 30 0 
O 73 2 0 
6
Atoms. Timestep: 4608
N 96 83 0 
N 43 75 0 
N 57 37 0 
N 72 2 0 
N 1 29 0 
O 74 2 0 
6
Atoms. Timestep: 4609
N 97 83 0 
N 43 76 0 
N 57 38 0 
N 73 2 0 
N 1 28 0 
O 75 2 0 
6
Atoms. Timestep: 4610
N 98 83 0 
N 43 77 0 
N 57 39 0 
N 74 2 0 
N 1 27 0 
O 76 2 0 
6
Atoms. Timestep: 4611
N 99 83 0 
N 42 77 0 
N 57 38 0 
N 75 2 0 
N 0 27 0 
O 77 2 0 
6
Atoms. Timestep: 4612
N 0 83 0 
N 42 78 0 
N 57 39 0 
N 76 2 0 
N 0 26 0 
O 78 2 0 
6
Atoms. Timestep: 4613
N 1 83 0 
N 43 78 0 
N 57 38 0 
N 77 2 0 
N 0 25 0 
O 79 2 0 
6
Atoms. Timestep: 4614
N 2 83 0 
N 43 79 0 
N 57 39 0 
N 78 2 0 
N 0 24 0 
O 80 2 0 
6
Atoms. Timestep: 4615
N 3 83 0 
N 44 79 0 
N 57 38 0 
N 79 2 0 
N 0 23 0 
O 81 2 0 
6
Atoms. Timestep: 4616
N 4 83 0 
N 45 79 0 
N 57 39 0 
N 80 2 0 
N 0 22 0 
O 82 2 0 
6
Atoms. Timestep: 4617
N 5 83 0 
N 46 79 0 
N 57 38 0 
N 81 2 0 
N 0 21 0 
O 83 2 0 
6
Atoms. Timestep: 4618
N 6 83 0 
N 47 79 0 
N 57 37 0 
N 82 2 0 
N 0 20 0 
O 84 2 0 
6
Atoms. Timestep: 4619
N 7 83 0 
N 48 79 0 
N 57 36 0 
N 83 2 0 
N 0 19 0 
O 85 2 0 
6
Atoms. Timestep: 4620
N 8 83 0 
N 49 79 0 
N 57 35 0 
N 84 2 0 
N 0 18 0 
O 86 2 0 
6
Atoms. Timestep: 4621
N 9 83 0 
N 50 79 0 
N 57 36 0 
N 85 2 0 
N 0 17 0 
O 87 2 0 
6
Atoms. Timestep: 4622
N 10 83 0 
N 51 79 0 
N 57 35 0 
N 86 2 0 
N 0 16 0 
O 88 2 0 
6
Atoms. Timestep: 4623
N 11 83 0 
N 52 79 0 
N 57 34 0 
N 87 2 0 
N 0 15 0 
O 89 2 0 
6
Atoms. Timestep: 4624
N 12 83 0 
N 53 79 0 
N 57 35 0 
N 88 2 0 
N 0 14 0 
O 90 2 0 
6
Atoms. Timestep: 4625
N 13 83 0 
N 54 79 0 
N 57 34 0 
N 89 2 0 
N 0 13 0 
O 91 2 0 
6
Atoms. Timestep: 4626
N 14 83 0 
N 55 79 0 
N 57 33 0 
N 90 2 0 
N 0 12 0 
O 92 2 0 
6
Atoms. Timestep: 4627
N 15 83 0 
N 56 79 0 
N 57 32 0 
N 91 2 0 
N 0 11 0 
O 93 2 0 
6
Atoms. Timestep: 4628
N 16 83 0 
N 57 79 0 
N 56 32 0 
N 92 2 0 
N 0 10 0 
O 94 2 0 
6
Atoms. Timestep: 4629
N 17 83 0 
N 58 79 0 
N 56 31 0 
N 93 2 0 
N 0 9 0 
O 95 2 0 
6
Atoms. Timestep: 4630
N 18 83 0 
N 59 79 0 
N 55 31 0 
N 94 2 0 
N 0 8 0 
O 96 2 0 
6
Atoms. Timestep: 4631
N 19 83 0 
N 60 79 0 
N 55 30 0 
N 95 2 0 
N 0 7 0 
O 97 2 0 
6
Atoms. Timestep: 4632
N 20 83 0 
N 61 79 0 
N 55 29 0 
N 96 2 0 
N 0 6 0 
O 98 2 0 
6
Atoms. Timestep: 4633
N 21 83 0 
N 62 79 0 
N 54 29 0 
N 97 2 0 
N 0 5 0 
O 99 2 0 
6
Atoms. Timestep: 4634
N 22 83 0 
N 63 79 0 
N 53 29 0 
N 98 2 0 
N 0 4 0 
O 0 2 0 
6
Atoms. Timestep: 4635
N 23 83 0 
N 64 79 0 
N 52 29 0 
N 99 2 0 
N 0 5 0 
O 1 2 0 
6
Atoms. Timestep: 4636
N 24 83 0 
N 65 79 0 
N 51 29 0 
N 0 2 0 
N 0 6 0 
O 2 2 0 
6
Atoms. Timestep: 4637
N 25 83 0 
N 66 79 0 
N 50 29 0 
N 1 2 0 
N 0 7 0 
O 3 2 0 
6
Atoms. Timestep: 4638
N 26 83 0 
N 67 79 0 
N 50 30 0 
N 2 2 0 
N 0 8 0 
O 4 2 0 
6
Atoms. Timestep: 4639
N 27 83 0 
N 68 79 0 
N 50 29 0 
N 3 2 0 
N 0 9 0 
O 5 2 0 
6
Atoms. Timestep: 4640
N 28 83 0 
N 69 79 0 
N 50 30 0 
N 4 2 0 
N 0 10 0 
O 6 2 0 
6
Atoms. Timestep: 4641
N 29 83 0 
N 70 79 0 
N 50 31 0 
N 5 2 0 
N 0 11 0 
O 7 2 0 
6
Atoms. Timestep: 4642
N 30 83 0 
N 71 79 0 
N 49 31 0 
N 6 2 0 
N 0 12 0 
O 8 2 0 
6
Atoms. Timestep: 4643
N 31 83 0 
N 72 79 0 
N 48 31 0 
N 7 2 0 
N 0 13 0 
O 9 2 0 
6
Atoms. Timestep: 4644
N 32 83 0 
N 73 79 0 
N 47 31 0 
N 8 2 0 
N 0 14 0 
O 10 2 0 
6
Atoms. Timestep: 4645
N 33 83 0 
N 74 79 0 
N 48 31 0 
N 9 2 0 
N 0 15 0 
O 11 2 0 
6
Atoms. Timestep: 4646
N 34 83 0 
N 75 79 0 
N 49 31 0 
N 10 2 0 
N 0 16 0 
O 12 2 0 
6
Atoms. Timestep: 4647
N 35 83 0 
N 76 79 0 
N 50 31 0 
N 11 2 0 
N 0 17 0 
O 13 2 0 
6
Atoms. Timestep: 4648
N 36 83 0 
N 77 79 0 
N 51 31 0 
N 12 2 0 
N 0 18 0 
O 14 2 0 
6
Atoms. Timestep: 4649
N 37 83 0 
N 78 79 0 
N 52 31 0 
N 13 2 0 
N 0 19 0 
O 15 2 0 
6
Atoms. Timestep: 4650
N 38 83 0 
N 79 79 0 
N 53 31 0 
N 14 2 0 
N 0 20 0 
O 16 2 0 
6
Atoms. Timestep: 4651
N 39 83 0 
N 80 79 0 
N 54 31 0 
N 15 2 0 
N 0 21 0 
O 17 2 0 
6
Atoms. Timestep: 4652
N 40 83 0 
N 81 79 0 
N 53 31 0 
N 16 2 0 
N 0 22 0 
O 18 2 0 
6
Atoms. Timestep: 4653
N 41 83 0 
N 82 79 0 
N 52 31 0 
N 17 2 0 
N 0 23 0 
O 19 2 0 
6
Atoms. Timestep: 4654
N 42 83 0 
N 83 79 0 
N 51 31 0 
N 18 2 0 
N 0 24 0 
O 20 2 0 
6
Atoms. Timestep: 4655
N 43 83 0 
N 84 79 0 
N 50 31 0 
N 19 2 0 
N 0 25 0 
O 21 2 0 
6
Atoms. Timestep: 4656
N 44 83 0 
N 85 79 0 
N 51 31 0 
N 20 2 0 
N 0 26 0 
O 22 2 0 
6
Atoms. Timestep: 4657
N 45 83 0 
N 86 79 0 
N 52 31 0 
N 21 2 0 
N 0 27 0 
O 23 2 0 
6
Atoms. Timestep: 4658
N 46 83 0 
N 87 79 0 
N 53 31 0 
N 22 2 0 
N 0 28 0 
O 24 2 0 
6
Atoms. Timestep: 4659
N 47 83 0 
N 88 79 0 
N 54 31 0 
N 23 2 0 
N 0 29 0 
O 25 2 0 
6
Atoms. Timestep: 4660
N 48 83 0 
N 89 79 0 
N 55 31 0 
N 24 2 0 
N 0 30 0 
O 26 2 0 
6
Atoms. Timestep: 4661
N 49 83 0 
N 90 79 0 
N 56 31 0 
N 25 2 0 
N 0 31 0 
O 27 2 0 
6
Atoms. Timestep: 4662
N 50 83 0 
N 91 79 0 
N 57 31 0 
N 26 2 0 
N 0 32 0 
O 28 2 0 
6
Atoms. Timestep: 4663
N 51 83 0 
N 92 79 0 
N 58 31 0 
N 27 2 0 
N 0 33 0 
O 29 2 0 
6
Atoms. Timestep: 4664
N 52 83 0 
N 93 79 0 
N 59 31 0 
N 28 2 0 
N 0 34 0 
O 30 2 0 
6
Atoms. Timestep: 4665
N 53 83 0 
N 94 79 0 
N 60 31 0 
N 29 2 0 
N 1 34 0 
O 31 2 0 
6
Atoms. Timestep: 4666
N 54 83 0 
N 95 79 0 
N 61 31 0 
N 30 2 0 
N 2 34 0 
O 32 2 0 
6
Atoms. Timestep: 4667
N 55 83 0 
N 96 79 0 
N 62 31 0 
N 31 2 0 
N 3 34 0 
O 33 2 0 
6
Atoms. Timestep: 4668
N 56 83 0 
N 97 79 0 
N 63 31 0 
N 32 2 0 
N 4 34 0 
O 34 2 0 
6
Atoms. Timestep: 4669
N 57 83 0 
N 98 79 0 
N 64 31 0 
N 33 2 0 
N 5 34 0 
O 35 2 0 
6
Atoms. Timestep: 4670
N 58 83 0 
N 99 79 0 
N 65 31 0 
N 34 2 0 
N 6 34 0 
O 36 2 0 
6
Atoms. Timestep: 4671
N 59 83 0 
N 0 79 0 
N 66 31 0 
N 35 2 0 
N 7 34 0 
O 37 2 0 
6
Atoms. Timestep: 4672
N 60 83 0 
N 1 79 0 
N 67 31 0 
N 36 2 0 
N 8 34 0 
O 38 2 0 
6
Atoms. Timestep: 4673
N 61 83 0 
N 2 79 0 
N 68 31 0 
N 37 2 0 
N 9 34 0 
O 39 2 0 
6
Atoms. Timestep: 4674
N 62 83 0 
N 3 79 0 
N 69 31 0 
N 38 2 0 
N 10 34 0 
O 40 2 0 
6
Atoms. Timestep: 4675
N 63 83 0 
N 4 79 0 
N 70 31 0 
N 39 2 0 
N 11 34 0 
O 41 2 0 
6
Atoms. Timestep: 4676
N 64 83 0 
N 5 79 0 
N 71 31 0 
N 40 2 0 
N 12 34 0 
O 42 2 0 
6
Atoms. Timestep: 4677
N 65 83 0 
N 6 79 0 
N 72 31 0 
N 41 2 0 
N 13 34 0 
O 43 2 0 
6
Atoms. Timestep: 4678
N 66 83 0 
N 7 79 0 
N 73 31 0 
N 42 2 0 
N 14 34 0 
O 44 2 0 
6
Atoms. Timestep: 4679
N 67 83 0 
N 8 79 0 
N 74 31 0 
N 43 2 0 
N 15 34 0 
O 45 2 0 
6
Atoms. Timestep: 4680
N 68 83 0 
N 9 79 0 
N 75 31 0 
N 44 2 0 
N 16 34 0 
O 46 2 0 
6
Atoms. Timestep: 4681
N 69 83 0 
N 10 79 0 
N 76 31 0 
N 45 2 0 
N 17 34 0 
O 47 2 0 
6
Atoms. Timestep: 4682
N 70 83 0 
N 11 79 0 
N 77 31 0 
N 46 2 0 
N 18 34 0 
O 48 2 0 
6
Atoms. Timestep: 4683
N 71 83 0 
N 12 79 0 
N 78 31 0 
N 47 2 0 
N 19 34 0 
O 49 2 0 
6
Atoms. Timestep: 4684
N 72 83 0 
N 13 79 0 
N 79 31 0 
N 48 2 0 
N 20 34 0 
O 50 2 0 
6
Atoms. Timestep: 4685
N 73 83 0 
N 14 79 0 
N 80 31 0 
N 49 2 0 
N 21 34 0 
O 51 2 0 
6
Atoms. Timestep: 4686
N 74 83 0 
N 15 79 0 
N 81 31 0 
N 50 2 0 
N 22 34 0 
O 52 2 0 
6
Atoms. Timestep: 4687
N 75 83 0 
N 16 79 0 
N 82 31 0 
N 51 2 0 
N 23 34 0 
O 53 2 0 
6
Atoms. Timestep: 4688
N 76 83 0 
N 17 79 0 
N 83 31 0 
N 52 2 0 
N 24 34 0 
O 54 2 0 
6
Atoms. Timestep: 4689
N 77 83 0 
N 18 79 0 
N 84 31 0 
N 53 2 0 
N 25 34 0 
O 55 2 0 
6
Atoms. Timestep: 4690
N 77 82 0 
N 19 79 0 
N 85 31 0 
N 54 2 0 
N 26 34 0 
O 56 2 0 
6
Atoms. Timestep: 4691
N 78 82 0 
N 20 79 0 
N 86 31 0 
N 55 2 0 
N 27 34 0 
O 57 2 0 
6
Atoms. Timestep: 4692
N 79 82 0 
N 21 79 0 
N 87 31 0 
N 56 2 0 
N 28 34 0 
O 58 2 0 
6
Atoms. Timestep: 4693
N 80 82 0 
N 22 79 0 
N 88 31 0 
N 57 2 0 
N 29 34 0 
O 59 2 0 
6
Atoms. Timestep: 4694
N 81 82 0 
N 23 79 0 
N 89 31 0 
N 58 2 0 
N 30 34 0 
O 60 2 0 
6
Atoms. Timestep: 4695
N 82 82 0 
N 24 79 0 
N 90 31 0 
N 59 2 0 
N 31 34 0 
O 61 2 0 
6
Atoms. Timestep: 4696
N 83 82 0 
N 25 79 0 
N 91 31 0 
N 60 2 0 
N 32 34 0 
O 62 2 0 
6
Atoms. Timestep: 4697
N 84 82 0 
N 26 79 0 
N 92 31 0 
N 61 2 0 
N 33 34 0 
O 63 2 0 
6
Atoms. Timestep: 4698
N 85 82 0 
N 27 79 0 
N 93 31 0 
N 62 2 0 
N 34 34 0 
O 64 2 0 
6
Atoms. Timestep: 4699
N 86 82 0 
N 28 79 0 
N 94 31 0 
N 63 2 0 
N 35 34 0 
O 65 2 0 
6
Atoms. Timestep: 4700
N 87 82 0 
N 29 79 0 
N 95 31 0 
N 64 2 0 
N 36 34 0 
O 66 2 0 
6
Atoms. Timestep: 4701
N 88 82 0 
N 30 79 0 
N 96 31 0 
N 65 2 0 
N 37 34 0 
O 67 2 0 
6
Atoms. Timestep: 4702
N 89 82 0 
N 31 79 0 
N 97 31 0 
N 66 2 0 
N 38 34 0 
O 68 2 0 
6
Atoms. Timestep: 4703
N 90 82 0 
N 32 79 0 
N 98 31 0 
N 67 2 0 
N 39 34 0 
O 69 2 0 
6
Atoms. Timestep: 4704
N 89 82 0 
N 31 79 0 
N 98 30 0 
N 66 2 0 
N 40 34 0 
O 70 2 0 
6
Atoms. Timestep: 4705
N 89 83 0 
N 32 79 0 
N 97 30 0 
N 67 2 0 
N 40 35 0 
O 71 2 0 
6
Atoms. Timestep: 4706
N 89 84 0 
N 31 79 0 
N 97 29 0 
N 68 2 0 
N 40 36 0 
O 72 2 0 
6
Atoms. Timestep: 4707
N 89 85 0 
N 32 79 0 
N 97 28 0 
N 69 2 0 
N 40 35 0 
O 73 2 0 
6
Atoms. Timestep: 4708
N 89 86 0 
N 33 79 0 
N 97 27 0 
N 70 2 0 
N 41 35 0 
O 74 2 0 
6
Atoms. Timestep: 4709
N 89 87 0 
N 33 80 0 
N 97 26 0 
N 71 2 0 
N 41 36 0 
O 75 2 0 
6
Atoms. Timestep: 4710
N 88 87 0 
N 34 80 0 
N 97 25 0 
N 72 2 0 
N 41 35 0 
O 76 2 0 
6
Atoms. Timestep: 4711
N 88 88 0 
N 33 80 0 
N 97 24 0 
N 73 2 0 
N 41 34 0 
O 77 2 0 
6
Atoms. Timestep: 4712
N 88 89 0 
N 34 80 0 
N 97 23 0 
N 74 2 0 
N 42 34 0 
O 78 2 0 
6
Atoms. Timestep: 4713
N 88 90 0 
N 34 81 0 
N 97 22 0 
N 75 2 0 
N 42 35 0 
O 79 2 0 
6
Atoms. Timestep: 4714
N 88 91 0 
N 35 81 0 
N 97 21 0 
N 76 2 0 
N 42 34 0 
O 80 2 0 
6
Atoms. Timestep: 4715
N 88 92 0 
N 34 81 0 
N 97 20 0 
N 77 2 0 
N 43 34 0 
O 81 2 0 
6
Atoms. Timestep: 4716
N 88 93 0 
N 35 81 0 
N 97 19 0 
N 78 2 0 
N 42 34 0 
O 82 2 0 
6
Atoms. Timestep: 4717
N 88 92 0 
N 36 81 0 
N 97 18 0 
N 79 2 0 
N 42 33 0 
O 83 2 0 
6
Atoms. Timestep: 4718
N 88 93 0 
N 35 81 0 
N 97 17 0 
N 80 2 0 
N 43 33 0 
O 84 2 0 
6
Atoms. Timestep: 4719
N 88 94 0 
N 36 81 0 
N 97 16 0 
N 81 2 0 
N 43 32 0 
O 85 2 0 
6
Atoms. Timestep: 4720
N 88 95 0 
N 37 81 0 
N 97 15 0 
N 82 2 0 
N 44 32 0 
O 86 2 0 
6
Atoms. Timestep: 4721
N 88 96 0 
N 37 82 0 
N 97 14 0 
N 83 2 0 
N 43 32 0 
O 87 2 0 
6
Atoms. Timestep: 4722
N 88 97 0 
N 38 82 0 
N 97 13 0 
N 84 2 0 
N 44 32 0 
O 88 2 0 
6
Atoms. Timestep: 4723
N 88 96 0 
N 39 82 0 
N 97 12 0 
N 85 2 0 
N 45 32 0 
O 89 2 0 
6
Atoms. Timestep: 4724
N 88 95 0 
N 38 82 0 
N 97 11 0 
N 86 2 0 
N 46 32 0 
O 90 2 0 
6
Atoms. Timestep: 4725
N 88 94 0 
N 39 82 0 
N 97 10 0 
N 87 2 0 
N 47 32 0 
O 91 2 0 
6
Atoms. Timestep: 4726
N 88 93 0 
N 40 82 0 
N 97 9 0 
N 88 2 0 
N 48 32 0 
O 92 2 0 
6
Atoms. Timestep: 4727
N 88 92 0 
N 39 82 0 
N 97 8 0 
N 89 2 0 
N 49 32 0 
O 93 2 0 
6
Atoms. Timestep: 4728
N 88 91 0 
N 40 82 0 
N 97 7 0 
N 90 2 0 
N 50 32 0 
O 94 2 0 
6
Atoms. Timestep: 4729
N 88 90 0 
N 39 82 0 
N 97 6 0 
N 91 2 0 
N 51 32 0 
O 95 2 0 
6
Atoms. Timestep: 4730
N 88 89 0 
N 40 82 0 
N 97 5 0 
N 92 2 0 
N 50 32 0 
O 95 1 0 
6
Atoms. Timestep: 4731
N 88 88 0 
N 39 82 0 
N 97 4 0 
N 93 2 0 
N 51 32 0 
O 96 1 0 
6
Atoms. Timestep: 4732
N 88 87 0 
N 40 82 0 
N 98 4 0 
N 94 2 0 
N 52 32 0 
O 97 1 0 
6
Atoms. Timestep: 4733
N 88 86 0 
N 41 82 0 
N 99 4 0 
N 95 2 0 
N 53 32 0 
O 98 1 0 
6
Atoms. Timestep: 4734
N 88 85 0 
N 42 82 0 
N 0 4 0 
N 96 2 0 
N 54 32 0 
O 99 1 0 
6
Atoms. Timestep: 4735
N 88 84 0 
N 41 82 0 
N 1 4 0 
N 97 2 0 
N 55 32 0 
O 0 1 0 
6
Atoms. Timestep: 4736
N 88 83 0 
N 42 82 0 
N 2 4 0 
N 98 2 0 
N 56 32 0 
O 1 1 0 
6
Atoms. Timestep: 4737
N 88 82 0 
N 43 82 0 
N 3 4 0 
N 99 2 0 
N 57 32 0 
O 2 1 0 
6
Atoms. Timestep: 4738
N 88 81 0 
N 44 82 0 
N 4 4 0 
N 0 2 0 
N 58 32 0 
O 3 1 0 
6
Atoms. Timestep: 4739
N 88 80 0 
N 43 82 0 
N 5 4 0 
N 1 2 0 
N 59 32 0 
O 4 1 0 
6
Atoms. Timestep: 4740
N 88 79 0 
N 44 82 0 
N 6 4 0 
N 2 2 0 
N 58 32 0 
O 5 1 0 
6
Atoms. Timestep: 4741
N 88 78 0 
N 45 82 0 
N 7 4 0 
N 3 2 0 
N 59 32 0 
O 6 1 0 
6
Atoms. Timestep: 4742
N 88 77 0 
N 44 82 0 
N 8 4 0 
N 4 2 0 
N 60 32 0 
O 7 1 0 
6
Atoms. Timestep: 4743
N 88 76 0 
N 45 82 0 
N 9 4 0 
N 5 2 0 
N 61 32 0 
O 8 1 0 
6
Atoms. Timestep: 4744
N 88 75 0 
N 46 82 0 
N 10 4 0 
N 6 2 0 
N 61 31 0 
O 9 1 0 
6
Atoms. Timestep: 4745
N 88 74 0 
N 47 82 0 
N 11 4 0 
N 7 2 0 
N 61 30 0 
O 10 1 0 
6
Atoms. Timestep: 4746
N 88 73 0 
N 46 82 0 
N 12 4 0 
N 8 2 0 
N 61 31 0 
O 11 1 0 
6
Atoms. Timestep: 4747
N 88 72 0 
N 47 82 0 
N 13 4 0 
N 9 2 0 
N 61 30 0 
O 12 1 0 
6
Atoms. Timestep: 4748
N 88 71 0 
N 48 82 0 
N 14 4 0 
N 10 2 0 
N 61 29 0 
O 13 1 0 
6
Atoms. Timestep: 4749
N 88 70 0 
N 49 82 0 
N 15 4 0 
N 11 2 0 
N 61 30 0 
O 14 1 0 
6
Atoms. Timestep: 4750
N 89 70 0 
N 50 82 0 
N 16 4 0 
N 12 2 0 
N 61 29 0 
O 15 1 0 
6
Atoms. Timestep: 4751
N 90 70 0 
N 51 82 0 
N 17 4 0 
N 13 2 0 
N 61 30 0 
O 16 1 0 
6
Atoms. Timestep: 4752
N 91 70 0 
N 52 82 0 
N 18 4 0 
N 14 2 0 
N 61 29 0 
O 17 1 0 
6
Atoms. Timestep: 4753
N 92 70 0 
N 53 82 0 
N 19 4 0 
N 15 2 0 
N 61 30 0 
O 18 1 0 
6
Atoms. Timestep: 4754
N 93 70 0 
N 54 82 0 
N 20 4 0 
N 16 2 0 
N 61 31 0 
O 19 1 0 
6
Atoms. Timestep: 4755
N 94 70 0 
N 55 82 0 
N 21 4 0 
N 17 2 0 
N 61 32 0 
O 20 1 0 
6
Atoms. Timestep: 4756
N 95 70 0 
N 56 82 0 
N 22 4 0 
N 18 2 0 
N 62 32 0 
O 21 1 0 
6
Atoms. Timestep: 4757
N 96 70 0 
N 57 82 0 
N 23 4 0 
N 19 2 0 
N 63 32 0 
O 22 1 0 
6
Atoms. Timestep: 4758
N 97 70 0 
N 58 82 0 
N 24 4 0 
N 20 2 0 
N 64 32 0 
O 23 1 0 
6
Atoms. Timestep: 4759
N 98 70 0 
N 59 82 0 
N 25 4 0 
N 21 2 0 
N 65 32 0 
O 24 1 0 
6
Atoms. Timestep: 4760
N 99 70 0 
N 60 82 0 
N 26 4 0 
N 22 2 0 
N 66 32 0 
O 25 1 0 
6
Atoms. Timestep: 4761
N 0 70 0 
N 61 82 0 
N 27 4 0 
N 23 2 0 
N 67 32 0 
O 26 1 0 
6
Atoms. Timestep: 4762
N 1 70 0 
N 62 82 0 
N 28 4 0 
N 24 2 0 
N 68 32 0 
O 27 1 0 
6
Atoms. Timestep: 4763
N 2 70 0 
N 63 82 0 
N 29 4 0 
N 25 2 0 
N 69 32 0 
O 28 1 0 
6
Atoms. Timestep: 4764
N 3 70 0 
N 64 82 0 
N 30 4 0 
N 26 2 0 
N 70 32 0 
O 29 1 0 
6
Atoms. Timestep: 4765
N 4 70 0 
N 65 82 0 
N 31 4 0 
N 27 2 0 
N 71 32 0 
O 30 1 0 
6
Atoms. Timestep: 4766
N 5 70 0 
N 66 82 0 
N 32 4 0 
N 28 2 0 
N 72 32 0 
O 31 1 0 
6
Atoms. Timestep: 4767
N 6 70 0 
N 67 82 0 
N 33 4 0 
N 29 2 0 
N 73 32 0 
O 32 1 0 
6
Atoms. Timestep: 4768
N 7 70 0 
N 68 82 0 
N 34 4 0 
N 30 2 0 
N 74 32 0 
O 33 1 0 
6
Atoms. Timestep: 4769
N 8 70 0 
N 69 82 0 
N 35 4 0 
N 31 2 0 
N 75 32 0 
O 34 1 0 
6
Atoms. Timestep: 4770
N 9 70 0 
N 70 82 0 
N 36 4 0 
N 32 2 0 
N 76 32 0 
O 35 1 0 
6
Atoms. Timestep: 4771
N 10 70 0 
N 71 82 0 
N 37 4 0 
N 33 2 0 
N 77 32 0 
O 36 1 0 
6
Atoms. Timestep: 4772
N 11 70 0 
N 72 82 0 
N 38 4 0 
N 34 2 0 
N 78 32 0 
O 37 1 0 
6
Atoms. Timestep: 4773
N 12 70 0 
N 73 82 0 
N 39 4 0 
N 35 2 0 
N 79 32 0 
O 38 1 0 
6
Atoms. Timestep: 4774
N 13 70 0 
N 74 82 0 
N 40 4 0 
N 36 2 0 
N 80 32 0 
O 39 1 0 
6
Atoms. Timestep: 4775
N 14 70 0 
N 75 82 0 
N 41 4 0 
N 37 2 0 
N 81 32 0 
O 40 1 0 
6
Atoms. Timestep: 4776
N 15 70 0 
N 76 82 0 
N 42 4 0 
N 38 2 0 
N 82 32 0 
O 41 1 0 
6
Atoms. Timestep: 4777
N 16 70 0 
N 77 82 0 
N 43 4 0 
N 39 2 0 
N 83 32 0 
O 42 1 0 
6
Atoms. Timestep: 4778
N 17 70 0 
N 78 82 0 
N 44 4 0 
N 40 2 0 
N 84 32 0 
O 43 1 0 
6
Atoms. Timestep: 4779
N 18 70 0 
N 79 82 0 
N 45 4 0 
N 41 2 0 
N 85 32 0 
O 44 1 0 
6
Atoms. Timestep: 4780
N 19 70 0 
N 80 82 0 
N 46 4 0 
N 42 2 0 
N 86 32 0 
O 45 1 0 
6
Atoms. Timestep: 4781
N 20 70 0 
N 81 82 0 
N 46 3 0 
N 43 2 0 
N 87 32 0 
O 45 0 0 
6
Atoms. Timestep: 4782
N 21 70 0 
N 82 82 0 
N 47 3 0 
N 44 2 0 
N 87 31 0 
O 45 99 0 
6
Atoms. Timestep: 4783
N 21 71 0 
N 83 82 0 
N 48 3 0 
N 43 2 0 
N 88 31 0 
O 45 98 0 
6
Atoms. Timestep: 4784
N 21 72 0 
N 82 82 0 
N 49 3 0 
N 43 1 0 
N 89 31 0 
O 45 97 0 
6
Atoms. Timestep: 4785
N 21 73 0 
N 83 82 0 
N 50 3 0 
N 43 0 0 
N 90 31 0 
O 45 96 0 
6
Atoms. Timestep: 4786
N 22 73 0 
N 84 82 0 
N 51 3 0 
N 43 99 0 
N 91 31 0 
O 45 95 0 
6
Atoms. Timestep: 4787
N 23 73 0 
N 85 82 0 
N 52 3 0 
N 43 98 0 
N 92 31 0 
O 45 94 0 
6
Atoms. Timestep: 4788
N 24 73 0 
N 86 82 0 
N 53 3 0 
N 43 97 0 
N 93 31 0 
O 45 93 0 
6
Atoms. Timestep: 4789
N 24 72 0 
N 87 82 0 
N 54 3 0 
N 43 96 0 
N 94 31 0 
O 45 92 0 
6
Atoms. Timestep: 4790
N 24 71 0 
N 86 82 0 
N 55 3 0 
N 43 95 0 
N 95 31 0 
O 45 91 0 
6
Atoms. Timestep: 4791
N 24 70 0 
N 87 82 0 
N 56 3 0 
N 43 94 0 
N 96 31 0 
O 45 90 0 
6
Atoms. Timestep: 4792
N 24 69 0 
N 88 82 0 
N 57 3 0 
N 43 93 0 
N 96 30 0 
O 45 89 0 
6
Atoms. Timestep: 4793
N 24 68 0 
N 89 82 0 
N 58 3 0 
N 43 92 0 
N 97 30 0 
O 45 88 0 
6
Atoms. Timestep: 4794
N 24 67 0 
N 90 82 0 
N 59 3 0 
N 43 91 0 
N 97 29 0 
O 45 87 0 
6
Atoms. Timestep: 4795
N 24 66 0 
N 91 82 0 
N 60 3 0 
N 43 90 0 
N 97 28 0 
O 45 86 0 
6
Atoms. Timestep: 4796
N 24 65 0 
N 90 82 0 
N 61 3 0 
N 43 89 0 
N 98 28 0 
O 45 85 0 
6
Atoms. Timestep: 4797
N 24 64 0 
N 91 82 0 
N 62 3 0 
N 43 88 0 
N 99 28 0 
O 45 84 0 
6
Atoms. Timestep: 4798
N 24 63 0 
N 92 82 0 
N 63 3 0 
N 43 87 0 
N 99 27 0 
O 45 83 0 
6
Atoms. Timestep: 4799
N 24 62 0 
N 93 82 0 
N 64 3 0 
N 43 86 0 
N 99 26 0 
O 45 82 0 
6
Atoms. Timestep: 4800
N 24 61 0 
N 94 82 0 
N 65 3 0 
N 43 85 0 
N 0 26 0 
O 45 81 0 
6
Atoms. Timestep: 4801
N 24 60 0 
N 95 82 0 
N 66 3 0 
N 43 84 0 
N 1 26 0 
O 45 80 0 
6
Atoms. Timestep: 4802
N 24 59 0 
N 96 82 0 
N 67 3 0 
N 43 83 0 
N 1 25 0 
O 45 79 0 
6
Atoms. Timestep: 4803
N 24 58 0 
N 97 82 0 
N 68 3 0 
N 43 82 0 
N 2 25 0 
O 45 78 0 
6
Atoms. Timestep: 4804
N 24 57 0 
N 98 82 0 
N 69 3 0 
N 43 81 0 
N 2 24 0 
O 45 77 0 
6
Atoms. Timestep: 4805
N 24 56 0 
N 99 82 0 
N 70 3 0 
N 43 80 0 
N 2 23 0 
O 45 76 0 
6
Atoms. Timestep: 4806
N 24 55 0 
N 99 83 0 
N 69 3 0 
N 43 79 0 
N 3 23 0 
O 45 75 0 
6
Atoms. Timestep: 4807
N 24 54 0 
N 0 83 0 
N 68 3 0 
N 43 78 0 
N 3 22 0 
O 45 74 0 
6
Atoms. Timestep: 4808
N 24 53 0 
N 0 84 0 
N 68 4 0 
N 43 77 0 
N 3 21 0 
O 45 73 0 
6
Atoms. Timestep: 4809
N 24 52 0 
N 1 84 0 
N 67 4 0 
N 43 76 0 
N 3 22 0 
O 45 72 0 
6
Atoms. Timestep: 4810
N 24 51 0 
N 1 83 0 
N 67 5 0 
N 43 75 0 
N 3 21 0 
O 45 71 0 
6
Atoms. Timestep: 4811
N 24 50 0 
N 1 82 0 
N 67 6 0 
N 43 74 0 
N 3 20 0 
O 45 70 0 
6
Atoms. Timestep: 4812
N 24 49 0 
N 1 81 0 
N 66 6 0 
N 43 73 0 
N 3 19 0 
O 45 69 0 
6
Atoms. Timestep: 4813
N 24 48 0 
N 1 80 0 
N 65 6 0 
N 43 72 0 
N 3 18 0 
O 45 68 0 
6
Atoms. Timestep: 4814
N 25 48 0 
N 1 79 0 
N 65 7 0 
N 44 72 0 
N 3 17 0 
O 45 67 0 
6
Atoms. Timestep: 4815
N 26 48 0 
N 1 78 0 
N 64 7 0 
N 44 71 0 
N 3 16 0 
O 45 66 0 
6
Atoms. Timestep: 4816
N 27 48 0 
N 1 79 0 
N 64 8 0 
N 44 70 0 
N 3 17 0 
O 45 65 0 
6
Atoms. Timestep: 4817
N 28 48 0 
N 1 78 0 
N 63 8 0 
N 44 69 0 
N 3 18 0 
O 45 64 0 
6
Atoms. Timestep: 4818
N 29 48 0 
N 1 77 0 
N 62 8 0 
N 44 68 0 
N 3 17 0 
O 45 63 0 
6
Atoms. Timestep: 4819
N 30 48 0 
N 1 76 0 
N 61 8 0 
N 44 67 0 
N 3 16 0 
O 45 62 0 
6
Atoms. Timestep: 4820
N 31 48 0 
N 0 76 0 
N 60 8 0 
N 44 66 0 
N 3 17 0 
O 45 61 0 
6
Atoms. Timestep: 4821
N 32 48 0 
N 0 75 0 
N 59 8 0 
N 44 65 0 
N 3 16 0 
O 45 60 0 
6
Atoms. Timestep: 4822
N 33 48 0 
N 99 75 0 
N 58 8 0 
N 44 64 0 
N 3 17 0 
O 45 59 0 
6
Atoms. Timestep: 4823
N 34 48 0 
N 98 75 0 
N 57 8 0 
N 44 63 0 
N 3 18 0 
O 45 58 0 
6
Atoms. Timestep: 4824
N 35 48 0 
N 98 74 0 
N 57 7 0 
N 44 62 0 
N 2 18 0 
O 45 57 0 
6
Atoms. Timestep: 4825
N 36 48 0 
N 98 73 0 
N 56 7 0 
N 44 61 0 
N 1 18 0 
O 45 56 0 
6
Atoms. Timestep: 4826
N 37 48 0 
N 97 73 0 
N 56 6 0 
N 44 60 0 
N 1 19 0 
O 45 55 0 
6
Atoms. Timestep: 4827
N 38 48 0 
N 97 72 0 
N 55 6 0 
N 44 59 0 
N 0 19 0 
O 45 54 0 
6
Atoms. Timestep: 4828
N 39 48 0 
N 96 72 0 
N 55 5 0 
N 44 58 0 
N 1 19 0 
O 45 53 0 
6
Atoms. Timestep: 4829
N 40 48 0 
N 96 71 0 
N 55 4 0 
N 44 57 0 
N 0 19 0 
O 45 52 0 
6
Atoms. Timestep: 4830
N 41 48 0 
N 96 70 0 
N 55 3 0 
N 44 56 0 
N 1 19 0 
O 45 51 0 
6
Atoms. Timestep: 4831
N 42 48 0 
N 96 69 0 
N 55 2 0 
N 44 55 0 
N 2 19 0 
O 45 52 0 
6
Atoms. Timestep: 4832
N 42 49 0 
N 95 69 0 
N 55 1 0 
N 44 54 0 
N 1 19 0 
O 45 51 0 
6
Atoms. Timestep: 4833
N 43 49 0 
N 96 69 0 
N 55 0 0 
N 44 53 0 
N 2 19 0 
O 45 52 0 
6
Atoms. Timestep: 4834
N 43 50 0 
N 95 69 0 
N 55 1 0 
N 45 53 0 
N 1 19 0 
O 45 51 0 
6
Atoms. Timestep: 4835
N 42 50 0 
N 96 69 0 
N 55 0 0 
N 45 52 0 
N 2 19 0 
O 45 50 0 
6
Atoms. Timestep: 4836
N 41 50 0 
N 95 69 0 
N 54 0 0 
N 45 51 0 
N 1 19 0 
O 45 49 0 
6
Atoms. Timestep: 4837
N 40 50 0 
N 94 69 0 
N 53 0 0 
N 45 50 0 
N 0 19 0 
O 45 48 0 
6
Atoms. Timestep: 4838
N 39 50 0 
N 93 69 0 
N 53 1 0 
N 45 49 0 
N 99 19 0 
O 45 47 0 
6
Atoms. Timestep: 4839
N 38 50 0 
N 92 69 0 
N 53 2 0 
N 45 48 0 
N 0 19 0 
O 45 46 0 
6
Atoms. Timestep: 4840
N 37 50 0 
N 91 69 0 
N 53 3 0 
N 45 47 0 
N 99 19 0 
O 45 45 0 
6
Atoms. Timestep: 4841
N 36 50 0 
N 90 69 0 
N 53 4 0 
N 45 46 0 
N 0 19 0 
O 45 44 0 
6
Atoms. Timestep: 4842
N 35 50 0 
N 89 69 0 
N 53 5 0 
N 45 45 0 
N 99 19 0 
O 45 43 0 
6
Atoms. Timestep: 4843
N 34 50 0 
N 88 69 0 
N 53 6 0 
N 45 44 0 
N 98 19 0 
O 45 42 0 
6
Atoms. Timestep: 4844
N 33 50 0 
N 87 69 0 
N 53 7 0 
N 45 43 0 
N 99 19 0 
O 45 41 0 
6
Atoms. Timestep: 4845
N 32 50 0 
N 86 69 0 
N 53 8 0 
N 45 42 0 
N 98 19 0 
O 45 40 0 
6
Atoms. Timestep: 4846
N 31 50 0 
N 85 69 0 
N 53 9 0 
N 45 41 0 
N 97 19 0 
O 45 39 0 
6
Atoms. Timestep: 4847
N 30 50 0 
N 84 69 0 
N 53 10 0 
N 45 40 0 
N 98 19 0 
O 45 38 0 
6
Atoms. Timestep: 4848
N 29 50 0 
N 83 69 0 
N 53 11 0 
N 45 39 0 
N 97 19 0 
O 45 37 0 
6
Atoms. Timestep: 4849
N 28 50 0 
N 82 69 0 
N 53 12 0 
N 45 38 0 
N 96 19 0 
O 45 36 0 
6
Atoms. Timestep: 4850
N 27 50 0 
N 83 69 0 
N 53 13 0 
N 45 37 0 
N 97 19 0 
O 45 35 0 
6
Atoms. Timestep: 4851
N 26 50 0 
N 82 69 0 
N 53 14 0 
N 45 36 0 
N 97 18 0 
O 45 34 0 
6
Atoms. Timestep: 4852
N 25 50 0 
N 81 69 0 
N 53 15 0 
N 45 35 0 
N 97 17 0 
O 45 33 0 
6
Atoms. Timestep: 4853
N 24 50 0 
N 80 69 0 
N 53 16 0 
N 45 34 0 
N 97 16 0 
O 45 32 0 
6
Atoms. Timestep: 4854
N 23 50 0 
N 79 69 0 
N 53 17 0 
N 45 33 0 
N 97 15 0 
O 45 31 0 
6
Atoms. Timestep: 4855
N 22 50 0 
N 78 69 0 
N 53 18 0 
N 45 32 0 
N 97 14 0 
O 45 30 0 
6
Atoms. Timestep: 4856
N 21 50 0 
N 77 69 0 
N 53 19 0 
N 45 31 0 
N 97 13 0 
O 45 29 0 
6
Atoms. Timestep: 4857
N 20 50 0 
N 76 69 0 
N 53 20 0 
N 45 30 0 
N 97 12 0 
O 45 28 0 
6
Atoms. Timestep: 4858
N 19 50 0 
N 76 68 0 
N 52 20 0 
N 45 29 0 
N 97 11 0 
O 45 27 0 
6
Atoms. Timestep: 4859
N 18 50 0 
N 75 68 0 
N 52 21 0 
N 45 28 0 
N 97 10 0 
O 45 26 0 
6
Atoms. Timestep: 4860
N 17 50 0 
N 74 68 0 
N 51 21 0 
N 45 27 0 
N 97 9 0 
O 45 25 0 
6
Atoms. Timestep: 4861
N 16 50 0 
N 73 68 0 
N 52 21 0 
N 45 26 0 
N 97 8 0 
O 45 24 0 
6
Atoms. Timestep: 4862
N 15 50 0 
N 73 67 0 
N 51 21 0 
N 45 25 0 
N 97 7 0 
O 45 23 0 
6
Atoms. Timestep: 4863
N 14 50 0 
N 72 67 0 
N 52 21 0 
N 45 24 0 
N 97 6 0 
O 45 22 0 
6
Atoms. Timestep: 4864
N 13 50 0 
N 71 67 0 
N 53 21 0 
N 45 23 0 
N 97 7 0 
O 45 21 0 
6
Atoms. Timestep: 4865
N 12 50 0 
N 70 67 0 
N 54 21 0 
N 45 22 0 
N 97 6 0 
O 45 20 0 
6
Atoms. Timestep: 4866
N 11 50 0 
N 69 67 0 
N 55 21 0 
N 45 21 0 
N 98 6 0 
O 45 19 0 
6
Atoms. Timestep: 4867
N 10 50 0 
N 68 67 0 
N 56 21 0 
N 45 20 0 
N 98 5 0 
O 45 18 0 
6
Atoms. Timestep: 4868
N 11 50 0 
N 67 67 0 
N 57 21 0 
N 45 19 0 
N 99 5 0 
O 45 17 0 
6
Atoms. Timestep: 4869
N 10 50 0 
N 67 68 0 
N 58 21 0 
N 45 18 0 
N 0 5 0 
O 45 16 0 
6
Atoms. Timestep: 4870
N 10 51 0 
N 66 68 0 
N 59 21 0 
N 45 17 0 
N 1 5 0 
O 45 15 0 
6
Atoms. Timestep: 4871
N 10 52 0 
N 65 68 0 
N 60 21 0 
N 45 16 0 
N 2 5 0 
O 45 14 0 
6
Atoms. Timestep: 4872
N 10 53 0 
N 64 68 0 
N 61 21 0 
N 45 15 0 
N 3 5 0 
O 45 13 0 
6
Atoms. Timestep: 4873
N 11 53 0 
N 64 69 0 
N 62 21 0 
N 45 14 0 
N 4 5 0 
O 45 12 0 
6
Atoms. Timestep: 4874
N 11 54 0 
N 64 68 0 
N 63 21 0 
N 45 13 0 
N 3 5 0 
O 45 11 0 
6
Atoms. Timestep: 4875
N 12 54 0 
N 64 69 0 
N 64 21 0 
N 45 12 0 
N 2 5 0 
O 45 10 0 
6
Atoms. Timestep: 4876
N 12 55 0 
N 64 70 0 
N 65 21 0 
N 45 11 0 
N 3 5 0 
O 45 9 0 
6
Atoms. Timestep: 4877
N 13 55 0 
N 64 71 0 
N 66 21 0 
N 45 10 0 
N 4 5 0 
O 45 8 0 
6
Atoms. Timestep: 4878
N 14 55 0 
N 64 72 0 
N 67 21 0 
N 45 9 0 
N 5 5 0 
O 45 7 0 
6
Atoms. Timestep: 4879
N 15 55 0 
N 64 73 0 
N 68 21 0 
N 45 8 0 
N 4 5 0 
O 45 6 0 
6
Atoms. Timestep: 4880
N 16 55 0 
N 64 72 0 
N 69 21 0 
N 45 7 0 
N 5 5 0 
O 45 5 0 
6
Atoms. Timestep: 4881
N 15 55 0 
N 64 71 0 
N 70 21 0 
N 45 6 0 
N 6 5 0 
O 45 4 0 
6
Atoms. Timestep: 4882
N 16 55 0 
N 64 70 0 
N 71 21 0 
N 45 5 0 
N 7 5 0 
O 45 3 0 
6
Atoms. Timestep: 4883
N 15 55 0 
N 64 69 0 
N 72 21 0 
N 45 4 0 
N 6 5 0 
O 45 2 0 
6
Atoms. Timestep: 4884
N 14 55 0 
N 64 68 0 
N 73 21 0 
N 45 3 0 
N 7 5 0 
O 45 1 0 
6
Atoms. Timestep: 4885
N 15 55 0 
N 64 67 0 
N 74 21 0 
N 45 2 0 
N 8 5 0 
O 45 0 0 
6
Atoms. Timestep: 4886
N 14 55 0 
N 64 66 0 
N 75 21 0 
N 45 1 0 
N 9 5 0 
O 45 99 0 
6
Atoms. Timestep: 4887
N 14 54 0 
N 64 65 0 
N 76 21 0 
N 45 0 0 
N 8 5 0 
O 45 98 0 
6
Atoms. Timestep: 4888
N 14 55 0 
N 64 64 0 
N 75 21 0 
N 45 99 0 
N 9 5 0 
O 45 97 0 
6
Atoms. Timestep: 4889
N 14 54 0 
N 64 65 0 
N 74 21 0 
N 44 99 0 
N 8 5 0 
O 45 96 0 
6
Atoms. Timestep: 4890
N 14 55 0 
N 64 66 0 
N 73 21 0 
N 44 98 0 
N 7 5 0 
O 45 95 0 
6
Atoms. Timestep: 4891
N 15 55 0 
N 64 67 0 
N 74 21 0 
N 44 97 0 
N 8 5 0 
O 45 94 0 
6
Atoms. Timestep: 4892
N 15 56 0 
N 64 68 0 
N 73 21 0 
N 44 96 0 
N 7 5 0 
O 45 93 0 
6
Atoms. Timestep: 4893
N 15 57 0 
N 64 69 0 
N 74 21 0 
N 44 95 0 
N 8 5 0 
O 45 92 0 
6
Atoms. Timestep: 4894
N 15 58 0 
N 64 70 0 
N 73 21 0 
N 44 94 0 
N 9 5 0 
O 45 91 0 
6
Atoms. Timestep: 4895
N 15 59 0 
N 64 71 0 
N 72 21 0 
N 44 93 0 
N 8 5 0 
O 45 90 0 
6
Atoms. Timestep: 4896
N 15 58 0 
N 64 72 0 
N 71 21 0 
N 44 92 0 
N 7 5 0 
O 45 89 0 
6
Atoms. Timestep: 4897
N 15 57 0 
N 63 72 0 
N 71 22 0 
N 44 91 0 
N 8 5 0 
O 45 88 0 
6
Atoms. Timestep: 4898
N 15 56 0 
N 62 72 0 
N 70 22 0 
N 44 90 0 
N 7 5 0 
O 45 87 0 
6
Atoms. Timestep: 4899
N 15 55 0 
N 61 72 0 
N 69 22 0 
N 44 89 0 
N 6 5 0 
O 45 86 0 
6
Atoms. Timestep: 4900
N 15 54 0 
N 60 72 0 
N 68 22 0 
N 44 88 0 
N 7 5 0 
O 45 85 0 
6
Atoms. Timestep: 4901
N 15 53 0 
N 59 72 0 
N 67 22 0 
N 44 87 0 
N 6 5 0 
O 45 84 0 
6
Atoms. Timestep: 4902
N 15 52 0 
N 58 72 0 
N 67 23 0 
N 44 86 0 
N 7 5 0 
O 45 83 0 
6
Atoms. Timestep: 4903
N 15 51 0 
N 57 72 0 
N 66 23 0 
N 44 85 0 
N 6 5 0 
O 45 82 0 
6
Atoms. Timestep: 4904
N 15 50 0 
N 56 72 0 
N 65 23 0 
N 44 84 0 
N 5 5 0 
O 45 81 0 
6
Atoms. Timestep: 4905
N 15 49 0 
N 55 72 0 
N 64 23 0 
N 44 83 0 
N 6 5 0 
O 45 80 0 
6
Atoms. Timestep: 4906
N 15 48 0 
N 54 72 0 
N 63 23 0 
N 44 82 0 
N 5 5 0 
O 45 79 0 
6
Atoms. Timestep: 4907
N 15 47 0 
N 53 72 0 
N 63 24 0 
N 44 81 0 
N 5 4 0 
O 45 78 0 
6
Atoms. Timestep: 4908
N 15 46 0 
N 52 72 0 
N 62 24 0 
N 44 80 0 
N 5 3 0 
O 45 77 0 
6
Atoms. Timestep: 4909
N 15 45 0 
N 51 72 0 
N 62 25 0 
N 44 79 0 
N 5 2 0 
O 45 76 0 
6
Atoms. Timestep: 4910
N 15 44 0 
N 50 72 0 
N 62 24 0 
N 44 78 0 
N 5 1 0 
O 45 75 0 
6
Atoms. Timestep: 4911
N 15 43 0 
N 49 72 0 
N 62 23 0 
N 44 77 0 
N 5 0 0 
O 45 74 0 
6
Atoms. Timestep: 4912
N 14 43 0 
N 48 72 0 
N 61 23 0 
N 44 76 0 
N 5 99 0 
O 45 73 0 
6
Atoms. Timestep: 4913
N 13 43 0 
N 47 72 0 
N 61 22 0 
N 44 75 0 
N 5 98 0 
O 44 73 0 
6
Atoms. Timestep: 4914
N 12 43 0 
N 48 72 0 
N 61 23 0 
N 44 74 0 
N 5 97 0 
O 44 72 0 
6
Atoms. Timestep: 4915
N 11 43 0 
N 49 72 0 
N 61 22 0 
N 44 73 0 
N 4 97 0 
O 44 71 0 
6
Atoms. Timestep: 4916
N 10 43 0 
N 50 72 0 
N 60 22 0 
N 44 72 0 
N 4 96 0 
O 44 70 0 
6
Atoms. Timestep: 4917
N 11 43 0 
N 51 72 0 
N 61 22 0 
N 44 71 0 
N 3 96 0 
O 44 69 0 
6
Atoms. Timestep: 4918
N 10 43 0 
N 52 72 0 
N 60 22 0 
N 44 70 0 
N 3 95 0 
O 44 68 0 
6
Atoms. Timestep: 4919
N 9 43 0 
N 53 72 0 
N 60 23 0 
N 44 69 0 
N 3 94 0 
O 44 67 0 
6
Atoms. Timestep: 4920
N 10 43 0 
N 54 72 0 
N 60 24 0 
N 44 68 0 
N 2 94 0 
O 44 66 0 
6
Atoms. Timestep: 4921
N 9 43 0 
N 55 72 0 
N 60 25 0 
N 44 67 0 
N 2 93 0 
O 44 65 0 
6
Atoms. Timestep: 4922
N 8 43 0 
N 56 72 0 
N 60 26 0 
N 44 66 0 
N 2 92 0 
O 44 64 0 
6
Atoms. Timestep: 4923
N 9 43 0 
N 57 72 0 
N 60 27 0 
N 44 65 0 
N 2 93 0 
O 44 63 0 
6
Atoms. Timestep: 4924
N 8 43 0 
N 58 72 0 
N 60 28 0 
N 44 64 0 
N 3 93 0 
O 44 62 0 
6
Atoms. Timestep: 4925
N 9 43 0 
N 59 72 0 
N 60 29 0 
N 44 63 0 
N 4 93 0 
O 44 61 0 
6
Atoms. Timestep: 4926
N 8 43 0 
N 60 72 0 
N 60 30 0 
N 44 62 0 
N 5 93 0 
O 44 60 0 
6
Atoms. Timestep: 4927
N 9 43 0 
N 61 72 0 
N 60 29 0 
N 44 61 0 
N 6 93 0 
O 44 59 0 
6
Atoms. Timestep: 4928
N 8 43 0 
N 62 72 0 
N 60 28 0 
N 44 60 0 
N 7 93 0 
O 44 58 0 
6
Atoms. Timestep: 4929
N 7 43 0 
N 63 72 0 
N 60 27 0 
N 44 59 0 
N 8 93 0 
O 44 57 0 
6
Atoms. Timestep: 4930
N 6 43 0 
N 64 72 0 
N 60 26 0 
N 44 58 0 
N 9 93 0 
O 44 56 0 
6
Atoms. Timestep: 4931
N 5 43 0 
N 65 72 0 
N 60 25 0 
N 44 57 0 
N 10 93 0 
O 44 55 0 
6
Atoms. Timestep: 4932
N 6 43 0 
N 66 72 0 
N 60 24 0 
N 44 56 0 
N 11 93 0 
O 44 54 0 
6
Atoms. Timestep: 4933
N 5 43 0 
N 67 72 0 
N 60 23 0 
N 44 55 0 
N 12 93 0 
O 44 53 0 
6
Atoms. Timestep: 4934
N 4 43 0 
N 68 72 0 
N 60 22 0 
N 44 54 0 
N 13 93 0 
O 44 52 0 
6
Atoms. Timestep: 4935
N 3 43 0 
N 69 72 0 
N 60 21 0 
N 44 53 0 
N 14 93 0 
O 44 51 0 
6
Atoms. Timestep: 4936
N 2 43 0 
N 70 72 0 
N 60 20 0 
N 44 52 0 
N 15 93 0 
O 44 50 0 
6
Atoms. Timestep: 4937
N 3 43 0 
N 71 72 0 
N 60 19 0 
N 44 51 0 
N 16 93 0 
O 44 49 0 
6
Atoms. Timestep: 4938
N 2 43 0 
N 72 72 0 
N 60 18 0 
N 44 50 0 
N 17 93 0 
O 44 48 0 
6
Atoms. Timestep: 4939
N 2 42 0 
N 73 72 0 
N 60 17 0 
N 44 49 0 
N 18 93 0 
O 44 47 0 
6
Atoms. Timestep: 4940
N 2 41 0 
N 74 72 0 
N 60 16 0 
N 44 48 0 
N 17 93 0 
O 44 46 0 
6
Atoms. Timestep: 4941
N 2 40 0 
N 75 72 0 
N 60 15 0 
N 44 47 0 
N 18 93 0 
O 44 45 0 
6
Atoms. Timestep: 4942
N 2 39 0 
N 76 72 0 
N 60 14 0 
N 44 46 0 
N 19 93 0 
O 44 44 0 
6
Atoms. Timestep: 4943
N 2 38 0 
N 77 72 0 
N 60 13 0 
N 44 45 0 
N 18 93 0 
O 44 43 0 
6
Atoms. Timestep: 4944
N 1 38 0 
N 77 73 0 
N 60 12 0 
N 44 44 0 
N 19 93 0 
O 44 42 0 
6
Atoms. Timestep: 4945
N 1 37 0 
N 77 72 0 
N 60 11 0 
N 44 43 0 
N 18 93 0 
O 44 41 0 
6
Atoms. Timestep: 4946
N 1 36 0 
N 77 71 0 
N 60 10 0 
N 44 42 0 
N 17 93 0 
O 44 40 0 
6
Atoms. Timestep: 4947
N 1 35 0 
N 77 70 0 
N 60 9 0 
N 44 41 0 
N 17 92 0 
O 44 39 0 
6
Atoms. Timestep: 4948
N 1 34 0 
N 77 69 0 
N 60 8 0 
N 44 40 0 
N 17 91 0 
O 44 38 0 
6
Atoms. Timestep: 4949
N 1 33 0 
N 77 68 0 
N 60 7 0 
N 44 39 0 
N 17 90 0 
O 44 37 0 
6
Atoms. Timestep: 4950
N 1 32 0 
N 77 67 0 
N 60 6 0 
N 44 38 0 
N 17 89 0 
O 44 36 0 
6
Atoms. Timestep: 4951
N 1 31 0 
N 77 66 0 
N 60 5 0 
N 44 37 0 
N 17 88 0 
O 44 35 0 
6
Atoms. Timestep: 4952
N 1 30 0 
N 77 65 0 
N 60 4 0 
N 44 36 0 
N 17 87 0 
O 44 34 0 
6
Atoms. Timestep: 4953
N 1 29 0 
N 77 64 0 
N 60 3 0 
N 44 35 0 
N 17 86 0 
O 44 33 0 
6
Atoms. Timestep: 4954
N 1 28 0 
N 77 63 0 
N 60 2 0 
N 44 34 0 
N 17 85 0 
O 44 32 0 
6
Atoms. Timestep: 4955
N 1 27 0 
N 77 62 0 
N 60 1 0 
N 44 33 0 
N 17 84 0 
O 44 31 0 
6
Atoms. Timestep: 4956
N 1 26 0 
N 77 61 0 
N 60 0 0 
N 44 32 0 
N 17 83 0 
O 44 30 0 
6
Atoms. Timestep: 4957
N 1 25 0 
N 77 60 0 
N 60 99 0 
N 44 31 0 
N 17 82 0 
O 44 29 0 
6
Atoms. Timestep: 4958
N 1 24 0 
N 77 59 0 
N 60 98 0 
N 44 30 0 
N 17 81 0 
O 44 28 0 
6
Atoms. Timestep: 4959
N 1 23 0 
N 77 58 0 
N 60 97 0 
N 44 29 0 
N 17 80 0 
O 44 27 0 
6
Atoms. Timestep: 4960
N 1 22 0 
N 77 57 0 
N 60 96 0 
N 44 28 0 
N 17 79 0 
O 44 26 0 
6
Atoms. Timestep: 4961
N 1 21 0 
N 77 56 0 
N 60 95 0 
N 44 27 0 
N 17 78 0 
O 44 25 0 
6
Atoms. Timestep: 4962
N 1 20 0 
N 77 55 0 
N 60 94 0 
N 44 26 0 
N 17 77 0 
O 44 24 0 
6
Atoms. Timestep: 4963
N 1 19 0 
N 77 54 0 
N 60 93 0 
N 44 25 0 
N 17 76 0 
O 44 23 0 
6
Atoms. Timestep: 4964
N 1 18 0 
N 77 53 0 
N 60 92 0 
N 44 24 0 
N 17 75 0 
O 44 22 0 
6
Atoms. Timestep: 4965
N 1 17 0 
N 77 52 0 
N 60 91 0 
N 44 23 0 
N 17 74 0 
O 44 21 0 
6
Atoms. Timestep: 4966
N 1 16 0 
N 77 51 0 
N 60 90 0 
N 44 22 0 
N 17 73 0 
O 44 20 0 
6
Atoms. Timestep: 4967
N 1 15 0 
N 77 50 0 
N 60 89 0 
N 44 21 0 
N 17 72 0 
O 44 19 0 
6
Atoms. Timestep: 4968
N 1 14 0 
N 77 49 0 
N 60 88 0 
N 44 20 0 
N 17 71 0 
O 44 18 0 
6
Atoms. Timestep: 4969
N 1 13 0 
N 77 48 0 
N 60 87 0 
N 44 19 0 
N 17 70 0 
O 44 17 0 
6
Atoms. Timestep: 4970
N 1 12 0 
N 77 47 0 
N 60 86 0 
N 44 18 0 
N 17 69 0 
O 44 16 0 
6
Atoms. Timestep: 4971
N 1 11 0 
N 77 46 0 
N 60 85 0 
N 44 17 0 
N 17 68 0 
O 44 15 0 
6
Atoms. Timestep: 4972
N 1 10 0 
N 77 45 0 
N 60 84 0 
N 44 16 0 
N 17 67 0 
O 44 14 0 
6
Atoms. Timestep: 4973
N 1 9 0 
N 77 44 0 
N 60 83 0 
N 44 15 0 
N 17 66 0 
O 44 13 0 
6
Atoms. Timestep: 4974
N 1 10 0 
N 77 43 0 
N 60 82 0 
N 44 14 0 
N 17 65 0 
O 44 12 0 
6
Atoms. Timestep: 4975
N 1 9 0 
N 77 44 0 
N 60 81 0 
N 44 13 0 
N 18 65 0 
O 44 11 0 
6
Atoms. Timestep: 4976
N 1 8 0 
N 77 43 0 
N 60 80 0 
N 44 12 0 
N 17 65 0 
O 44 10 0 
6
Atoms. Timestep: 4977
N 1 7 0 
N 77 42 0 
N 60 79 0 
N 44 11 0 
N 17 64 0 
O 44 9 0 
6
Atoms. Timestep: 4978
N 1 6 0 
N 77 41 0 
N 60 78 0 
N 44 10 0 
N 17 63 0 
O 44 8 0 
6
Atoms. Timestep: 4979
N 1 5 0 
N 77 40 0 
N 60 77 0 
N 44 9 0 
N 17 62 0 
O 44 7 0 
6
Atoms. Timestep: 4980
N 1 4 0 
N 77 39 0 
N 60 76 0 
N 44 8 0 
N 17 61 0 
O 44 6 0 
6
Atoms. Timestep: 4981
N 1 3 0 
N 77 38 0 
N 60 75 0 
N 44 7 0 
N 17 60 0 
O 44 5 0 
6
Atoms. Timestep: 4982
N 1 2 0 
N 77 37 0 
N 60 74 0 
N 44 6 0 
N 17 59 0 
O 44 4 0 
6
Atoms. Timestep: 4983
N 1 1 0 
N 77 36 0 
N 60 73 0 
N 44 5 0 
N 17 58 0 
O 44 3 0 
6
Atoms. Timestep: 4984
N 1 0 0 
N 77 35 0 
N 60 72 0 
N 44 4 0 
N 17 57 0 
O 44 2 0 
6
Atoms. Timestep: 4985
N 1 99 0 
N 77 34 0 
N 60 71 0 
N 44 3 0 
N 17 56 0 
O 44 1 0 
6
Atoms. Timestep: 4986
N 1 98 0 
N 77 33 0 
N 60 70 0 
N 44 2 0 
N 17 55 0 
O 44 0 0 
6
Atoms. Timestep: 4987
N 1 97 0 
N 77 32 0 
N 60 69 0 
N 44 1 0 
N 17 54 0 
O 44 99 0 
6
Atoms. Timestep: 4988
N 1 96 0 
N 77 31 0 
N 60 68 0 
N 44 0 0 
N 17 53 0 
O 44 98 0 
6
Atoms. Timestep: 4989
N 1 95 0 
N 77 30 0 
N 60 67 0 
N 44 99 0 
N 17 52 0 
O 44 97 0 
6
Atoms. Timestep: 4990
N 1 94 0 
N 77 29 0 
N 60 66 0 
N 44 98 0 
N 17 51 0 
O 44 96 0 
6
Atoms. Timestep: 4991
N 1 93 0 
N 77 28 0 
N 60 65 0 
N 44 97 0 
N 17 50 0 
O 44 95 0 
6
Atoms. Timestep: 4992
N 1 92 0 
N 77 27 0 
N 60 64 0 
N 44 96 0 
N 17 49 0 
O 44 94 0 
6
Atoms. Timestep: 4993
N 1 91 0 
N 77 26 0 
N 60 63 0 
N 44 95 0 
N 17 48 0 
O 44 93 0 
6
Atoms. Timestep: 4994
N 1 90 0 
N 77 25 0 
N 60 62 0 
N 44 94 0 
N 17 47 0 
O 44 92 0 
6
Atoms. Timestep: 4995
N 1 89 0 
N 77 24 0 
N 60 61 0 
N 44 93 0 
N 17 46 0 
O 44 91 0 
6
Atoms. Timestep: 4996
N 1 88 0 
N 77 23 0 
N 60 60 0 
N 44 92 0 
N 17 45 0 
O 44 90 0 
6
Atoms. Timestep: 4997
N 1 87 0 
N 77 22 0 
N 60 59 0 
N 44 91 0 
N 17 44 0 
O 44 89 0 
6
Atoms. Timestep: 4998
N 1 86 0 
N 76 22 0 
N 60 58 0 
N 44 90 0 
N 17 43 0 
O 44 88 0 
6
Atoms. Timestep: 4999
N 1 85 0 
N 76 21 0 
N 60 57 0 
N 44 89 0 
N 17 42 0 
O 44 87 0 
6
Atoms. Timestep: 5000
N 1 84 0 
N 76 20 0 
N 60 56 0 
N 44 88 0 
N 17 41 0 
O 44 86 0 
6
Atoms. Timestep: 5001
N 1 83 0 
N 76 19 0 
N 60 55 0 
N 44 87 0 
N 17 40 0 
O 44 85 0 
6
Atoms. Timestep: 5002
N 1 82 0 
N 76 18 0 
N 60 54 0 
N 44 86 0 
N 17 39 0 
O 44 84 0 
6
Atoms. Timestep: 5003
N 1 81 0 
N 76 17 0 
N 60 53 0 
N 44 85 0 
N 17 38 0 
O 44 83 0 
6
Atoms. Timestep: 5004
N 1 80 0 
N 76 16 0 
N 60 52 0 
N 44 84 0 
N 17 37 0 
O 44 82 0 
6
Atoms. Timestep: 5005
N 1 79 0 
N 76 15 0 
N 60 51 0 
N 44 83 0 
N 17 36 0 
O 44 81 0 
6
Atoms. Timestep: 5006
N 1 78 0 
N 76 14 0 
N 60 50 0 
N 44 82 0 
N 17 35 0 
O 44 80 0 
6
Atoms. Timestep: 5007
N 1 77 0 
N 76 13 0 
N 60 49 0 
N 44 81 0 
N 17 34 0 
O 44 79 0 
6
Atoms. Timestep: 5008
N 1 76 0 
N 76 12 0 
N 60 48 0 
N 44 80 0 
N 17 33 0 
O 44 78 0 
6
Atoms. Timestep: 5009
N 0 76 0 
N 76 11 0 
N 60 47 0 
N 44 79 0 
N 17 32 0 
O 44 77 0 
6
Atoms. Timestep: 5010
N 0 75 0 
N 76 10 0 
N 60 46 0 
N 44 78 0 
N 16 32 0 
O 44 76 0 
6
Atoms. Timestep: 5011
N 0 74 0 
N 76 9 0 
N 60 47 0 
N 44 77 0 
N 16 31 0 
O 44 75 0 
6
Atoms. Timestep: 5012
N 0 73 0 
N 76 10 0 
N 60 48 0 
N 44 76 0 
N 16 30 0 
O 44 74 0 
6
Atoms. Timestep: 5013
N 0 72 0 
N 76 9 0 
N 60 49 0 
N 44 75 0 
N 17 30 0 
O 44 73 0 
6
Atoms. Timestep: 5014
N 0 71 0 
N 76 10 0 
N 60 50 0 
N 44 74 0 
N 17 29 0 
O 44 72 0 
6
Atoms. Timestep: 5015
N 0 70 0 
N 76 9 0 
N 60 51 0 
N 44 73 0 
N 17 28 0 
O 44 71 0 
6
Atoms. Timestep: 5016
N 1 70 0 
N 75 9 0 
N 60 52 0 
N 44 72 0 
N 17 27 0 
O 44 70 0 
6
Atoms. Timestep: 5017
N 0 70 0 
N 75 8 0 
N 60 51 0 
N 44 71 0 
N 17 26 0 
O 44 69 0 
6
Atoms. Timestep: 5018
N 0 69 0 
N 75 7 0 
N 60 50 0 
N 44 70 0 
N 18 26 0 
O 44 68 0 
6
Atoms. Timestep: 5019
N 0 68 0 
N 75 6 0 
N 60 49 0 
N 44 69 0 
N 18 25 0 
O 44 67 0 
6
Atoms. Timestep: 5020
N 0 67 0 
N 75 5 0 
N 60 48 0 
N 44 68 0 
N 18 24 0 
O 44 66 0 
6
Atoms. Timestep: 5021
N 0 66 0 
N 75 4 0 
N 60 47 0 
N 44 67 0 
N 18 23 0 
O 44 65 0 
6
Atoms. Timestep: 5022
N 0 65 0 
N 75 3 0 
N 60 46 0 
N 44 66 0 
N 18 22 0 
O 44 64 0 
6
Atoms. Timestep: 5023
N 0 64 0 
N 75 2 0 
N 60 45 0 
N 44 65 0 
N 18 21 0 
O 44 63 0 
6
Atoms. Timestep: 5024
N 0 63 0 
N 75 1 0 
N 60 44 0 
N 44 64 0 
N 18 20 0 
O 44 62 0 
6
Atoms. Timestep: 5025
N 0 62 0 
N 75 0 0 
N 60 43 0 
N 44 63 0 
N 18 19 0 
O 44 61 0 
6
Atoms. Timestep: 5026
N 0 61 0 
N 75 99 0 
N 60 42 0 
N 44 62 0 
N 18 18 0 
O 44 60 0 
6
Atoms. Timestep: 5027
N 0 60 0 
N 75 98 0 
N 60 41 0 
N 44 61 0 
N 18 17 0 
O 44 59 0 
6
Atoms. Timestep: 5028
N 0 59 0 
N 75 97 0 
N 60 40 0 
N 44 60 0 
N 18 16 0 
O 44 58 0 
6
Atoms. Timestep: 5029
N 0 58 0 
N 75 96 0 
N 60 39 0 
N 44 59 0 
N 18 15 0 
O 44 57 0 
6
Atoms. Timestep: 5030
N 0 57 0 
N 75 95 0 
N 60 38 0 
N 44 58 0 
N 18 14 0 
O 44 56 0 
6
Atoms. Timestep: 5031
N 0 56 0 
N 75 94 0 
N 60 37 0 
N 44 57 0 
N 18 13 0 
O 44 55 0 
6
Atoms. Timestep: 5032
N 0 55 0 
N 75 93 0 
N 60 36 0 
N 44 56 0 
N 18 12 0 
O 44 54 0 
6
Atoms. Timestep: 5033
N 0 54 0 
N 75 92 0 
N 60 35 0 
N 44 55 0 
N 18 11 0 
O 44 53 0 
6
Atoms. Timestep: 5034
N 0 53 0 
N 75 91 0 
N 60 34 0 
N 44 54 0 
N 18 10 0 
O 44 52 0 
6
Atoms. Timestep: 5035
N 0 52 0 
N 75 90 0 
N 60 33 0 
N 44 53 0 
N 18 9 0 
O 44 51 0 
6
Atoms. Timestep: 5036
N 1 52 0 
N 75 91 0 
N 60 34 0 
N 44 52 0 
N 18 8 0 
O 44 50 0 
6
Atoms. Timestep: 5037
N 0 52 0 
N 75 92 0 
N 60 35 0 
N 44 51 0 
N 19 8 0 
O 44 49 0 
6
Atoms. Timestep: 5038
N 1 52 0 
N 75 91 0 
N 61 35 0 
N 44 50 0 
N 20 8 0 
O 44 48 0 
6
Atoms. Timestep: 5039
N 0 52 0 
N 75 92 0 
N 60 35 0 
N 44 49 0 
N 20 9 0 
O 44 47 0 
6
Atoms. Timestep: 5040
N 1 52 0 
N 75 91 0 
N 61 35 0 
N 44 48 0 
N 20 10 0 
O 44 46 0 
6
Atoms. Timestep: 5041
N 2 52 0 
N 75 90 0 
N 62 35 0 
N 44 47 0 
N 20 11 0 
O 44 45 0 
6
Atoms. Timestep: 5042
N 1 52 0 
N 75 91 0 
N 61 35 0 
N 44 46 0 
N 20 12 0 
O 44 44 0 
6
Atoms. Timestep: 5043
N 2 52 0 
N 75 90 0 
N 62 35 0 
N 44 45 0 
N 20 13 0 
O 44 43 0 
6
Atoms. Timestep: 5044
N 1 52 0 
N 75 91 0 
N 61 35 0 
N 44 44 0 
N 20 14 0 
O 44 42 0 
6
Atoms. Timestep: 5045
N 1 53 0 
N 75 90 0 
N 62 35 0 
N 44 43 0 
N 20 15 0 
O 44 41 0 
6
Atoms. Timestep: 5046
N 1 54 0 
N 75 91 0 
N 61 35 0 
N 44 42 0 
N 20 16 0 
O 44 40 0 
6
Atoms. Timestep: 5047
N 1 55 0 
N 75 92 0 
N 60 35 0 
N 44 41 0 
N 21 16 0 
O 44 39 0 
6
Atoms. Timestep: 5048
N 2 55 0 
N 75 93 0 
N 61 35 0 
N 44 40 0 
N 22 16 0 
O 44 38 0 
6
Atoms. Timestep: 5049
N 3 55 0 
N 75 92 0 
N 62 35 0 
N 44 39 0 
N 23 16 0 
O 44 37 0 
6
Atoms. Timestep: 5050
N 3 56 0 
N 75 91 0 
N 63 35 0 
N 44 38 0 
N 23 17 0 
O 44 36 0 
6
Atoms. Timestep: 5051
N 4 56 0 
N 75 92 0 
N 64 35 0 
N 44 37 0 
N 24 17 0 
O 44 35 0 
6
Atoms. Timestep: 5052
N 5 56 0 
N 75 91 0 
N 65 35 0 
N 44 36 0 
N 25 17 0 
O 44 34 0 
6
Atoms. Timestep: 5053
N 6 56 0 
N 75 90 0 
N 66 35 0 
N 44 35 0 
N 26 17 0 
O 44 33 0 
6
Atoms. Timestep: 5054
N 5 56 0 
N 75 89 0 
N 67 35 0 
N 44 34 0 
N 27 17 0 
O 44 32 0 
6
Atoms. Timestep: 5055
N 6 56 0 
N 75 90 0 
N 68 35 0 
N 44 33 0 
N 28 17 0 
O 44 31 0 
6
Atoms. Timestep: 5056
N 7 56 0 
N 75 89 0 
N 69 35 0 
N 44 32 0 
N 29 17 0 
O 44 30 0 
6
Atoms. Timestep: 5057
N 8 56 0 
N 75 90 0 
N 70 35 0 
N 44 31 0 
N 30 17 0 
O 44 29 0 
6
Atoms. Timestep: 5058
N 9 56 0 
N 75 89 0 
N 71 35 0 
N 44 30 0 
N 31 17 0 
O 44 28 0 
6
Atoms. Timestep: 5059
N 10 56 0 
N 75 88 0 
N 72 35 0 
N 44 29 0 
N 32 17 0 
O 44 27 0 
6
Atoms. Timestep: 5060
N 11 56 0 
N 74 88 0 
N 73 35 0 
N 44 28 0 
N 33 17 0 
O 44 26 0 
6
Atoms. Timestep: 5061
N 12 56 0 
N 74 87 0 
N 74 35 0 
N 44 27 0 
N 34 17 0 
O 44 25 0 
6
Atoms. Timestep: 5062
N 13 56 0 
N 74 86 0 
N 75 35 0 
N 44 26 0 
N 35 17 0 
O 44 24 0 
6
Atoms. Timestep: 5063
N 14 56 0 
N 74 87 0 
N 76 35 0 
N 44 25 0 
N 36 17 0 
O 44 23 0 
6
Atoms. Timestep: 5064
N 15 56 0 
N 74 88 0 
N 77 35 0 
N 44 24 0 
N 37 17 0 
O 44 22 0 
6
Atoms. Timestep: 5065
N 16 56 0 
N 74 89 0 
N 78 35 0 
N 44 23 0 
N 38 17 0 
O 44 21 0 
6
Atoms. Timestep: 5066
N 17 56 0 
N 74 90 0 
N 79 35 0 
N 44 22 0 
N 39 17 0 
O 44 20 0 
6
Atoms. Timestep: 5067
N 18 56 0 
N 73 90 0 
N 80 35 0 
N 44 21 0 
N 40 17 0 
O 44 19 0 
6
Atoms. Timestep: 5068
N 19 56 0 
N 73 89 0 
N 81 35 0 
N 44 20 0 
N 41 17 0 
O 44 18 0 
6
Atoms. Timestep: 5069
N 20 56 0 
N 73 88 0 
N 82 35 0 
N 44 19 0 
N 42 17 0 
O 44 17 0 
6
Atoms. Timestep: 5070
N 21 56 0 
N 73 87 0 
N 83 35 0 
N 44 18 0 
N 42 16 0 
O 44 16 0 
6
Atoms. Timestep: 5071
N 22 56 0 
N 73 86 0 
N 84 35 0 
N 44 17 0 
N 41 16 0 
O 44 15 0 
6
Atoms. Timestep: 5072
N 22 57 0 
N 73 85 0 
N 83 35 0 
N 44 16 0 
N 40 16 0 
O 44 14 0 
6
Atoms. Timestep: 5073
N 23 57 0 
N 73 84 0 
N 84 35 0 
N 44 15 0 
N 39 16 0 
O 44 13 0 
6
Atoms. Timestep: 5074
N 23 58 0 
N 73 83 0 
N 83 35 0 
N 44 14 0 
N 38 16 0 
O 44 12 0 
6
Atoms. Timestep: 5075
N 23 59 0 
N 73 82 0 
N 84 35 0 
N 44 13 0 
N 37 16 0 
O 44 11 0 
6
Atoms. Timestep: 5076
N 23 60 0 
N 73 81 0 
N 83 35 0 
N 44 12 0 
N 36 16 0 
O 44 10 0 
6
Atoms. Timestep: 5077
N 23 61 0 
N 73 80 0 
N 84 35 0 
N 44 11 0 
N 35 16 0 
O 44 9 0 
6
Atoms. Timestep: 5078
N 23 62 0 
N 73 79 0 
N 83 35 0 
N 44 10 0 
N 34 16 0 
O 44 8 0 
6
Atoms. Timestep: 5079
N 23 63 0 
N 73 78 0 
N 83 34 0 
N 44 9 0 
N 33 16 0 
O 44 7 0 
6
Atoms. Timestep: 5080
N 23 64 0 
N 73 77 0 
N 83 33 0 
N 44 8 0 
N 32 16 0 
O 44 6 0 
6
Atoms. Timestep: 5081
N 23 65 0 
N 73 76 0 
N 83 32 0 
N 44 7 0 
N 31 16 0 
O 44 5 0 
6
Atoms. Timestep: 5082
N 23 66 0 
N 73 75 0 
N 83 31 0 
N 44 6 0 
N 30 16 0 
O 44 4 0 
6
Atoms. Timestep: 5083
N 23 67 0 
N 73 74 0 
N 83 30 0 
N 44 5 0 
N 29 16 0 
O 44 3 0 
6
Atoms. Timestep: 5084
N 23 68 0 
N 73 73 0 
N 83 29 0 
N 44 4 0 
N 28 16 0 
O 44 2 0 
6
Atoms. Timestep: 5085
N 23 69 0 
N 73 72 0 
N 83 28 0 
N 44 3 0 
N 27 16 0 
O 44 1 0 
6
Atoms. Timestep: 5086
N 23 70 0 
N 73 71 0 
N 82 28 0 
N 44 2 0 
N 26 16 0 
O 44 0 0 
6
Atoms. Timestep: 5087
N 23 71 0 
N 73 70 0 
N 82 27 0 
N 44 1 0 
N 25 16 0 
O 44 99 0 
6
Atoms. Timestep: 5088
N 23 70 0 
N 73 69 0 
N 82 26 0 
N 44 0 0 
N 24 16 0 
O 44 98 0 
6
Atoms. Timestep: 5089
N 23 69 0 
N 73 68 0 
N 81 26 0 
N 44 99 0 
N 23 16 0 
O 44 97 0 
6
Atoms. Timestep: 5090
N 23 68 0 
N 73 67 0 
N 81 25 0 
N 44 98 0 
N 22 16 0 
O 44 96 0 
6
Atoms. Timestep: 5091
N 23 67 0 
N 74 67 0 
N 80 25 0 
N 44 97 0 
N 21 16 0 
O 44 95 0 
6
Atoms. Timestep: 5092
N 23 66 0 
N 75 67 0 
N 79 25 0 
N 44 96 0 
N 20 16 0 
O 44 94 0 
6
Atoms. Timestep: 5093
N 23 65 0 
N 76 67 0 
N 78 25 0 
N 44 95 0 
N 19 16 0 
O 44 93 0 
6
Atoms. Timestep: 5094
N 23 64 0 
N 77 67 0 
N 77 25 0 
N 44 94 0 
N 18 16 0 
O 44 92 0 
6
Atoms. Timestep: 5095
N 23 63 0 
N 76 67 0 
N 76 25 0 
N 44 93 0 
N 17 16 0 
O 44 91 0 
6
Atoms. Timestep: 5096
N 23 62 0 
N 77 67 0 
N 75 25 0 
N 44 92 0 
N 16 16 0 
O 44 90 0 
6
Atoms. Timestep: 5097
N 23 61 0 
N 78 67 0 
N 74 25 0 
N 44 91 0 
N 15 16 0 
O 44 89 0 
6
Atoms. Timestep: 5098
N 23 60 0 
N 77 67 0 
N 73 25 0 
N 44 90 0 
N 14 16 0 
O 44 88 0 
6
Atoms. Timestep: 5099
N 23 59 0 
N 78 67 0 
N 73 26 0 
N 44 89 0 
N 13 16 0 
O 44 87 0 
6
Atoms. Timestep: 5100
N 23 58 0 
N 79 67 0 
N 73 25 0 
N 44 88 0 
N 14 16 0 
O 44 86 0 
6
Atoms. Timestep: 5101
N 24 58 0 
N 78 67 0 
N 73 24 0 
N 44 87 0 
N 15 16 0 
O 44 85 0 
6
Atoms. Timestep: 5102
N 24 59 0 
N 79 67 0 
N 72 24 0 
N 44 86 0 
N 15 17 0 
O 44 84 0 
6
Atoms. Timestep: 5103
N 24 58 0 
N 78 67 0 
N 72 23 0 
N 44 85 0 
N 15 16 0 
O 44 83 0 
6
Atoms. Timestep: 5104
N 24 57 0 
N 77 67 0 
N 71 23 0 
N 44 84 0 
N 15 15 0 
O 44 82 0 
6
Atoms. Timestep: 5105
N 24 56 0 
N 78 67 0 
N 71 22 0 
N 44 83 0 
N 15 14 0 
O 44 81 0 
6
Atoms. Timestep: 5106
N 24 55 0 
N 77 67 0 
N 70 22 0 
N 44 82 0 
N 15 13 0 
O 44 80 0 
6
Atoms. Timestep: 5107
N 24 54 0 
N 78 67 0 
N 70 21 0 
N 44 81 0 
N 15 12 0 
O 44 79 0 
6
Atoms. Timestep: 5108
N 24 53 0 
N 79 67 0 
N 70 20 0 
N 44 80 0 
N 15 11 0 
O 44 78 0 
6
Atoms. Timestep: 5109
N 24 52 0 
N 78 67 0 
N 69 20 0 
N 44 79 0 
N 15 10 0 
O 44 77 0 
6
Atoms. Timestep: 5110
N 24 51 0 
N 79 67 0 
N 69 19 0 
N 44 78 0 
N 15 9 0 
O 44 76 0 
6
Atoms. Timestep: 5111
N 24 50 0 
N 80 67 0 
N 68 19 0 
N 44 77 0 
N 15 8 0 
O 44 75 0 
6
Atoms. Timestep: 5112
N 24 49 0 
N 79 67 0 
N 67 19 0 
N 44 76 0 
N 15 7 0 
O 44 74 0 
6
Atoms. Timestep: 5113
N 24 48 0 
N 80 67 0 
N 67 18 0 
N 44 75 0 
N 15 6 0 
O 44 73 0 
6
Atoms. Timestep: 5114
N 24 47 0 
N 81 67 0 
N 67 19 0 
N 44 74 0 
N 15 5 0 
O 44 72 0 
6
Atoms. Timestep: 5115
N 24 46 0 
N 82 67 0 
N 67 18 0 
N 44 73 0 
N 15 4 0 
O 44 71 0 
6
Atoms. Timestep: 5116
N 24 45 0 
N 83 67 0 
N 66 18 0 
N 44 72 0 
N 15 3 0 
O 44 70 0 
6
Atoms. Timestep: 5117
N 24 44 0 
N 84 67 0 
N 67 18 0 
N 44 71 0 
N 15 2 0 
O 44 69 0 
6
Atoms. Timestep: 5118
N 24 43 0 
N 85 67 0 
N 68 18 0 
N 44 70 0 
N 15 1 0 
O 44 68 0 
6
Atoms. Timestep: 5119
N 24 42 0 
N 86 67 0 
N 69 18 0 
N 44 69 0 
N 15 0 0 
O 44 67 0 
6
Atoms. Timestep: 5120
N 24 41 0 
N 87 67 0 
N 68 18 0 
N 44 68 0 
N 15 99 0 
O 44 66 0 
6
Atoms. Timestep: 5121
N 24 40 0 
N 87 66 0 
N 69 18 0 
N 44 67 0 
N 15 98 0 
O 44 65 0 
6
Atoms. Timestep: 5122
N 24 39 0 
N 87 65 0 
N 70 18 0 
N 44 66 0 
N 15 97 0 
O 44 64 0 
6
Atoms. Timestep: 5123
N 24 38 0 
N 87 64 0 
N 70 17 0 
N 44 65 0 
N 15 96 0 
O 44 63 0 
6
Atoms. Timestep: 5124
N 24 37 0 
N 87 63 0 
N 70 16 0 
N 44 64 0 
N 15 95 0 
O 44 62 0 
6
Atoms. Timestep: 5125
N 24 36 0 
N 87 62 0 
N 70 15 0 
N 44 63 0 
N 15 94 0 
O 44 61 0 
6
Atoms. Timestep: 5126
N 24 35 0 
N 87 61 0 
N 70 14 0 
N 44 62 0 
N 15 93 0 
O 44 60 0 
6
Atoms. Timestep: 5127
N 24 34 0 
N 87 60 0 
N 70 13 0 
N 44 61 0 
N 15 92 0 
O 44 59 0 
6
Atoms. Timestep: 5128
N 24 33 0 
N 87 59 0 
N 70 12 0 
N 44 60 0 
N 15 91 0 
O 44 58 0 
6
Atoms. Timestep: 5129
N 24 32 0 
N 87 58 0 
N 70 11 0 
N 44 59 0 
N 15 90 0 
O 44 57 0 
6
Atoms. Timestep: 5130
N 24 31 0 
N 87 57 0 
N 70 10 0 
N 44 58 0 
N 15 89 0 
O 44 56 0 
6
Atoms. Timestep: 5131
N 24 30 0 
N 87 56 0 
N 70 9 0 
N 44 57 0 
N 15 88 0 
O 44 55 0 
6
Atoms. Timestep: 5132
N 24 29 0 
N 87 55 0 
N 70 8 0 
N 44 56 0 
N 15 87 0 
O 44 54 0 
6
Atoms. Timestep: 5133
N 24 28 0 
N 87 54 0 
N 70 7 0 
N 44 55 0 
N 15 86 0 
O 44 53 0 
6
Atoms. Timestep: 5134
N 24 27 0 
N 87 53 0 
N 70 6 0 
N 44 54 0 
N 15 85 0 
O 44 52 0 
6
Atoms. Timestep: 5135
N 24 26 0 
N 87 52 0 
N 70 5 0 
N 44 53 0 
N 15 84 0 
O 44 51 0 
6
Atoms. Timestep: 5136
N 24 25 0 
N 87 51 0 
N 70 4 0 
N 44 52 0 
N 15 83 0 
O 44 50 0 
6
Atoms. Timestep: 5137
N 24 24 0 
N 87 50 0 
N 70 3 0 
N 44 51 0 
N 15 82 0 
O 44 49 0 
6
Atoms. Timestep: 5138
N 24 23 0 
N 87 49 0 
N 70 2 0 
N 44 50 0 
N 15 81 0 
O 44 48 0 
6
Atoms. Timestep: 5139
N 24 22 0 
N 87 48 0 
N 70 1 0 
N 44 49 0 
N 15 80 0 
O 44 47 0 
6
Atoms. Timestep: 5140
N 24 21 0 
N 87 47 0 
N 70 0 0 
N 44 48 0 
N 15 79 0 
O 44 46 0 
6
Atoms. Timestep: 5141
N 24 20 0 
N 87 46 0 
N 70 99 0 
N 44 47 0 
N 15 78 0 
O 44 45 0 
6
Atoms. Timestep: 5142
N 24 19 0 
N 87 45 0 
N 70 98 0 
N 44 46 0 
N 15 77 0 
O 44 44 0 
6
Atoms. Timestep: 5143
N 24 18 0 
N 87 44 0 
N 70 97 0 
N 44 45 0 
N 15 76 0 
O 44 43 0 
6
Atoms. Timestep: 5144
N 24 17 0 
N 87 43 0 
N 70 96 0 
N 44 44 0 
N 15 75 0 
O 44 42 0 
6
Atoms. Timestep: 5145
N 24 16 0 
N 87 42 0 
N 70 95 0 
N 44 43 0 
N 15 74 0 
O 44 41 0 
6
Atoms. Timestep: 5146
N 24 15 0 
N 87 41 0 
N 70 94 0 
N 44 42 0 
N 15 73 0 
O 44 40 0 
6
Atoms. Timestep: 5147
N 24 14 0 
N 87 40 0 
N 70 93 0 
N 44 41 0 
N 15 72 0 
O 44 39 0 
6
Atoms. Timestep: 5148
N 24 13 0 
N 87 39 0 
N 70 92 0 
N 44 40 0 
N 15 71 0 
O 44 38 0 
6
Atoms. Timestep: 5149
N 24 12 0 
N 87 38 0 
N 70 91 0 
N 44 39 0 
N 15 70 0 
O 44 37 0 
6
Atoms. Timestep: 5150
N 24 11 0 
N 87 37 0 
N 70 90 0 
N 44 38 0 
N 15 69 0 
O 44 36 0 
6
Atoms. Timestep: 5151
N 24 10 0 
N 87 36 0 
N 71 90 0 
N 44 37 0 
N 15 68 0 
O 44 35 0 
6
Atoms. Timestep: 5152
N 24 9 0 
N 87 35 0 
N 71 89 0 
N 44 36 0 
N 15 67 0 
O 44 34 0 
6
Atoms. Timestep: 5153
N 24 8 0 
N 87 34 0 
N 71 88 0 
N 44 35 0 
N 15 66 0 
O 44 33 0 
6
Atoms. Timestep: 5154
N 24 7 0 
N 87 33 0 
N 71 87 0 
N 44 34 0 
N 15 65 0 
O 44 32 0 
6
Atoms. Timestep: 5155
N 24 6 0 
N 87 32 0 
N 71 86 0 
N 44 33 0 
N 15 64 0 
O 44 31 0 
6
Atoms. Timestep: 5156
N 24 5 0 
N 87 31 0 
N 71 85 0 
N 44 32 0 
N 15 63 0 
O 44 30 0 
6
Atoms. Timestep: 5157
N 24 4 0 
N 87 30 0 
N 71 84 0 
N 44 31 0 
N 15 62 0 
O 44 29 0 
6
Atoms. Timestep: 5158
N 24 3 0 
N 87 29 0 
N 71 83 0 
N 44 30 0 
N 15 61 0 
O 44 28 0 
6
Atoms. Timestep: 5159
N 24 2 0 
N 87 28 0 
N 71 82 0 
N 44 29 0 
N 15 60 0 
O 44 27 0 
6
Atoms. Timestep: 5160
N 24 1 0 
N 87 27 0 
N 71 81 0 
N 44 28 0 
N 15 59 0 
O 44 26 0 
6
Atoms. Timestep: 5161
N 24 0 0 
N 87 26 0 
N 71 80 0 
N 44 27 0 
N 15 58 0 
O 44 25 0 
6
Atoms. Timestep: 5162
N 24 99 0 
N 87 25 0 
N 71 79 0 
N 44 26 0 
N 15 57 0 
O 44 24 0 
6
Atoms. Timestep: 5163
N 24 98 0 
N 87 24 0 
N 71 78 0 
N 44 25 0 
N 15 56 0 
O 44 23 0 
6
Atoms. Timestep: 5164
N 24 97 0 
N 87 23 0 
N 71 77 0 
N 44 24 0 
N 15 55 0 
O 44 22 0 
6
Atoms. Timestep: 5165
N 24 96 0 
N 87 22 0 
N 71 76 0 
N 44 23 0 
N 15 54 0 
O 44 21 0 
6
Atoms. Timestep: 5166
N 24 95 0 
N 87 21 0 
N 71 75 0 
N 44 22 0 
N 15 53 0 
O 44 20 0 
6
Atoms. Timestep: 5167
N 24 94 0 
N 87 20 0 
N 71 74 0 
N 44 21 0 
N 15 52 0 
O 44 19 0 
6
Atoms. Timestep: 5168
N 24 93 0 
N 87 19 0 
N 71 73 0 
N 44 20 0 
N 15 51 0 
O 44 18 0 
6
Atoms. Timestep: 5169
N 24 92 0 
N 87 18 0 
N 71 72 0 
N 44 19 0 
N 15 50 0 
O 44 17 0 
6
Atoms. Timestep: 5170
N 24 91 0 
N 87 17 0 
N 71 71 0 
N 44 18 0 
N 15 49 0 
O 44 16 0 
6
Atoms. Timestep: 5171
N 24 90 0 
N 87 16 0 
N 71 70 0 
N 44 17 0 
N 15 48 0 
O 44 15 0 
6
Atoms. Timestep: 5172
N 24 89 0 
N 87 15 0 
N 71 69 0 
N 44 16 0 
N 15 47 0 
O 44 14 0 
6
Atoms. Timestep: 5173
N 24 88 0 
N 87 14 0 
N 71 68 0 
N 44 15 0 
N 15 46 0 
O 44 13 0 
6
Atoms. Timestep: 5174
N 24 87 0 
N 87 13 0 
N 71 67 0 
N 44 14 0 
N 15 45 0 
O 44 12 0 
6
Atoms. Timestep: 5175
N 24 86 0 
N 87 12 0 
N 71 66 0 
N 44 13 0 
N 15 44 0 
O 44 11 0 
6
Atoms. Timestep: 5176
N 24 85 0 
N 87 11 0 
N 71 65 0 
N 44 12 0 
N 15 43 0 
O 44 10 0 
6
Atoms. Timestep: 5177
N 24 84 0 
N 87 10 0 
N 71 64 0 
N 44 11 0 
N 15 42 0 
O 44 9 0 
6
Atoms. Timestep: 5178
N 24 83 0 
N 87 9 0 
N 71 63 0 
N 44 10 0 
N 15 41 0 
O 44 8 0 
6
Atoms. Timestep: 5179
N 24 82 0 
N 87 8 0 
N 71 62 0 
N 44 9 0 
N 15 40 0 
O 44 7 0 
6
Atoms. Timestep: 5180
N 24 81 0 
N 87 7 0 
N 71 61 0 
N 44 8 0 
N 15 39 0 
O 44 6 0 
6
Atoms. Timestep: 5181
N 24 80 0 
N 87 6 0 
N 71 60 0 
N 44 7 0 
N 15 38 0 
O 44 5 0 
6
Atoms. Timestep: 5182
N 24 79 0 
N 87 5 0 
N 71 59 0 
N 44 6 0 
N 15 37 0 
O 44 4 0 
6
Atoms. Timestep: 5183
N 24 78 0 
N 87 4 0 
N 71 58 0 
N 44 5 0 
N 15 36 0 
O 44 3 0 
6
Atoms. Timestep: 5184
N 24 77 0 
N 87 3 0 
N 71 57 0 
N 44 4 0 
N 15 35 0 
O 44 2 0 
6
Atoms. Timestep: 5185
N 24 76 0 
N 87 2 0 
N 71 56 0 
N 44 3 0 
N 15 34 0 
O 44 1 0 
6
Atoms. Timestep: 5186
N 24 75 0 
N 87 1 0 
N 71 55 0 
N 44 2 0 
N 15 33 0 
O 44 0 0 
6
Atoms. Timestep: 5187
N 24 74 0 
N 87 0 0 
N 71 54 0 
N 44 1 0 
N 15 32 0 
O 44 99 0 
6
Atoms. Timestep: 5188
N 24 73 0 
N 87 99 0 
N 71 53 0 
N 44 0 0 
N 15 31 0 
O 44 98 0 
6
Atoms. Timestep: 5189
N 24 72 0 
N 87 98 0 
N 71 52 0 
N 44 99 0 
N 15 30 0 
O 44 97 0 
6
Atoms. Timestep: 5190
N 24 71 0 
N 87 97 0 
N 71 51 0 
N 44 98 0 
N 15 29 0 
O 44 96 0 
6
Atoms. Timestep: 5191
N 24 70 0 
N 87 96 0 
N 71 50 0 
N 44 97 0 
N 15 28 0 
O 44 95 0 
6
Atoms. Timestep: 5192
N 24 69 0 
N 87 95 0 
N 71 49 0 
N 44 96 0 
N 15 27 0 
O 44 94 0 
6
Atoms. Timestep: 5193
N 24 68 0 
N 88 95 0 
N 71 48 0 
N 44 95 0 
N 16 27 0 
O 44 93 0 
6
Atoms. Timestep: 5194
N 24 67 0 
N 88 94 0 
N 71 47 0 
N 44 94 0 
N 16 26 0 
O 44 92 0 
6
Atoms. Timestep: 5195
N 24 66 0 
N 88 93 0 
N 71 46 0 
N 44 93 0 
N 16 25 0 
O 44 91 0 
6
Atoms. Timestep: 5196
N 24 65 0 
N 88 92 0 
N 71 45 0 
N 44 92 0 
N 16 24 0 
O 44 90 0 
6
Atoms. Timestep: 5197
N 24 64 0 
N 88 91 0 
N 71 44 0 
N 44 91 0 
N 16 23 0 
O 44 89 0 
6
Atoms. Timestep: 5198
N 24 63 0 
N 88 90 0 
N 71 43 0 
N 44 90 0 
N 16 22 0 
O 44 88 0 
6
Atoms. Timestep: 5199
N 24 62 0 
N 88 89 0 
N 71 42 0 
N 44 89 0 
N 16 21 0 
O 44 87 0 
6
Atoms. Timestep: 5200
N 24 61 0 
N 88 88 0 
N 71 41 0 
N 44 88 0 
N 16 20 0 
O 44 86 0 
6
Atoms. Timestep: 5201
N 24 60 0 
N 88 87 0 
N 71 40 0 
N 44 87 0 
N 16 19 0 
O 44 85 0 
6
Atoms. Timestep: 5202
N 24 59 0 
N 88 86 0 
N 71 39 0 
N 44 86 0 
N 16 18 0 
O 44 84 0 
6
Atoms. Timestep: 5203
N 24 58 0 
N 88 85 0 
N 71 38 0 
N 44 85 0 
N 16 19 0 
O 44 83 0 
6
Atoms. Timestep: 5204
N 24 57 0 
N 88 84 0 
N 71 37 0 
N 44 84 0 
N 16 18 0 
O 44 82 0 
6
Atoms. Timestep: 5205
N 24 56 0 
N 88 83 0 
N 71 36 0 
N 44 83 0 
N 16 17 0 
O 44 81 0 
6
Atoms. Timestep: 5206
N 24 55 0 
N 88 82 0 
N 71 35 0 
N 44 82 0 
N 16 16 0 
O 44 80 0 
6
Atoms. Timestep: 5207
N 24 54 0 
N 88 81 0 
N 71 34 0 
N 44 81 0 
N 16 15 0 
O 44 79 0 
6
Atoms. Timestep: 5208
N 24 53 0 
N 88 80 0 
N 71 33 0 
N 44 80 0 
N 16 14 0 
O 44 78 0 
6
Atoms. Timestep: 5209
N 24 52 0 
N 88 79 0 
N 71 32 0 
N 44 79 0 
N 16 13 0 
O 44 77 0 
6
Atoms. Timestep: 5210
N 24 51 0 
N 88 78 0 
N 71 31 0 
N 44 78 0 
N 16 12 0 
O 44 76 0 
6
Atoms. Timestep: 5211
N 24 50 0 
N 88 77 0 
N 71 30 0 
N 44 77 0 
N 16 11 0 
O 44 75 0 
6
Atoms. Timestep: 5212
N 24 49 0 
N 88 76 0 
N 71 29 0 
N 44 76 0 
N 16 10 0 
O 44 74 0 
6
Atoms. Timestep: 5213
N 24 48 0 
N 88 75 0 
N 71 28 0 
N 44 75 0 
N 16 9 0 
O 44 73 0 
6
Atoms. Timestep: 5214
N 24 47 0 
N 88 74 0 
N 71 27 0 
N 44 74 0 
N 16 8 0 
O 44 72 0 
6
Atoms. Timestep: 5215
N 24 46 0 
N 88 73 0 
N 71 26 0 
N 44 73 0 
N 16 7 0 
O 44 71 0 
6
Atoms. Timestep: 5216
N 24 45 0 
N 88 72 0 
N 71 25 0 
N 44 72 0 
N 16 6 0 
O 44 70 0 
6
Atoms. Timestep: 5217
N 24 44 0 
N 88 71 0 
N 71 24 0 
N 44 71 0 
N 16 5 0 
O 44 69 0 
6
Atoms. Timestep: 5218
N 24 43 0 
N 88 70 0 
N 71 23 0 
N 44 70 0 
N 16 4 0 
O 44 68 0 
6
Atoms. Timestep: 5219
N 24 42 0 
N 88 69 0 
N 71 22 0 
N 44 69 0 
N 16 3 0 
O 44 67 0 
6
Atoms. Timestep: 5220
N 24 41 0 
N 88 68 0 
N 71 21 0 
N 44 68 0 
N 16 2 0 
O 44 66 0 
6
Atoms. Timestep: 5221
N 24 40 0 
N 88 67 0 
N 71 20 0 
N 44 67 0 
N 16 1 0 
O 44 65 0 
6
Atoms. Timestep: 5222
N 24 39 0 
N 88 66 0 
N 71 19 0 
N 44 66 0 
N 16 0 0 
O 44 64 0 
6
Atoms. Timestep: 5223
N 24 38 0 
N 88 65 0 
N 71 18 0 
N 44 65 0 
N 16 99 0 
O 44 63 0 
6
Atoms. Timestep: 5224
N 24 37 0 
N 88 64 0 
N 71 17 0 
N 44 64 0 
N 16 98 0 
O 44 62 0 
6
Atoms. Timestep: 5225
N 24 36 0 
N 88 63 0 
N 71 16 0 
N 44 63 0 
N 16 97 0 
O 44 61 0 
6
Atoms. Timestep: 5226
N 24 35 0 
N 88 62 0 
N 71 15 0 
N 44 62 0 
N 16 96 0 
O 44 60 0 
6
Atoms. Timestep: 5227
N 24 34 0 
N 88 61 0 
N 71 14 0 
N 44 61 0 
N 16 95 0 
O 44 59 0 
6
Atoms. Timestep: 5228
N 24 33 0 
N 88 60 0 
N 71 13 0 
N 44 60 0 
N 16 94 0 
O 44 58 0 
6
Atoms. Timestep: 5229
N 24 32 0 
N 88 59 0 
N 71 12 0 
N 44 59 0 
N 16 93 0 
O 44 57 0 
6
Atoms. Timestep: 5230
N 24 31 0 
N 88 58 0 
N 71 11 0 
N 44 58 0 
N 16 92 0 
O 44 56 0 
6
Atoms. Timestep: 5231
N 24 30 0 
N 88 57 0 
N 71 10 0 
N 44 57 0 
N 16 91 0 
O 44 55 0 
6
Atoms. Timestep: 5232
N 24 29 0 
N 88 56 0 
N 71 9 0 
N 44 56 0 
N 16 90 0 
O 44 54 0 
6
Atoms. Timestep: 5233
N 24 28 0 
N 88 55 0 
N 71 8 0 
N 44 55 0 
N 16 89 0 
O 44 53 0 
6
Atoms. Timestep: 5234
N 24 27 0 
N 88 54 0 
N 71 7 0 
N 44 54 0 
N 16 88 0 
O 44 52 0 
6
Atoms. Timestep: 5235
N 24 26 0 
N 88 53 0 
N 71 6 0 
N 44 53 0 
N 16 87 0 
O 44 51 0 
6
Atoms. Timestep: 5236
N 24 25 0 
N 88 52 0 
N 71 5 0 
N 44 52 0 
N 16 86 0 
O 44 50 0 
6
Atoms. Timestep: 5237
N 24 24 0 
N 88 51 0 
N 71 4 0 
N 44 51 0 
N 16 85 0 
O 44 49 0 
6
Atoms. Timestep: 5238
N 24 23 0 
N 88 50 0 
N 71 3 0 
N 44 50 0 
N 16 84 0 
O 44 48 0 
6
Atoms. Timestep: 5239
N 24 22 0 
N 88 49 0 
N 71 2 0 
N 44 49 0 
N 16 83 0 
O 44 47 0 
6
Atoms. Timestep: 5240
N 24 21 0 
N 88 48 0 
N 71 1 0 
N 44 48 0 
N 16 82 0 
O 44 46 0 
6
Atoms. Timestep: 5241
N 24 20 0 
N 88 47 0 
N 71 0 0 
N 44 47 0 
N 16 81 0 
O 44 45 0 
6
Atoms. Timestep: 5242
N 24 19 0 
N 88 46 0 
N 71 99 0 
N 44 46 0 
N 16 80 0 
O 44 44 0 
6
Atoms. Timestep: 5243
N 24 18 0 
N 88 45 0 
N 71 98 0 
N 44 45 0 
N 16 79 0 
O 44 43 0 
6
Atoms. Timestep: 5244
N 24 17 0 
N 88 44 0 
N 71 97 0 
N 44 44 0 
N 16 78 0 
O 44 42 0 
6
Atoms. Timestep: 5245
N 24 16 0 
N 88 43 0 
N 71 96 0 
N 44 43 0 
N 16 77 0 
O 44 41 0 
6
Atoms. Timestep: 5246
N 24 15 0 
N 88 42 0 
N 71 95 0 
N 44 42 0 
N 16 76 0 
O 44 40 0 
6
Atoms. Timestep: 5247
N 24 14 0 
N 88 41 0 
N 71 94 0 
N 44 41 0 
N 16 75 0 
O 44 39 0 
6
Atoms. Timestep: 5248
N 24 13 0 
N 88 40 0 
N 71 93 0 
N 44 40 0 
N 16 74 0 
O 44 38 0 
6
Atoms. Timestep: 5249
N 24 12 0 
N 88 39 0 
N 71 92 0 
N 44 39 0 
N 16 73 0 
O 44 37 0 
6
Atoms. Timestep: 5250
N 24 11 0 
N 88 38 0 
N 71 91 0 
N 44 38 0 
N 16 72 0 
O 44 36 0 
6
Atoms. Timestep: 5251
N 24 10 0 
N 88 37 0 
N 71 90 0 
N 44 37 0 
N 16 71 0 
O 44 35 0 
6
Atoms. Timestep: 5252
N 24 9 0 
N 88 38 0 
N 71 89 0 
N 44 36 0 
N 16 70 0 
O 44 34 0 
6
Atoms. Timestep: 5253
N 24 8 0 
N 88 37 0 
N 70 89 0 
N 44 35 0 
N 16 69 0 
O 44 33 0 
6
Atoms. Timestep: 5254
N 24 7 0 
N 88 36 0 
N 71 89 0 
N 44 34 0 
N 16 68 0 
O 44 32 0 
6
Atoms. Timestep: 5255
N 24 6 0 
N 88 35 0 
N 71 88 0 
N 44 33 0 
N 16 67 0 
O 44 31 0 
6
Atoms. Timestep: 5256
N 24 5 0 
N 88 34 0 
N 71 87 0 
N 44 32 0 
N 16 66 0 
O 44 30 0 
6
Atoms. Timestep: 5257
N 24 4 0 
N 88 33 0 
N 71 86 0 
N 44 31 0 
N 16 65 0 
O 44 29 0 
6
Atoms. Timestep: 5258
N 24 3 0 
N 88 32 0 
N 71 85 0 
N 44 30 0 
N 16 64 0 
O 44 28 0 
6
Atoms. Timestep: 5259
N 24 2 0 
N 88 31 0 
N 71 84 0 
N 44 29 0 
N 16 63 0 
O 44 27 0 
6
Atoms. Timestep: 5260
N 24 1 0 
N 88 30 0 
N 71 83 0 
N 44 28 0 
N 16 62 0 
O 44 26 0 
6
Atoms. Timestep: 5261
N 24 0 0 
N 88 29 0 
N 71 82 0 
N 44 27 0 
N 16 61 0 
O 44 25 0 
6
Atoms. Timestep: 5262
N 24 99 0 
N 88 28 0 
N 71 81 0 
N 44 26 0 
N 16 60 0 
O 44 24 0 
6
Atoms. Timestep: 5263
N 24 98 0 
N 88 27 0 
N 71 80 0 
N 44 25 0 
N 16 59 0 
O 44 23 0 
6
Atoms. Timestep: 5264
N 24 97 0 
N 88 26 0 
N 71 79 0 
N 44 24 0 
N 16 58 0 
O 44 22 0 
6
Atoms. Timestep: 5265
N 24 96 0 
N 88 25 0 
N 71 78 0 
N 44 23 0 
N 16 57 0 
O 44 21 0 
6
Atoms. Timestep: 5266
N 24 95 0 
N 88 24 0 
N 71 77 0 
N 44 22 0 
N 16 56 0 
O 44 20 0 
6
Atoms. Timestep: 5267
N 24 94 0 
N 88 23 0 
N 71 76 0 
N 44 21 0 
N 16 55 0 
O 44 19 0 
6
Atoms. Timestep: 5268
N 24 93 0 
N 88 22 0 
N 71 75 0 
N 44 20 0 
N 16 54 0 
O 44 18 0 
6
Atoms. Timestep: 5269
N 24 92 0 
N 88 21 0 
N 71 74 0 
N 44 19 0 
N 16 53 0 
O 44 17 0 
6
Atoms. Timestep: 5270
N 24 91 0 
N 88 20 0 
N 71 73 0 
N 44 18 0 
N 16 52 0 
O 44 16 0 
6
Atoms. Timestep: 5271
N 24 90 0 
N 88 19 0 
N 71 72 0 
N 44 17 0 
N 16 51 0 
O 44 15 0 
6
Atoms. Timestep: 5272
N 24 89 0 
N 88 18 0 
N 71 71 0 
N 44 16 0 
N 16 50 0 
O 44 14 0 
6
Atoms. Timestep: 5273
N 24 88 0 
N 88 17 0 
N 71 70 0 
N 44 15 0 
N 16 49 0 
O 44 13 0 
6
Atoms. Timestep: 5274
N 24 87 0 
N 88 16 0 
N 71 69 0 
N 44 14 0 
N 16 48 0 
O 44 12 0 
6
Atoms. Timestep: 5275
N 24 86 0 
N 88 15 0 
N 71 68 0 
N 44 13 0 
N 16 47 0 
O 44 11 0 
6
Atoms. Timestep: 5276
N 24 85 0 
N 88 14 0 
N 71 67 0 
N 44 12 0 
N 16 46 0 
O 44 10 0 
6
Atoms. Timestep: 5277
N 24 84 0 
N 88 13 0 
N 71 66 0 
N 44 11 0 
N 16 45 0 
O 44 9 0 
6
Atoms. Timestep: 5278
N 24 83 0 
N 88 12 0 
N 71 65 0 
N 44 10 0 
N 16 44 0 
O 44 8 0 
6
Atoms. Timestep: 5279
N 24 82 0 
N 88 11 0 
N 71 64 0 
N 44 9 0 
N 16 43 0 
O 44 7 0 
6
Atoms. Timestep: 5280
N 24 81 0 
N 88 10 0 
N 71 63 0 
N 44 8 0 
N 16 42 0 
O 44 6 0 
6
Atoms. Timestep: 5281
N 24 80 0 
N 88 9 0 
N 71 62 0 
N 44 7 0 
N 16 41 0 
O 44 5 0 
6
Atoms. Timestep: 5282
N 24 79 0 
N 88 8 0 
N 71 61 0 
N 44 6 0 
N 16 40 0 
O 44 4 0 
6
Atoms. Timestep: 5283
N 24 78 0 
N 88 7 0 
N 71 60 0 
N 44 5 0 
N 16 39 0 
O 44 3 0 
6
Atoms. Timestep: 5284
N 24 77 0 
N 88 6 0 
N 71 59 0 
N 44 4 0 
N 16 38 0 
O 44 2 0 
6
Atoms. Timestep: 5285
N 24 76 0 
N 88 5 0 
N 71 58 0 
N 44 3 0 
N 16 37 0 
O 44 1 0 
6
Atoms. Timestep: 5286
N 24 75 0 
N 88 4 0 
N 71 57 0 
N 44 2 0 
N 16 36 0 
O 44 0 0 
6
Atoms. Timestep: 5287
N 24 74 0 
N 88 3 0 
N 71 56 0 
N 44 1 0 
N 16 35 0 
O 44 99 0 
6
Atoms. Timestep: 5288
N 24 73 0 
N 88 2 0 
N 71 55 0 
N 44 0 0 
N 16 34 0 
O 44 98 0 
6
Atoms. Timestep: 5289
N 24 72 0 
N 88 1 0 
N 71 54 0 
N 44 99 0 
N 16 33 0 
O 44 97 0 
6
Atoms. Timestep: 5290
N 24 71 0 
N 88 0 0 
N 71 53 0 
N 44 98 0 
N 16 32 0 
O 44 96 0 
6
Atoms. Timestep: 5291
N 24 70 0 
N 88 99 0 
N 71 52 0 
N 44 97 0 
N 16 31 0 
O 44 95 0 
6
Atoms. Timestep: 5292
N 24 69 0 
N 88 98 0 
N 71 51 0 
N 44 96 0 
N 16 30 0 
O 44 94 0 
6
Atoms. Timestep: 5293
N 24 68 0 
N 88 97 0 
N 71 50 0 
N 44 95 0 
N 16 29 0 
O 44 93 0 
6
Atoms. Timestep: 5294
N 24 67 0 
N 88 96 0 
N 71 49 0 
N 44 94 0 
N 16 28 0 
O 44 92 0 
6
Atoms. Timestep: 5295
N 24 66 0 
N 88 95 0 
N 71 48 0 
N 44 93 0 
N 16 27 0 
O 44 91 0 
6
Atoms. Timestep: 5296
N 24 65 0 
N 88 94 0 
N 71 47 0 
N 44 92 0 
N 16 26 0 
O 44 90 0 
6
Atoms. Timestep: 5297
N 24 64 0 
N 88 93 0 
N 71 46 0 
N 44 91 0 
N 16 25 0 
O 44 89 0 
6
Atoms. Timestep: 5298
N 24 63 0 
N 88 92 0 
N 71 45 0 
N 44 90 0 
N 16 24 0 
O 44 88 0 
6
Atoms. Timestep: 5299
N 24 62 0 
N 88 91 0 
N 71 44 0 
N 44 89 0 
N 16 23 0 
O 44 87 0 
6
Atoms. Timestep: 5300
N 24 61 0 
N 88 90 0 
N 71 43 0 
N 44 88 0 
N 16 22 0 
O 44 86 0 
6
Atoms. Timestep: 5301
N 24 60 0 
N 88 89 0 
N 71 42 0 
N 44 87 0 
N 16 21 0 
O 44 85 0 
6
Atoms. Timestep: 5302
N 24 59 0 
N 88 88 0 
N 71 41 0 
N 44 86 0 
N 16 20 0 
O 44 84 0 
6
Atoms. Timestep: 5303
N 24 58 0 
N 88 87 0 
N 71 40 0 
N 44 85 0 
N 16 19 0 
O 44 83 0 
6
Atoms. Timestep: 5304
N 24 57 0 
N 88 86 0 
N 71 39 0 
N 44 84 0 
N 16 18 0 
O 44 82 0 
6
Atoms. Timestep: 5305
N 24 56 0 
N 88 85 0 
N 71 38 0 
N 44 83 0 
N 16 17 0 
O 44 81 0 
6
Atoms. Timestep: 5306
N 24 55 0 
N 88 84 0 
N 71 37 0 
N 44 82 0 
N 16 16 0 
O 44 80 0 
6
Atoms. Timestep: 5307
N 24 54 0 
N 88 83 0 
N 71 36 0 
N 44 81 0 
N 16 15 0 
O 44 79 0 
6
Atoms. Timestep: 5308
N 24 53 0 
N 88 82 0 
N 71 35 0 
N 44 80 0 
N 16 14 0 
O 44 78 0 
6
Atoms. Timestep: 5309
N 24 52 0 
N 88 81 0 
N 71 34 0 
N 44 79 0 
N 16 13 0 
O 44 77 0 
6
Atoms. Timestep: 5310
N 24 51 0 
N 88 80 0 
N 71 33 0 
N 44 78 0 
N 16 12 0 
O 44 76 0 
6
Atoms. Timestep: 5311
N 24 50 0 
N 88 79 0 
N 71 32 0 
N 44 77 0 
N 16 11 0 
O 44 75 0 
6
Atoms. Timestep: 5312
N 24 49 0 
N 88 78 0 
N 71 31 0 
N 44 76 0 
N 16 10 0 
O 44 74 0 
6
Atoms. Timestep: 5313
N 24 48 0 
N 88 77 0 
N 71 30 0 
N 44 75 0 
N 16 9 0 
O 44 73 0 
6
Atoms. Timestep: 5314
N 24 47 0 
N 88 76 0 
N 71 29 0 
N 44 74 0 
N 16 8 0 
O 44 72 0 
6
Atoms. Timestep: 5315
N 24 46 0 
N 88 75 0 
N 71 28 0 
N 44 73 0 
N 16 7 0 
O 44 71 0 
6
Atoms. Timestep: 5316
N 24 45 0 
N 88 74 0 
N 71 27 0 
N 44 72 0 
N 16 6 0 
O 44 70 0 
6
Atoms. Timestep: 5317
N 24 44 0 
N 88 73 0 
N 71 26 0 
N 44 71 0 
N 16 5 0 
O 44 69 0 
6
Atoms. Timestep: 5318
N 24 43 0 
N 88 72 0 
N 71 25 0 
N 44 70 0 
N 16 4 0 
O 44 68 0 
6
Atoms. Timestep: 5319
N 24 42 0 
N 88 71 0 
N 71 24 0 
N 44 69 0 
N 16 3 0 
O 44 67 0 
6
Atoms. Timestep: 5320
N 24 41 0 
N 88 70 0 
N 71 23 0 
N 44 68 0 
N 16 2 0 
O 44 66 0 
6
Atoms. Timestep: 5321
N 24 42 0 
N 88 69 0 
N 71 22 0 
N 44 69 0 
N 16 1 0 
O 44 65 0 
6
Atoms. Timestep: 5322
N 24 43 0 
N 88 68 0 
N 71 21 0 
N 44 68 0 
N 16 0 0 
O 44 64 0 
6
Atoms. Timestep: 5323
N 24 44 0 
N 87 68 0 
N 71 20 0 
N 44 67 0 
N 16 1 0 
O 44 63 0 
6
Atoms. Timestep: 5324
N 25 44 0 
N 88 68 0 
N 70 20 0 
N 44 66 0 
N 16 0 0 
O 44 62 0 
6
Atoms. Timestep: 5325
N 26 44 0 
N 88 67 0 
N 69 20 0 
N 44 65 0 
N 16 1 0 
O 44 61 0 
6
Atoms. Timestep: 5326
N 27 44 0 
N 88 66 0 
N 69 21 0 
N 44 64 0 
N 16 0 0 
O 44 60 0 
6
Atoms. Timestep: 5327
N 28 44 0 
N 87 66 0 
N 69 22 0 
N 43 64 0 
N 16 1 0 
O 44 59 0 
6
Atoms. Timestep: 5328
N 29 44 0 
N 86 66 0 
N 69 23 0 
N 43 63 0 
N 16 0 0 
O 44 58 0 
6
Atoms. Timestep: 5329
N 30 44 0 
N 85 66 0 
N 69 24 0 
N 43 62 0 
N 16 99 0 
O 44 57 0 
6
Atoms. Timestep: 5330
N 31 44 0 
N 84 66 0 
N 69 25 0 
N 43 61 0 
N 16 0 0 
O 44 56 0 
6
Atoms. Timestep: 5331
N 32 44 0 
N 85 66 0 
N 69 26 0 
N 43 60 0 
N 16 99 0 
O 44 55 0 
6
Atoms. Timestep: 5332
N 33 44 0 
N 86 66 0 
N 68 26 0 
N 43 59 0 
N 16 0 0 
O 44 54 0 
6
Atoms. Timestep: 5333
N 34 44 0 
N 86 67 0 
N 68 27 0 
N 43 58 0 
N 16 1 0 
O 44 53 0 
6
Atoms. Timestep: 5334
N 35 44 0 
N 86 68 0 
N 68 28 0 
N 43 57 0 
N 16 2 0 
O 44 52 0 
6
Atoms. Timestep: 5335
N 36 44 0 
N 86 69 0 
N 67 28 0 
N 43 56 0 
N 16 3 0 
O 44 51 0 
6
Atoms. Timestep: 5336
N 37 44 0 
N 86 68 0 
N 66 28 0 
N 43 55 0 
N 16 2 0 
O 44 50 0 
6
Atoms. Timestep: 5337
N 38 44 0 
N 86 69 0 
N 66 29 0 
N 43 54 0 
N 16 3 0 
O 44 49 0 
6
Atoms. Timestep: 5338
N 39 44 0 
N 86 70 0 
N 65 29 0 
N 43 53 0 
N 16 4 0 
O 44 48 0 
6
Atoms. Timestep: 5339
N 40 44 0 
N 86 71 0 
N 64 29 0 
N 43 52 0 
N 16 5 0 
O 44 47 0 
6
Atoms. Timestep: 5340
N 41 44 0 
N 86 70 0 
N 63 29 0 
N 43 51 0 
N 16 4 0 
O 45 47 0 
6
Atoms. Timestep: 5341
N 42 44 0 
N 86 71 0 
N 63 30 0 
N 43 50 0 
N 16 5 0 
O 45 46 0 
6
Atoms. Timestep: 5342
N 43 44 0 
N 86 70 0 
N 62 30 0 
N 43 49 0 
N 16 6 0 
O 46 46 0 
6
Atoms. Timestep: 5343
N 44 44 0 
N 86 71 0 
N 62 31 0 
N 44 49 0 
N 16 5 0 
O 46 47 0 
6
Atoms. Timestep: 5344
N 44 45 0 
N 86 72 0 
N 63 31 0 
N 45 49 0 
N 16 6 0 
O 47 47 0 
6
Atoms. Timestep: 5345
N 45 45 0 
N 86 73 0 
N 63 32 0 
N 46 49 0 
N 16 7 0 
O 48 47 0 
6
Atoms. Timestep: 5346
N 45 44 0 
N 86 72 0 
N 62 32 0 
N 46 48 0 
N 16 8 0 
O 49 47 0 
6
Atoms. Timestep: 5347
N 45 43 0 
N 85 72 0 
N 62 31 0 
N 47 48 0 
N 16 7 0 
O 50 47 0 
6
Atoms. Timestep: 5348
N 45 42 0 
N 84 72 0 
N 63 31 0 
N 48 48 0 
N 16 6 0 
O 51 47 0 
6
Atoms. Timestep: 5349
N 45 41 0 
N 83 72 0 
N 63 32 0 
N 49 48 0 
N 16 5 0 
O 52 47 0 
6
Atoms. Timestep: 5350
N 45 40 0 
N 82 72 0 
N 63 33 0 
N 50 48 0 
N 16 4 0 
O 53 47 0 
6
Atoms. Timestep: 5351
N 45 39 0 
N 81 72 0 
N 63 34 0 
N 51 48 0 
N 16 3 0 
O 54 47 0 
6
Atoms. Timestep: 5352
N 45 38 0 
N 80 72 0 
N 63 35 0 
N 52 48 0 
N 16 2 0 
O 55 47 0 
6
Atoms. Timestep: 5353
N 45 37 0 
N 79 72 0 
N 63 36 0 
N 53 48 0 
N 16 1 0 
O 56 47 0 
6
Atoms. Timestep: 5354
N 45 36 0 
N 79 71 0 
N 63 37 0 
N 54 48 0 
N 16 0 0 
O 57 47 0 
6
Atoms. Timestep: 5355
N 45 35 0 
N 79 70 0 
N 63 38 0 
N 55 48 0 
N 16 99 0 
O 58 47 0 
6
Atoms. Timestep: 5356
N 45 34 0 
N 80 70 0 
N 63 39 0 
N 56 48 0 
N 16 98 0 
O 59 47 0 
6
Atoms. Timestep: 5357
N 44 34 0 
N 81 70 0 
N 63 40 0 
N 57 48 0 
N 17 98 0 
O 60 47 0 
6
Atoms. Timestep: 5358
N 43 34 0 
N 80 70 0 
N 63 41 0 
N 58 48 0 
N 17 97 0 
O 61 47 0 
6
Atoms. Timestep: 5359
N 42 34 0 
N 80 69 0 
N 63 42 0 
N 59 48 0 
N 17 96 0 
O 62 47 0 
6
Atoms. Timestep: 5360
N 41 34 0 
N 80 68 0 
N 63 43 0 
N 60 48 0 
N 17 95 0 
O 63 47 0 
6
Atoms. Timestep: 5361
N 40 34 0 
N 80 69 0 
N 64 43 0 
N 61 48 0 
N 17 94 0 
O 64 47 0 
6
Atoms. Timestep: 5362
N 39 34 0 
N 80 70 0 
N 64 44 0 
N 62 48 0 
N 18 94 0 
O 65 47 0 
6
Atoms. Timestep: 5363
N 38 34 0 
N 80 71 0 
N 64 45 0 
N 63 48 0 
N 19 94 0 
O 65 48 0 
6
Atoms. Timestep: 5364
N 37 34 0 
N 80 70 0 
N 64 44 0 
N 64 48 0 
N 19 93 0 
O 66 48 0 
6
Atoms. Timestep: 5365
N 36 34 0 
N 80 71 0 
N 64 43 0 
N 65 48 0 
N 19 92 0 
O 67 48 0 
6
Atoms. Timestep: 5366
N 35 34 0 
N 80 72 0 
N 64 42 0 
N 66 48 0 
N 20 92 0 
O 68 48 0 
6
Atoms. Timestep: 5367
N 34 34 0 
N 80 71 0 
N 64 41 0 
N 67 48 0 
N 20 91 0 
O 69 48 0 
6
Atoms. Timestep: 5368
N 33 34 0 
N 80 72 0 
N 64 40 0 
N 68 48 0 
N 21 91 0 
O 70 48 0 
6
Atoms. Timestep: 5369
N 32 34 0 
N 80 73 0 
N 64 39 0 
N 69 48 0 
N 21 90 0 
O 71 48 0 
6
Atoms. Timestep: 5370
N 31 34 0 
N 80 74 0 
N 64 38 0 
N 70 48 0 
N 22 90 0 
O 72 48 0 
6
Atoms. Timestep: 5371
N 30 34 0 
N 80 75 0 
N 64 37 0 
N 71 48 0 
N 22 89 0 
O 73 48 0 
6
Atoms. Timestep: 5372
N 29 34 0 
N 80 74 0 
N 64 36 0 
N 72 48 0 
N 23 89 0 
O 74 48 0 
6
Atoms. Timestep: 5373
N 28 34 0 
N 80 75 0 
N 64 35 0 
N 73 48 0 
N 23 88 0 
O 75 48 0 
6
Atoms. Timestep: 5374
N 27 34 0 
N 80 76 0 
N 64 34 0 
N 74 48 0 
N 24 88 0 
O 76 48 0 
6
Atoms. Timestep: 5375
N 26 34 0 
N 80 77 0 
N 64 33 0 
N 75 48 0 
N 25 88 0 
O 77 48 0 
6
Atoms. Timestep: 5376
N 25 34 0 
N 80 78 0 
N 64 32 0 
N 76 48 0 
N 25 87 0 
O 78 48 0 
6
Atoms. Timestep: 5377
N 24 34 0 
N 80 79 0 
N 64 31 0 
N 77 48 0 
N 26 87 0 
O 79 48 0 
6
Atoms. Timestep: 5378
N 23 34 0 
N 80 80 0 
N 64 30 0 
N 78 48 0 
N 27 87 0 
O 80 48 0 
6
Atoms. Timestep: 5379
N 22 34 0 
N 80 81 0 
N 64 29 0 
N 77 48 0 
N 27 86 0 
O 81 48 0 
6
Atoms. Timestep: 5380
N 21 34 0 
N 80 82 0 
N 64 28 0 
N 78 48 0 
N 28 86 0 
O 82 48 0 
6
Atoms. Timestep: 5381
N 20 34 0 
N 80 83 0 
N 64 27 0 
N 79 48 0 
N 28 85 0 
O 83 48 0 
6
Atoms. Timestep: 5382
N 19 34 0 
N 80 84 0 
N 64 26 0 
N 80 48 0 
N 29 85 0 
O 84 48 0 
6
Atoms. Timestep: 5383
N 18 34 0 
N 80 85 0 
N 64 25 0 
N 81 48 0 
N 30 85 0 
O 85 48 0 
6
Atoms. Timestep: 5384
N 17 34 0 
N 80 86 0 
N 64 24 0 
N 82 48 0 
N 30 84 0 
O 86 48 0 
6
Atoms. Timestep: 5385
N 16 34 0 
N 80 87 0 
N 64 23 0 
N 83 48 0 
N 30 83 0 
O 87 48 0 
6
Atoms. Timestep: 5386
N 15 34 0 
N 80 86 0 
N 64 22 0 
N 84 48 0 
N 30 84 0 
O 88 48 0 
6
Atoms. Timestep: 5387
N 14 34 0 
N 80 85 0 
N 64 21 0 
N 85 48 0 
N 30 83 0 
O 89 48 0 
6
Atoms. Timestep: 5388
N 13 34 0 
N 80 86 0 
N 64 20 0 
N 86 48 0 
N 30 82 0 
O 90 48 0 
6
Atoms. Timestep: 5389
N 12 34 0 
N 80 85 0 
N 64 19 0 
N 87 48 0 
N 30 83 0 
O 91 48 0 
6
Atoms. Timestep: 5390
N 11 34 0 
N 80 86 0 
N 64 20 0 
N 88 48 0 
N 30 82 0 
O 92 48 0 
6
Atoms. Timestep: 5391
N 10 34 0 
N 80 85 0 
N 64 21 0 
N 89 48 0 
N 30 81 0 
O 93 48 0 
6
Atoms. Timestep: 5392
N 9 34 0 
N 80 84 0 
N 64 20 0 
N 90 48 0 
N 29 81 0 
O 94 48 0 
6
Atoms. Timestep: 5393
N 8 34 0 
N 80 85 0 
N 64 19 0 
N 91 48 0 
N 28 81 0 
O 95 48 0 
6
Atoms. Timestep: 5394
N 8 35 0 
N 80 84 0 
N 64 20 0 
N 92 48 0 
N 27 81 0 
O 96 48 0 
6
Atoms. Timestep: 5395
N 8 36 0 
N 80 85 0 
N 64 21 0 
N 93 48 0 
N 27 80 0 
O 97 48 0 
6
Atoms. Timestep: 5396
N 8 37 0 
N 80 86 0 
N 64 22 0 
N 94 48 0 
N 27 79 0 
O 98 48 0 
6
Atoms. Timestep: 5397
N 8 38 0 
N 80 85 0 
N 64 23 0 
N 95 48 0 
N 27 78 0 
O 99 48 0 
6
Atoms. Timestep: 5398
N 8 39 0 
N 80 86 0 
N 63 23 0 
N 96 48 0 
N 27 77 0 
O 0 48 0 
6
Atoms. Timestep: 5399
N 8 40 0 
N 80 85 0 
N 63 24 0 
N 97 48 0 
N 27 76 0 
O 1 48 0 
6
Atoms. Timestep: 5400
N 8 41 0 
N 80 86 0 
N 63 25 0 
N 98 48 0 
N 27 75 0 
O 2 48 0 
6
Atoms. Timestep: 5401
N 8 42 0 
N 80 87 0 
N 63 26 0 
N 99 48 0 
N 27 74 0 
O 3 48 0 
6
Atoms. Timestep: 5402
N 8 43 0 
N 80 86 0 
N 63 27 0 
N 0 48 0 
N 27 73 0 
O 4 48 0 
6
Atoms. Timestep: 5403
N 8 44 0 
N 80 87 0 
N 62 27 0 
N 1 48 0 
N 27 72 0 
O 5 48 0 
6
Atoms. Timestep: 5404
N 8 45 0 
N 80 86 0 
N 62 28 0 
N 2 48 0 
N 27 71 0 
O 6 48 0 
6
Atoms. Timestep: 5405
N 8 46 0 
N 80 87 0 
N 62 29 0 
N 3 48 0 
N 27 70 0 
O 6 49 0 
6
Atoms. Timestep: 5406
N 8 47 0 
N 80 88 0 
N 62 30 0 
N 4 48 0 
N 27 69 0 
O 6 50 0 
6
Atoms. Timestep: 5407
N 8 48 0 
N 80 89 0 
N 62 31 0 
N 4 49 0 
N 26 69 0 
O 5 50 0 
6
Atoms. Timestep: 5408
N 7 48 0 
N 80 90 0 
N 62 32 0 
N 4 50 0 
N 26 70 0 
O 6 50 0 
6
Atoms. Timestep: 5409
N 8 48 0 
N 80 89 0 
N 62 33 0 
N 5 50 0 
N 25 70 0 
O 7 50 0 
6
Atoms. Timestep: 5410
N 9 48 0 
N 80 90 0 
N 62 34 0 
N 6 50 0 
N 25 69 0 
O 8 50 0 
6
Atoms. Timestep: 5411
N 10 48 0 
N 80 89 0 
N 63 34 0 
N 7 50 0 
N 25 68 0 
O 9 50 0 
6
Atoms. Timestep: 5412
N 11 48 0 
N 80 88 0 
N 62 34 0 
N 8 50 0 
N 25 67 0 
O 10 50 0 
6
Atoms. Timestep: 5413
N 11 47 0 
N 80 89 0 
N 63 34 0 
N 9 50 0 
N 25 66 0 
O 11 50 0 
6
Atoms. Timestep: 5414
N 11 46 0 
N 80 88 0 
N 63 35 0 
N 10 50 0 
N 25 65 0 
O 12 50 0 
6
Atoms. Timestep: 5415
N 11 45 0 
N 80 87 0 
N 64 35 0 
N 11 50 0 
N 25 64 0 
O 13 50 0 
6
Atoms. Timestep: 5416
N 11 44 0 
N 80 88 0 
N 63 35 0 
N 12 50 0 
N 25 63 0 
O 14 50 0 
6
Atoms. Timestep: 5417
N 11 43 0 
N 80 87 0 
N 64 35 0 
N 13 50 0 
N 25 62 0 
O 15 50 0 
6
Atoms. Timestep: 5418
N 11 42 0 
N 80 86 0 
N 65 35 0 
N 14 50 0 
N 25 61 0 
O 16 50 0 
6
Atoms. Timestep: 5419
N 11 41 0 
N 80 87 0 
N 64 35 0 
N 15 50 0 
N 25 60 0 
O 17 50 0 
6
Atoms. Timestep: 5420
N 11 40 0 
N 80 86 0 
N 65 35 0 
N 16 50 0 
N 25 59 0 
O 18 50 0 
6
Atoms. Timestep: 5421
N 11 39 0 
N 80 85 0 
N 64 35 0 
N 17 50 0 
N 25 58 0 
O 19 50 0 
6
Atoms. Timestep: 5422
N 11 38 0 
N 79 85 0 
N 65 35 0 
N 18 50 0 
N 25 57 0 
O 20 50 0 
6
Atoms. Timestep: 5423
N 11 37 0 
N 80 85 0 
N 66 35 0 
N 19 50 0 
N 25 56 0 
O 21 50 0 
6
Atoms. Timestep: 5424
N 11 36 0 
N 81 85 0 
N 65 35 0 
N 20 50 0 
N 25 55 0 
O 22 50 0 
6
Atoms. Timestep: 5425
N 11 35 0 
N 82 85 0 
N 66 35 0 
N 21 50 0 
N 25 54 0 
O 23 50 0 
6
Atoms. Timestep: 5426
N 11 34 0 
N 83 85 0 
N 67 35 0 
N 22 50 0 
N 25 53 0 
O 24 50 0 
6
Atoms. Timestep: 5427
N 11 33 0 
N 84 85 0 
N 66 35 0 
N 23 50 0 
N 25 52 0 
O 25 50 0 
6
Atoms. Timestep: 5428
N 11 32 0 
N 83 85 0 
N 65 35 0 
N 24 50 0 
N 25 53 0 
O 26 50 0 
6
Atoms. Timestep: 5429
N 11 31 0 
N 82 85 0 
N 64 35 0 
N 25 50 0 
N 25 54 0 
O 27 50 0 
6
Atoms. Timestep: 5430
N 11 30 0 
N 81 85 0 
N 63 35 0 
N 26 50 0 
N 25 55 0 
O 28 50 0 
6
Atoms. Timestep: 5431
N 11 29 0 
N 80 85 0 
N 62 35 0 
N 27 50 0 
N 25 56 0 
O 29 50 0 
6
Atoms. Timestep: 5432
N 11 28 0 
N 80 84 0 
N 61 35 0 
N 28 50 0 
N 25 57 0 
O 30 50 0 
6
Atoms. Timestep: 5433
N 11 27 0 
N 79 84 0 
N 60 35 0 
N 29 50 0 
N 25 58 0 
O 31 50 0 
6
Atoms. Timestep: 5434
N 11 26 0 
N 79 85 0 
N 59 35 0 
N 30 50 0 
N 25 59 0 
O 32 50 0 
6
Atoms. Timestep: 5435
N 11 25 0 
N 79 84 0 
N 58 35 0 
N 31 50 0 
N 25 60 0 
O 33 50 0 
6
Atoms. Timestep: 5436
N 11 24 0 
N 78 84 0 
N 59 35 0 
N 32 50 0 
N 25 61 0 
O 34 50 0 
6
Atoms. Timestep: 5437
N 11 23 0 
N 78 83 0 
N 58 35 0 
N 33 50 0 
N 25 62 0 
O 35 50 0 
6
Atoms. Timestep: 5438
N 11 22 0 
N 78 82 0 
N 57 35 0 
N 34 50 0 
N 25 63 0 
O 36 50 0 
6
Atoms. Timestep: 5439
N 11 21 0 
N 77 82 0 
N 56 35 0 
N 35 50 0 
N 25 64 0 
O 37 50 0 
6
Atoms. Timestep: 5440
N 11 20 0 
N 76 82 0 
N 55 35 0 
N 36 50 0 
N 25 65 0 
O 38 50 0 
6
Atoms. Timestep: 5441
N 11 19 0 
N 75 82 0 
N 54 35 0 
N 37 50 0 
N 25 66 0 
O 39 50 0 
6
Atoms. Timestep: 5442
N 11 18 0 
N 76 82 0 
N 55 35 0 
N 38 50 0 
N 25 67 0 
O 40 50 0 
6
Atoms. Timestep: 5443
N 11 17 0 
N 77 82 0 
N 56 35 0 
N 39 50 0 
N 25 68 0 
O 41 50 0 
6
Atoms. Timestep: 5444
N 11 16 0 
N 77 81 0 
N 57 35 0 
N 40 50 0 
N 25 69 0 
O 42 50 0 
6
Atoms. Timestep: 5445
N 11 15 0 
N 76 81 0 
N 58 35 0 
N 41 50 0 
N 25 70 0 
O 43 50 0 
6
Atoms. Timestep: 5446
N 11 14 0 
N 75 81 0 
N 59 35 0 
N 42 50 0 
N 25 71 0 
O 44 50 0 
6
Atoms. Timestep: 5447
N 11 15 0 
N 74 81 0 
N 60 35 0 
N 43 50 0 
N 25 72 0 
O 45 50 0 
6
Atoms. Timestep: 5448
N 11 16 0 
N 74 80 0 
N 61 35 0 
N 44 50 0 
N 25 73 0 
O 46 50 0 
6
Atoms. Timestep: 5449
N 11 17 0 
N 74 81 0 
N 62 35 0 
N 45 50 0 
N 25 74 0 
O 47 50 0 
6
Atoms. Timestep: 5450
N 11 18 0 
N 74 82 0 
N 63 35 0 
N 46 50 0 
N 25 75 0 
O 48 50 0 
6
Atoms. Timestep: 5451
N 11 19 0 
N 74 83 0 
N 64 35 0 
N 47 50 0 
N 25 76 0 
O 49 50 0 
6
Atoms. Timestep: 5452
N 11 20 0 
N 74 82 0 
N 65 35 0 
N 48 50 0 
N 25 77 0 
O 50 50 0 
6
Atoms. Timestep: 5453
N 11 21 0 
N 74 83 0 
N 66 35 0 
N 49 50 0 
N 25 78 0 
O 51 50 0 
6
Atoms. Timestep: 5454
N 11 22 0 
N 74 84 0 
N 67 35 0 
N 50 50 0 
N 25 79 0 
O 52 50 0 
6
Atoms. Timestep: 5455
N 12 22 0 
N 74 83 0 
N 68 35 0 
N 51 50 0 
N 25 80 0 
O 53 50 0 
6
Atoms. Timestep: 5456
N 12 23 0 
N 74 84 0 
N 69 35 0 
N 52 50 0 
N 25 81 0 
O 54 50 0 
6
Atoms. Timestep: 5457
N 13 23 0 
N 74 85 0 
N 70 35 0 
N 53 50 0 
N 25 82 0 
O 55 50 0 
6
Atoms. Timestep: 5458
N 14 23 0 
N 74 84 0 
N 71 35 0 
N 54 50 0 
N 25 81 0 
O 56 50 0 
6
Atoms. Timestep: 5459
N 14 24 0 
N 74 85 0 
N 72 35 0 
N 55 50 0 
N 25 82 0 
O 57 50 0 
6
Atoms. Timestep: 5460
N 15 24 0 
N 74 84 0 
N 73 35 0 
N 56 50 0 
N 25 81 0 
O 58 50 0 
6
Atoms. Timestep: 5461
N 16 24 0 
N 74 83 0 
N 74 35 0 
N 57 50 0 
N 25 82 0 
O 59 50 0 
6
Atoms. Timestep: 5462
N 17 24 0 
N 74 84 0 
N 75 35 0 
N 58 50 0 
N 25 81 0 
O 60 50 0 
6
Atoms. Timestep: 5463
N 18 24 0 
N 74 83 0 
N 76 35 0 
N 59 50 0 
N 25 80 0 
O 61 50 0 
6
Atoms. Timestep: 5464
N 19 24 0 
N 74 84 0 
N 77 35 0 
N 60 50 0 
N 25 79 0 
O 62 50 0 
6
Atoms. Timestep: 5465
N 20 24 0 
N 74 85 0 
N 78 35 0 
N 61 50 0 
N 25 78 0 
O 63 50 0 
6
Atoms. Timestep: 5466
N 21 24 0 
N 74 84 0 
N 79 35 0 
N 62 50 0 
N 24 78 0 
O 64 50 0 
6
Atoms. Timestep: 5467
N 22 24 0 
N 74 85 0 
N 80 35 0 
N 63 50 0 
N 24 77 0 
O 65 50 0 
6
Atoms. Timestep: 5468
N 23 24 0 
N 74 86 0 
N 81 35 0 
N 64 50 0 
N 24 76 0 
O 66 50 0 
6
Atoms. Timestep: 5469
N 24 24 0 
N 74 85 0 
N 82 35 0 
N 65 50 0 
N 23 76 0 
O 67 50 0 
6
Atoms. Timestep: 5470
N 25 24 0 
N 74 86 0 
N 83 35 0 
N 66 50 0 
N 23 75 0 
O 68 50 0 
6
Atoms. Timestep: 5471
N 26 24 0 
N 74 87 0 
N 84 35 0 
N 67 50 0 
N 23 74 0 
O 69 50 0 
6
Atoms. Timestep: 5472
N 27 24 0 
N 74 88 0 
N 85 35 0 
N 68 50 0 
N 22 74 0 
O 70 50 0 
6
Atoms. Timestep: 5473
N 28 24 0 
N 74 89 0 
N 86 35 0 
N 69 50 0 
N 21 74 0 
O 71 50 0 
6
Atoms. Timestep: 5474
N 29 24 0 
N 74 90 0 
N 87 35 0 
N 70 50 0 
N 22 74 0 
O 72 50 0 
6
Atoms. Timestep: 5475
N 30 24 0 
N 74 91 0 
N 88 35 0 
N 71 50 0 
N 23 74 0 
O 73 50 0 
6
Atoms. Timestep: 5476
N 31 24 0 
N 74 92 0 
N 89 35 0 
N 72 50 0 
N 22 74 0 
O 74 50 0 
6
Atoms. Timestep: 5477
N 32 24 0 
N 74 93 0 
N 90 35 0 
N 73 50 0 
N 21 74 0 
O 75 50 0 
6
Atoms. Timestep: 5478
N 33 24 0 
N 74 94 0 
N 91 35 0 
N 74 50 0 
N 20 74 0 
O 76 50 0 
6
Atoms. Timestep: 5479
N 34 24 0 
N 74 93 0 
N 92 35 0 
N 75 50 0 
N 20 75 0 
O 77 50 0 
6
Atoms. Timestep: 5480
N 35 24 0 
N 74 94 0 
N 93 35 0 
N 76 50 0 
N 20 76 0 
O 78 50 0 
6
Atoms. Timestep: 5481
N 36 24 0 
N 74 95 0 
N 94 35 0 
N 77 50 0 
N 21 76 0 
O 79 50 0 
6
Atoms. Timestep: 5482
N 37 24 0 
N 73 95 0 
N 95 35 0 
N 78 50 0 
N 21 77 0 
O 80 50 0 
6
Atoms. Timestep: 5483
N 38 24 0 
N 73 96 0 
N 96 35 0 
N 79 50 0 
N 21 76 0 
O 81 50 0 
6
Atoms. Timestep: 5484
N 39 24 0 
N 74 96 0 
N 97 35 0 
N 80 50 0 
N 20 76 0 
O 82 50 0 
6
Atoms. Timestep: 5485
N 40 24 0 
N 75 96 0 
N 98 35 0 
N 81 50 0 
N 19 76 0 
O 83 50 0 
6
Atoms. Timestep: 5486
N 41 24 0 
N 76 96 0 
N 99 35 0 
N 82 50 0 
N 18 76 0 
O 84 50 0 
6
Atoms. Timestep: 5487
N 42 24 0 
N 77 96 0 
N 0 35 0 
N 83 50 0 
N 17 76 0 
O 85 50 0 
6
Atoms. Timestep: 5488
N 43 24 0 
N 76 96 0 
N 1 35 0 
N 84 50 0 
N 16 76 0 
O 86 50 0 
6
Atoms. Timestep: 5489
N 44 24 0 
N 77 96 0 
N 2 35 0 
N 85 50 0 
N 15 76 0 
O 87 50 0 
6
Atoms. Timestep: 5490
N 43 24 0 
N 76 96 0 
N 3 35 0 
N 86 50 0 
N 14 76 0 
O 88 50 0 
6
Atoms. Timestep: 5491
N 44 24 0 
N 75 96 0 
N 4 35 0 
N 87 50 0 
N 13 76 0 
O 89 50 0 
6
Atoms. Timestep: 5492
N 45 24 0 
N 76 96 0 
N 5 35 0 
N 88 50 0 
N 13 75 0 
O 90 50 0 
6
Atoms. Timestep: 5493
N 46 24 0 
N 77 96 0 
N 6 35 0 
N 89 50 0 
N 13 74 0 
O 91 50 0 
6
Atoms. Timestep: 5494
N 47 24 0 
N 78 96 0 
N 7 35 0 
N 90 50 0 
N 13 73 0 
O 92 50 0 
6
Atoms. Timestep: 5495
N 48 24 0 
N 79 96 0 
N 8 35 0 
N 91 50 0 
N 13 72 0 
O 93 50 0 
6
Atoms. Timestep: 5496
N 49 24 0 
N 80 96 0 
N 9 35 0 
N 92 50 0 
N 13 71 0 
O 94 50 0 
6
Atoms. Timestep: 5497
N 50 24 0 
N 81 96 0 
N 10 35 0 
N 93 50 0 
N 13 70 0 
O 95 50 0 
6
Atoms. Timestep: 5498
N 51 24 0 
N 82 96 0 
N 11 35 0 
N 94 50 0 
N 13 69 0 
O 96 50 0 
6
Atoms. Timestep: 5499
N 52 24 0 
N 83 96 0 
N 12 35 0 
N 95 50 0 
N 13 68 0 
O 97 50 0 
6
Atoms. Timestep: 5500
N 53 24 0 
N 84 96 0 
N 13 35 0 
N 96 50 0 
N 13 67 0 
O 98 50 0 
6
Atoms. Timestep: 5501
N 54 24 0 
N 85 96 0 
N 14 35 0 
N 97 50 0 
N 13 66 0 
O 99 50 0 
6
Atoms. Timestep: 5502
N 55 24 0 
N 86 96 0 
N 15 35 0 
N 98 50 0 
N 13 65 0 
O 0 50 0 
6
Atoms. Timestep: 5503
N 56 24 0 
N 87 96 0 
N 16 35 0 
N 99 50 0 
N 13 64 0 
O 1 50 0 
6
Atoms. Timestep: 5504
N 57 24 0 
N 88 96 0 
N 17 35 0 
N 0 50 0 
N 13 63 0 
O 2 50 0 
6
Atoms. Timestep: 5505
N 58 24 0 
N 89 96 0 
N 18 35 0 
N 1 50 0 
N 13 62 0 
O 3 50 0 
6
Atoms. Timestep: 5506
N 59 24 0 
N 90 96 0 
N 19 35 0 
N 2 50 0 
N 13 61 0 
O 4 50 0 
6
Atoms. Timestep: 5507
N 60 24 0 
N 91 96 0 
N 20 35 0 
N 3 50 0 
N 13 60 0 
O 5 50 0 
6
Atoms. Timestep: 5508
N 61 24 0 
N 92 96 0 
N 21 35 0 
N 4 50 0 
N 13 59 0 
O 6 50 0 
6
Atoms. Timestep: 5509
N 62 24 0 
N 93 96 0 
N 22 35 0 
N 5 50 0 
N 13 58 0 
O 7 50 0 
6
Atoms. Timestep: 5510
N 63 24 0 
N 94 96 0 
N 23 35 0 
N 6 50 0 
N 13 57 0 
O 8 50 0 
6
Atoms. Timestep: 5511
N 64 24 0 
N 95 96 0 
N 24 35 0 
N 7 50 0 
N 13 56 0 
O 9 50 0 
6
Atoms. Timestep: 5512
N 65 24 0 
N 96 96 0 
N 25 35 0 
N 8 50 0 
N 13 55 0 
O 10 50 0 
6
Atoms. Timestep: 5513
N 66 24 0 
N 97 96 0 
N 26 35 0 
N 9 50 0 
N 13 54 0 
O 11 50 0 
6
Atoms. Timestep: 5514
N 67 24 0 
N 98 96 0 
N 27 35 0 
N 10 50 0 
N 13 53 0 
O 12 50 0 
6
Atoms. Timestep: 5515
N 68 24 0 
N 99 96 0 
N 28 35 0 
N 11 50 0 
N 13 52 0 
O 13 50 0 
6
Atoms. Timestep: 5516
N 69 24 0 
N 0 96 0 
N 29 35 0 
N 12 50 0 
N 14 52 0 
O 14 50 0 
6
Atoms. Timestep: 5517
N 68 24 0 
N 1 96 0 
N 28 35 0 
N 12 49 0 
N 15 52 0 
O 15 50 0 
6
Atoms. Timestep: 5518
N 69 24 0 
N 2 96 0 
N 28 36 0 
N 11 49 0 
N 15 51 0 
O 15 49 0 
6
Atoms. Timestep: 5519
N 70 24 0 
N 3 96 0 
N 27 36 0 
N 10 49 0 
N 15 50 0 
O 15 48 0 
6
Atoms. Timestep: 5520
N 69 24 0 
N 4 96 0 
N 27 37 0 
N 9 49 0 
N 15 49 0 
O 15 47 0 
6
Atoms. Timestep: 5521
N 70 24 0 
N 5 96 0 
N 26 37 0 
N 8 49 0 
N 15 48 0 
O 15 46 0 
6
Atoms. Timestep: 5522
N 71 24 0 
N 6 96 0 
N 27 37 0 
N 9 49 0 
N 15 47 0 
O 15 45 0 
6
Atoms. Timestep: 5523
N 70 24 0 
N 7 96 0 
N 26 37 0 
N 8 49 0 
N 15 46 0 
O 15 44 0 
6
Atoms. Timestep: 5524
N 71 24 0 
N 7 95 0 
N 27 37 0 
N 7 49 0 
N 15 45 0 
O 15 43 0 
6
Atoms. Timestep: 5525
N 70 24 0 
N 8 95 0 
N 28 37 0 
N 6 49 0 
N 15 44 0 
O 15 42 0 
6
Atoms. Timestep: 5526
N 69 24 0 
N 8 94 0 
N 27 37 0 
N 5 49 0 
N 15 43 0 
O 15 41 0 
6
Atoms. Timestep: 5527
N 68 24 0 
N 8 95 0 
N 26 37 0 
N 4 49 0 
N 15 42 0 
O 15 40 0 
6
Atoms. Timestep: 5528
N 69 24 0 
N 8 96 0 
N 27 37 0 
N 3 49 0 
N 15 41 0 
O 15 39 0 
6
Atoms. Timestep: 5529
N 68 24 0 
N 8 97 0 
N 28 37 0 
N 2 49 0 
N 15 40 0 
O 15 38 0 
6
Atoms. Timestep: 5530
N 69 24 0 
N 8 98 0 
N 29 37 0 
N 1 49 0 
N 15 39 0 
O 15 37 0 
6
Atoms. Timestep: 5531
N 68 24 0 
N 8 99 0 
N 30 37 0 
N 0 49 0 
N 15 38 0 
O 15 36 0 
6
Atoms. Timestep: 5532
N 69 24 0 
N 8 0 0 
N 31 37 0 
N 99 49 0 
N 15 37 0 
O 15 35 0 
6
Atoms. Timestep: 5533
N 68 24 0 
N 8 1 0 
N 32 37 0 
N 98 49 0 
N 15 36 0 
O 15 34 0 
6
Atoms. Timestep: 5534
N 69 24 0 
N 8 2 0 
N 33 37 0 
N 97 49 0 
N 15 35 0 
O 15 33 0 
6
Atoms. Timestep: 5535
N 68 24 0 
N 8 3 0 
N 34 37 0 
N 96 49 0 
N 15 34 0 
O 15 32 0 
6
Atoms. Timestep: 5536
N 69 24 0 
N 8 4 0 
N 35 37 0 
N 95 49 0 
N 15 33 0 
O 15 31 0 
6
Atoms. Timestep: 5537
N 70 24 0 
N 8 5 0 
N 36 37 0 
N 94 49 0 
N 15 32 0 
O 15 30 0 
6
Atoms. Timestep: 5538
N 70 23 0 
N 8 6 0 
N 37 37 0 
N 93 49 0 
N 15 31 0 
O 15 29 0 
6
Atoms. Timestep: 5539
N 71 23 0 
N 8 7 0 
N 38 37 0 
N 92 49 0 
N 15 30 0 
O 15 28 0 
6
Atoms. Timestep: 5540
N 71 22 0 
N 8 8 0 
N 39 37 0 
N 91 49 0 
N 15 29 0 
O 15 27 0 
6
Atoms. Timestep: 5541
N 71 21 0 
N 8 9 0 
N 40 37 0 
N 90 49 0 
N 15 28 0 
O 15 26 0 
6
Atoms. Timestep: 5542
N 72 21 0 
N 8 10 0 
N 41 37 0 
N 90 50 0 
N 15 27 0 
O 15 25 0 
6
Atoms. Timestep: 5543
N 73 21 0 
N 8 11 0 
N 42 37 0 
N 90 51 0 
N 15 26 0 
O 15 24 0 
6
Atoms. Timestep: 5544
N 74 21 0 
N 8 12 0 
N 43 37 0 
N 90 52 0 
N 15 25 0 
O 15 23 0 
6
Atoms. Timestep: 5545
N 75 21 0 
N 8 11 0 
N 44 37 0 
N 90 53 0 
N 15 24 0 
O 15 22 0 
6
Atoms. Timestep: 5546
N 74 21 0 
N 8 10 0 
N 45 37 0 
N 90 54 0 
N 15 23 0 
O 15 21 0 
6
Atoms. Timestep: 5547
N 75 21 0 
N 8 9 0 
N 44 37 0 
N 90 55 0 
N 15 22 0 
O 15 20 0 
6
Atoms. Timestep: 5548
N 76 21 0 
N 8 8 0 
N 45 37 0 
N 90 56 0 
N 15 21 0 
O 15 19 0 
6
Atoms. Timestep: 5549
N 75 21 0 
N 8 7 0 
N 44 37 0 
N 90 57 0 
N 15 20 0 
O 15 18 0 
6
Atoms. Timestep: 5550
N 76 21 0 
N 8 6 0 
N 43 37 0 
N 90 58 0 
N 15 19 0 
O 15 17 0 
6
Atoms. Timestep: 5551
N 75 21 0 
N 8 5 0 
N 44 37 0 
N 90 59 0 
N 15 18 0 
O 15 16 0 
6
Atoms. Timestep: 5552
N 76 21 0 
N 8 4 0 
N 43 37 0 
N 90 60 0 
N 15 17 0 
O 15 15 0 
6
Atoms. Timestep: 5553
N 77 21 0 
N 8 3 0 
N 44 37 0 
N 90 61 0 
N 15 16 0 
O 15 14 0 
6
Atoms. Timestep: 5554
N 76 21 0 
N 8 2 0 
N 43 37 0 
N 90 62 0 
N 15 15 0 
O 15 13 0 
6
Atoms. Timestep: 5555
N 75 21 0 
N 8 1 0 
N 42 37 0 
N 90 63 0 
N 15 14 0 
O 15 12 0 
6
Atoms. Timestep: 5556
N 76 21 0 
N 8 0 0 
N 41 37 0 
N 90 62 0 
N 15 13 0 
O 15 11 0 
6
Atoms. Timestep: 5557
N 77 21 0 
N 8 99 0 
N 42 37 0 
N 90 61 0 
N 15 12 0 
O 15 10 0 
6
Atoms. Timestep: 5558
N 78 21 0 
N 8 98 0 
N 43 37 0 
N 90 62 0 
N 15 11 0 
O 15 9 0 
6
Atoms. Timestep: 5559
N 77 21 0 
N 8 97 0 
N 42 37 0 
N 90 61 0 
N 15 10 0 
O 15 8 0 
6
Atoms. Timestep: 5560
N 76 21 0 
N 8 96 0 
N 41 37 0 
N 90 60 0 
N 15 9 0 
O 15 7 0 
6
Atoms. Timestep: 5561
N 77 21 0 
N 8 95 0 
N 40 37 0 
N 90 59 0 
N 15 8 0 
O 15 6 0 
6
Atoms. Timestep: 5562
N 78 21 0 
N 8 94 0 
N 40 38 0 
N 90 60 0 
N 15 7 0 
O 15 5 0 
6
Atoms. Timestep: 5563
N 78 20 0 
N 8 93 0 
N 40 39 0 
N 90 59 0 
N 15 6 0 
O 15 4 0 
6
Atoms. Timestep: 5564
N 78 19 0 
N 8 92 0 
N 39 39 0 
N 90 58 0 
N 15 5 0 
O 15 3 0 
6
Atoms. Timestep: 5565
N 78 18 0 
N 8 91 0 
N 39 40 0 
N 90 57 0 
N 15 4 0 
O 15 2 0 
6
Atoms. Timestep: 5566
N 78 17 0 
N 8 90 0 
N 38 40 0 
N 90 56 0 
N 15 3 0 
O 15 1 0 
6
Atoms. Timestep: 5567
N 78 16 0 
N 8 89 0 
N 38 41 0 
N 90 55 0 
N 15 2 0 
O 15 0 0 
6
Atoms. Timestep: 5568
N 78 15 0 
N 8 88 0 
N 38 42 0 
N 90 54 0 
N 15 1 0 
O 15 99 0 
6
Atoms. Timestep: 5569
N 78 14 0 
N 8 87 0 
N 38 43 0 
N 90 53 0 
N 15 0 0 
O 15 98 0 
6
Atoms. Timestep: 5570
N 78 13 0 
N 8 86 0 
N 39 43 0 
N 90 52 0 
N 15 99 0 
O 15 97 0 
6
Atoms. Timestep: 5571
N 78 12 0 
N 8 85 0 
N 38 43 0 
N 90 51 0 
N 15 98 0 
O 15 96 0 
6
Atoms. Timestep: 5572
N 78 11 0 
N 8 84 0 
N 39 43 0 
N 90 50 0 
N 15 97 0 
O 15 95 0 
6
Atoms. Timestep: 5573
N 78 10 0 
N 8 83 0 
N 40 43 0 
N 90 49 0 
N 15 96 0 
O 15 94 0 
6
Atoms. Timestep: 5574
N 78 9 0 
N 8 82 0 
N 39 43 0 
N 90 48 0 
N 15 95 0 
O 15 93 0 
6
Atoms. Timestep: 5575
N 78 8 0 
N 8 81 0 
N 39 42 0 
N 90 47 0 
N 15 94 0 
O 15 92 0 
6
Atoms. Timestep: 5576
N 78 7 0 
N 8 80 0 
N 39 41 0 
N 90 46 0 
N 15 93 0 
O 15 91 0 
6
Atoms. Timestep: 5577
N 78 6 0 
N 8 79 0 
N 39 40 0 
N 90 45 0 
N 15 92 0 
O 15 90 0 
6
Atoms. Timestep: 5578
N 78 5 0 
N 8 78 0 
N 39 39 0 
N 90 44 0 
N 15 91 0 
O 15 89 0 
6
Atoms. Timestep: 5579
N 78 4 0 
N 8 77 0 
N 39 38 0 
N 90 43 0 
N 15 90 0 
O 15 88 0 
6
Atoms. Timestep: 5580
N 78 3 0 
N 8 76 0 
N 39 37 0 
N 90 42 0 
N 15 89 0 
O 15 87 0 
6
Atoms. Timestep: 5581
N 78 2 0 
N 8 75 0 
N 39 36 0 
N 90 41 0 
N 15 88 0 
O 15 86 0 
6
Atoms. Timestep: 5582
N 78 1 0 
N 8 74 0 
N 39 35 0 
N 90 40 0 
N 15 87 0 
O 15 85 0 
6
Atoms. Timestep: 5583
N 78 0 0 
N 8 73 0 
N 39 34 0 
N 90 39 0 
N 15 86 0 
O 15 84 0 
6
Atoms. Timestep: 5584
N 78 99 0 
N 8 72 0 
N 39 33 0 
N 90 38 0 
N 15 85 0 
O 15 83 0 
6
Atoms. Timestep: 5585
N 78 98 0 
N 8 71 0 
N 39 32 0 
N 90 37 0 
N 15 84 0 
O 15 82 0 
6
Atoms. Timestep: 5586
N 78 97 0 
N 8 70 0 
N 39 31 0 
N 90 36 0 
N 15 83 0 
O 15 81 0 
6
Atoms. Timestep: 5587
N 78 96 0 
N 8 69 0 
N 39 30 0 
N 90 35 0 
N 15 82 0 
O 15 80 0 
6
Atoms. Timestep: 5588
N 78 95 0 
N 8 68 0 
N 39 29 0 
N 90 34 0 
N 15 81 0 
O 15 79 0 
6
Atoms. Timestep: 5589
N 78 94 0 
N 8 67 0 
N 39 28 0 
N 90 33 0 
N 15 80 0 
O 15 78 0 
6
Atoms. Timestep: 5590
N 78 93 0 
N 8 66 0 
N 39 27 0 
N 90 32 0 
N 15 79 0 
O 15 77 0 
6
Atoms. Timestep: 5591
N 78 92 0 
N 8 65 0 
N 39 26 0 
N 90 31 0 
N 15 78 0 
O 15 76 0 
6
Atoms. Timestep: 5592
N 78 91 0 
N 8 64 0 
N 39 25 0 
N 90 30 0 
N 15 77 0 
O 15 75 0 
6
Atoms. Timestep: 5593
N 78 90 0 
N 8 63 0 
N 39 24 0 
N 90 29 0 
N 15 76 0 
O 15 74 0 
6
Atoms. Timestep: 5594
N 78 89 0 
N 8 62 0 
N 39 23 0 
N 90 28 0 
N 15 75 0 
O 15 73 0 
6
Atoms. Timestep: 5595
N 78 88 0 
N 8 61 0 
N 39 22 0 
N 90 27 0 
N 15 74 0 
O 15 72 0 
6
Atoms. Timestep: 5596
N 78 87 0 
N 8 60 0 
N 39 21 0 
N 90 26 0 
N 15 73 0 
O 15 71 0 
6
Atoms. Timestep: 5597
N 78 86 0 
N 8 59 0 
N 39 20 0 
N 90 25 0 
N 15 72 0 
O 15 70 0 
6
Atoms. Timestep: 5598
N 78 85 0 
N 8 58 0 
N 39 19 0 
N 90 24 0 
N 15 71 0 
O 15 69 0 
6
Atoms. Timestep: 5599
N 78 84 0 
N 8 57 0 
N 39 18 0 
N 90 23 0 
N 15 70 0 
O 15 68 0 
6
Atoms. Timestep: 5600
N 78 83 0 
N 8 56 0 
N 39 17 0 
N 90 22 0 
N 15 69 0 
O 15 67 0 
6
Atoms. Timestep: 5601
N 78 82 0 
N 8 55 0 
N 39 16 0 
N 90 21 0 
N 15 68 0 
O 15 66 0 
6
Atoms. Timestep: 5602
N 78 81 0 
N 8 54 0 
N 39 15 0 
N 90 20 0 
N 15 67 0 
O 15 65 0 
6
Atoms. Timestep: 5603
N 78 80 0 
N 8 53 0 
N 39 14 0 
N 90 19 0 
N 15 66 0 
O 15 64 0 
6
Atoms. Timestep: 5604
N 78 79 0 
N 8 52 0 
N 39 13 0 
N 90 18 0 
N 15 65 0 
O 15 63 0 
6
Atoms. Timestep: 5605
N 78 78 0 
N 8 51 0 
N 39 12 0 
N 90 17 0 
N 15 64 0 
O 15 62 0 
6
Atoms. Timestep: 5606
N 78 77 0 
N 8 50 0 
N 39 11 0 
N 90 16 0 
N 15 63 0 
O 15 61 0 
6
Atoms. Timestep: 5607
N 77 77 0 
N 8 51 0 
N 39 10 0 
N 90 15 0 
N 15 62 0 
O 15 60 0 
6
Atoms. Timestep: 5608
N 76 77 0 
N 8 52 0 
N 40 10 0 
N 90 16 0 
N 15 61 0 
O 15 59 0 
6
Atoms. Timestep: 5609
N 76 76 0 
N 9 52 0 
N 39 10 0 
N 90 15 0 
N 15 60 0 
O 15 58 0 
6
Atoms. Timestep: 5610
N 75 76 0 
N 9 53 0 
N 40 10 0 
N 90 16 0 
N 15 59 0 
O 15 57 0 
6
Atoms. Timestep: 5611
N 74 76 0 
N 8 53 0 
N 39 10 0 
N 90 15 0 
N 15 58 0 
O 15 56 0 
6
Atoms. Timestep: 5612
N 73 76 0 
N 9 53 0 
N 38 10 0 
N 90 16 0 
N 15 57 0 
O 15 55 0 
6
Atoms. Timestep: 5613
N 72 76 0 
N 8 53 0 
N 37 10 0 
N 90 15 0 
N 15 56 0 
O 15 54 0 
6
Atoms. Timestep: 5614
N 71 76 0 
N 7 53 0 
N 38 10 0 
N 90 16 0 
N 15 55 0 
O 15 53 0 
6
Atoms. Timestep: 5615
N 70 76 0 
N 6 53 0 
N 38 11 0 
N 90 15 0 
N 15 54 0 
O 15 52 0 
6
Atoms. Timestep: 5616
N 69 76 0 
N 5 53 0 
N 38 12 0 
N 90 14 0 
N 15 53 0 
O 15 51 0 
6
Atoms. Timestep: 5617
N 68 76 0 
N 4 53 0 
N 38 13 0 
N 90 13 0 
N 15 52 0 
O 15 50 0 
6
Atoms. Timestep: 5618
N 67 76 0 
N 3 53 0 
N 38 14 0 
N 90 12 0 
N 15 51 0 
O 15 49 0 
6
Atoms. Timestep: 5619
N 66 76 0 
N 2 53 0 
N 38 15 0 
N 90 13 0 
N 15 50 0 
O 15 48 0 
6
Atoms. Timestep: 5620
N 65 76 0 
N 1 53 0 
N 38 16 0 
N 90 12 0 
N 15 49 0 
O 15 47 0 
6
Atoms. Timestep: 5621
N 64 76 0 
N 0 53 0 
N 38 17 0 
N 90 11 0 
N 15 48 0 
O 15 46 0 
6
Atoms. Timestep: 5622
N 63 76 0 
N 99 53 0 
N 38 16 0 
N 90 12 0 
N 15 47 0 
O 15 45 0 
6
Atoms. Timestep: 5623
N 62 76 0 
N 98 53 0 
N 38 15 0 
N 90 11 0 
N 15 46 0 
O 15 44 0 
6
Atoms. Timestep: 5624
N 61 76 0 
N 97 53 0 
N 38 14 0 
N 90 12 0 
N 15 45 0 
O 15 43 0 
6
Atoms. Timestep: 5625
N 60 76 0 
N 96 53 0 
N 38 13 0 
N 90 13 0 
N 15 44 0 
O 15 42 0 
6
Atoms. Timestep: 5626
N 59 76 0 
N 95 53 0 
N 38 12 0 
N 90 14 0 
N 15 43 0 
O 15 41 0 
6
Atoms. Timestep: 5627
N 59 75 0 
N 94 53 0 
N 38 11 0 
N 90 15 0 
N 15 42 0 
O 15 40 0 
6
Atoms. Timestep: 5628
N 58 75 0 
N 93 53 0 
N 38 10 0 
N 90 16 0 
N 15 41 0 
O 15 39 0 
6
Atoms. Timestep: 5629
N 58 74 0 
N 92 53 0 
N 38 9 0 
N 91 16 0 
N 15 40 0 
O 15 38 0 
6
Atoms. Timestep: 5630
N 57 74 0 
N 91 53 0 
N 38 8 0 
N 92 16 0 
N 15 39 0 
O 15 37 0 
6
Atoms. Timestep: 5631
N 57 73 0 
N 90 53 0 
N 38 7 0 
N 91 16 0 
N 15 38 0 
O 15 36 0 
6
Atoms. Timestep: 5632
N 56 73 0 
N 89 53 0 
N 38 6 0 
N 90 16 0 
N 15 37 0 
O 15 35 0 
6
Atoms. Timestep: 5633
N 55 73 0 
N 88 53 0 
N 38 7 0 
N 91 16 0 
N 15 36 0 
O 15 34 0 
6
Atoms. Timestep: 5634
N 54 73 0 
N 87 53 0 
N 38 8 0 
N 90 16 0 
N 15 35 0 
O 15 33 0 
6
Atoms. Timestep: 5635
N 53 73 0 
N 86 53 0 
N 38 9 0 
N 89 16 0 
N 15 34 0 
O 15 32 0 
6
Atoms. Timestep: 5636
N 52 73 0 
N 85 53 0 
N 38 10 0 
N 90 16 0 
N 15 33 0 
O 15 31 0 
6
Atoms. Timestep: 5637
N 51 73 0 
N 84 53 0 
N 39 10 0 
N 89 16 0 
N 15 32 0 
O 15 30 0 
6
Atoms. Timestep: 5638
N 50 73 0 
N 84 54 0 
N 40 10 0 
N 90 16 0 
N 15 31 0 
O 15 29 0 
6
Atoms. Timestep: 5639
N 50 72 0 
N 85 54 0 
N 39 10 0 
N 89 16 0 
N 15 30 0 
O 15 28 0 
6
Atoms. Timestep: 5640
N 49 72 0 
N 85 55 0 
N 40 10 0 
N 90 16 0 
N 15 29 0 
O 15 27 0 
6
Atoms. Timestep: 5641
N 49 71 0 
N 86 55 0 
N 41 10 0 
N 89 16 0 
N 15 28 0 
O 15 26 0 
6
Atoms. Timestep: 5642
N 48 71 0 
N 86 56 0 
N 40 10 0 
N 90 16 0 
N 15 27 0 
O 15 25 0 
6
Atoms. Timestep: 5643
N 48 70 0 
N 87 56 0 
N 41 10 0 
N 89 16 0 
N 15 26 0 
O 15 24 0 
6
Atoms. Timestep: 5644
N 48 69 0 
N 87 57 0 
N 40 10 0 
N 88 16 0 
N 15 25 0 
O 15 23 0 
6
Atoms. Timestep: 5645
N 47 69 0 
N 88 57 0 
N 41 10 0 
N 89 16 0 
N 15 24 0 
O 15 22 0 
6
Atoms. Timestep: 5646
N 47 68 0 
N 88 58 0 
N 40 10 0 
N 88 16 0 
N 15 23 0 
O 15 21 0 
6
Atoms. Timestep: 5647
N 47 67 0 
N 89 58 0 
N 41 10 0 
N 87 16 0 
N 15 22 0 
O 15 20 0 
6
Atoms. Timestep: 5648
N 46 67 0 
N 90 58 0 
N 40 10 0 
N 86 16 0 
N 15 21 0 
O 15 19 0 
6
Atoms. Timestep: 5649
N 46 66 0 
N 90 59 0 
N 41 10 0 
N 85 16 0 
N 15 20 0 
O 15 18 0 
6
Atoms. Timestep: 5650
N 45 66 0 
N 90 60 0 
N 42 10 0 
N 84 16 0 
N 15 19 0 
O 15 17 0 
6
Atoms. Timestep: 5651
N 45 65 0 
N 90 61 0 
N 41 10 0 
N 83 16 0 
N 15 18 0 
O 15 16 0 
6
Atoms. Timestep: 5652
N 45 64 0 
N 91 61 0 
N 42 10 0 
N 82 16 0 
N 15 17 0 
O 15 15 0 
6
Atoms. Timestep: 5653
N 45 63 0 
N 92 61 0 
N 43 10 0 
N 81 16 0 
N 15 16 0 
O 15 14 0 
6
Atoms. Timestep: 5654
N 44 63 0 
N 92 62 0 
N 44 10 0 
N 80 16 0 
N 15 15 0 
O 15 13 0 
6
Atoms. Timestep: 5655
N 44 62 0 
N 92 63 0 
N 45 10 0 
N 79 16 0 
N 15 14 0 
O 15 12 0 
6
Atoms. Timestep: 5656
N 44 61 0 
N 93 63 0 
N 46 10 0 
N 80 16 0 
N 15 13 0 
O 15 11 0 
6
Atoms. Timestep: 5657
N 43 61 0 
N 93 64 0 
N 47 10 0 
N 81 16 0 
N 15 12 0 
O 15 10 0 
6
Atoms. Timestep: 5658
N 43 60 0 
N 93 65 0 
N 48 10 0 
N 82 16 0 
N 15 11 0 
O 15 9 0 
6
Atoms. Timestep: 5659
N 44 60 0 
N 94 65 0 
N 47 10 0 
N 81 16 0 
N 15 10 0 
O 15 8 0 
6
Atoms. Timestep: 5660
N 44 59 0 
N 94 66 0 
N 48 10 0 
N 82 16 0 
N 15 9 0 
O 15 7 0 
6
Atoms. Timestep: 5661
N 44 60 0 
N 94 65 0 
N 47 10 0 
N 81 16 0 
N 15 8 0 
O 15 6 0 
6
Atoms. Timestep: 5662
N 44 59 0 
N 94 64 0 
N 48 10 0 
N 82 16 0 
N 15 7 0 
O 15 5 0 
6
Atoms. Timestep: 5663
N 44 60 0 
N 94 63 0 
N 49 10 0 
N 83 16 0 
N 15 6 0 
O 15 4 0 
6
Atoms. Timestep: 5664
N 44 59 0 
N 94 62 0 
N 48 10 0 
N 83 15 0 
N 15 5 0 
O 15 3 0 
6
Atoms. Timestep: 5665
N 44 60 0 
N 94 61 0 
N 49 10 0 
N 82 15 0 
N 15 4 0 
O 15 2 0 
6
Atoms. Timestep: 5666
N 44 61 0 
N 94 60 0 
N 48 10 0 
N 83 15 0 
N 15 3 0 
O 15 1 0 
6
Atoms. Timestep: 5667
N 44 60 0 
N 94 61 0 
N 49 10 0 
N 82 15 0 
N 15 2 0 
O 15 0 0 
6
Atoms. Timestep: 5668
N 44 61 0 
N 94 62 0 
N 48 10 0 
N 83 15 0 
N 15 1 0 
O 15 99 0 
6
Atoms. Timestep: 5669
N 44 62 0 
N 94 63 0 
N 49 10 0 
N 84 15 0 
N 15 0 0 
O 15 98 0 
6
Atoms. Timestep: 5670
N 44 63 0 
N 94 64 0 
N 48 10 0 
N 83 15 0 
N 15 99 0 
O 15 97 0 
6
Atoms. Timestep: 5671
N 44 64 0 
N 94 63 0 
N 49 10 0 
N 84 15 0 
N 15 98 0 
O 15 96 0 
6
Atoms. Timestep: 5672
N 44 63 0 
N 94 62 0 
N 48 10 0 
N 85 15 0 
N 15 97 0 
O 15 95 0 
6
Atoms. Timestep: 5673
N 44 62 0 
N 94 61 0 
N 49 10 0 
N 84 15 0 
N 15 96 0 
O 15 94 0 
6
Atoms. Timestep: 5674
N 44 61 0 
N 94 60 0 
N 48 10 0 
N 85 15 0 
N 15 95 0 
O 15 93 0 
6
Atoms. Timestep: 5675
N 44 60 0 
N 94 59 0 
N 47 10 0 
N 84 15 0 
N 15 94 0 
O 15 92 0 
6
Atoms. Timestep: 5676
N 44 59 0 
N 94 58 0 
N 48 10 0 
N 85 15 0 
N 15 93 0 
O 15 91 0 
6
Atoms. Timestep: 5677
N 44 58 0 
N 94 57 0 
N 49 10 0 
N 86 15 0 
N 15 92 0 
O 15 90 0 
6
Atoms. Timestep: 5678
N 44 57 0 
N 94 56 0 
N 48 10 0 
N 87 15 0 
N 15 91 0 
O 15 89 0 
6
Atoms. Timestep: 5679
N 44 56 0 
N 94 55 0 
N 47 10 0 
N 86 15 0 
N 15 90 0 
O 15 88 0 
6
Atoms. Timestep: 5680
N 44 55 0 
N 94 54 0 
N 46 10 0 
N 85 15 0 
N 15 89 0 
O 15 87 0 
6
Atoms. Timestep: 5681
N 44 54 0 
N 94 55 0 
N 47 10 0 
N 86 15 0 
N 15 88 0 
O 15 86 0 
6
Atoms. Timestep: 5682
N 44 53 0 
N 94 56 0 
N 48 10 0 
N 87 15 0 
N 15 87 0 
O 15 85 0 
6
Atoms. Timestep: 5683
N 44 54 0 
N 94 57 0 
N 47 10 0 
N 88 15 0 
N 15 86 0 
O 15 84 0 
6
Atoms. Timestep: 5684
N 44 55 0 
N 94 58 0 
N 48 10 0 
N 88 16 0 
N 15 85 0 
O 15 83 0 
6
Atoms. Timestep: 5685
N 43 55 0 
N 94 59 0 
N 47 10 0 
N 89 16 0 
N 15 84 0 
O 15 82 0 
6
Atoms. Timestep: 5686
N 42 55 0 
N 94 58 0 
N 48 10 0 
N 90 16 0 
N 15 83 0 
O 15 81 0 
6
Atoms. Timestep: 5687
N 41 55 0 
N 94 57 0 
N 47 10 0 
N 90 15 0 
N 15 82 0 
O 15 80 0 
6
Atoms. Timestep: 5688
N 41 54 0 
N 94 56 0 
N 46 10 0 
N 90 14 0 
N 15 81 0 
O 15 79 0 
6
Atoms. Timestep: 5689
N 42 54 0 
N 94 55 0 
N 47 10 0 
N 90 13 0 
N 15 80 0 
O 15 78 0 
6
Atoms. Timestep: 5690
N 43 54 0 
N 94 54 0 
N 46 10 0 
N 90 12 0 
N 15 79 0 
O 15 77 0 
6
Atoms. Timestep: 5691
N 44 54 0 
N 94 53 0 
N 46 9 0 
N 90 11 0 
N 15 78 0 
O 15 76 0 
6
Atoms. Timestep: 5692
N 43 54 0 
N 94 52 0 
N 45 9 0 
N 90 10 0 
N 15 77 0 
O 15 75 0 
6
Atoms. Timestep: 5693
N 44 54 0 
N 94 51 0 
N 45 10 0 
N 90 9 0 
N 15 76 0 
O 15 74 0 
6
Atoms. Timestep: 5694
N 45 54 0 
N 94 50 0 
N 44 10 0 
N 90 8 0 
N 15 75 0 
O 15 73 0 
6
Atoms. Timestep: 5695
N 44 54 0 
N 94 49 0 
N 44 9 0 
N 90 7 0 
N 15 74 0 
O 15 72 0 
6
Atoms. Timestep: 5696
N 45 54 0 
N 94 48 0 
N 44 8 0 
N 90 6 0 
N 15 73 0 
O 15 71 0 
6
Atoms. Timestep: 5697
N 46 54 0 
N 94 47 0 
N 44 7 0 
N 90 5 0 
N 15 72 0 
O 15 70 0 
6
Atoms. Timestep: 5698
N 45 54 0 
N 94 46 0 
N 43 7 0 
N 90 4 0 
N 15 71 0 
O 15 69 0 
6
Atoms. Timestep: 5699
N 44 54 0 
N 94 45 0 
N 43 8 0 
N 90 3 0 
N 15 70 0 
O 15 68 0 
6
Atoms. Timestep: 5700
N 45 54 0 
N 94 44 0 
N 43 7 0 
N 90 2 0 
N 15 69 0 
O 15 67 0 
6
Atoms. Timestep: 5701
N 44 54 0 
N 94 43 0 
N 43 6 0 
N 90 1 0 
N 15 68 0 
O 15 66 0 
6
Atoms. Timestep: 5702
N 45 54 0 
N 94 42 0 
N 42 6 0 
N 90 0 0 
N 15 67 0 
O 15 65 0 
6
Atoms. Timestep: 5703
N 44 54 0 
N 94 41 0 
N 42 5 0 
N 90 99 0 
N 15 66 0 
O 15 64 0 
6
Atoms. Timestep: 5704
N 43 54 0 
N 94 40 0 
N 41 5 0 
N 90 98 0 
N 15 65 0 
O 15 63 0 
6
Atoms. Timestep: 5705
N 44 54 0 
N 94 39 0 
N 41 6 0 
N 90 97 0 
N 15 64 0 
O 15 62 0 
6
Atoms. Timestep: 5706
N 45 54 0 
N 94 38 0 
N 41 5 0 
N 90 96 0 
N 15 63 0 
O 15 61 0 
6
Atoms. Timestep: 5707
N 44 54 0 
N 94 37 0 
N 41 4 0 
N 90 95 0 
N 15 62 0 
O 15 60 0 
6
Atoms. Timestep: 5708
N 45 54 0 
N 94 36 0 
N 40 4 0 
N 90 94 0 
N 15 61 0 
O 15 59 0 
6
Atoms. Timestep: 5709
N 46 54 0 
N 94 35 0 
N 39 4 0 
N 90 93 0 
N 15 60 0 
O 15 58 0 
6
Atoms. Timestep: 5710
N 47 54 0 
N 94 34 0 
N 38 4 0 
N 90 92 0 
N 15 59 0 
O 15 57 0 
6
Atoms. Timestep: 5711
N 48 54 0 
N 94 33 0 
N 39 4 0 
N 90 91 0 
N 15 58 0 
O 15 56 0 
6
Atoms. Timestep: 5712
N 49 54 0 
N 94 32 0 
N 38 4 0 
N 90 90 0 
N 15 57 0 
O 15 55 0 
6
Atoms. Timestep: 5713
N 50 54 0 
N 94 31 0 
N 39 4 0 
N 90 89 0 
N 15 56 0 
O 15 54 0 
6
Atoms. Timestep: 5714
N 51 54 0 
N 94 30 0 
N 38 4 0 
N 90 88 0 
N 15 55 0 
O 15 53 0 
6
Atoms. Timestep: 5715
N 52 54 0 
N 94 29 0 
N 39 4 0 
N 90 87 0 
N 15 54 0 
O 15 52 0 
6
Atoms. Timestep: 5716
N 53 54 0 
N 94 28 0 
N 38 4 0 
N 90 86 0 
N 15 53 0 
O 15 51 0 
6
Atoms. Timestep: 5717
N 54 54 0 
N 94 27 0 
N 39 4 0 
N 90 85 0 
N 15 52 0 
O 15 50 0 
6
Atoms. Timestep: 5718
N 55 54 0 
N 94 26 0 
N 40 4 0 
N 90 84 0 
N 15 51 0 
O 15 49 0 
6
Atoms. Timestep: 5719
N 56 54 0 
N 94 25 0 
N 41 4 0 
N 90 83 0 
N 15 50 0 
O 15 48 0 
6
Atoms. Timestep: 5720
N 57 54 0 
N 94 24 0 
N 42 4 0 
N 90 82 0 
N 15 49 0 
O 15 47 0 
6
Atoms. Timestep: 5721
N 56 54 0 
N 94 23 0 
N 42 5 0 
N 90 81 0 
N 15 48 0 
O 15 46 0 
6
Atoms. Timestep: 5722
N 57 54 0 
N 94 22 0 
N 42 4 0 
N 90 80 0 
N 15 47 0 
O 15 45 0 
6
Atoms. Timestep: 5723
N 56 54 0 
N 94 21 0 
N 42 3 0 
N 91 80 0 
N 15 46 0 
O 15 44 0 
6
Atoms. Timestep: 5724
N 57 54 0 
N 94 20 0 
N 42 2 0 
N 91 79 0 
N 15 45 0 
O 15 43 0 
6
Atoms. Timestep: 5725
N 56 54 0 
N 94 19 0 
N 42 1 0 
N 91 78 0 
N 15 44 0 
O 15 42 0 
6
Atoms. Timestep: 5726
N 55 54 0 
N 94 18 0 
N 42 2 0 
N 91 77 0 
N 15 43 0 
O 15 41 0 
6
Atoms. Timestep: 5727
N 56 54 0 
N 94 17 0 
N 42 3 0 
N 91 76 0 
N 15 42 0 
O 15 40 0 
6
Atoms. Timestep: 5728
N 55 54 0 
N 94 16 0 
N 42 4 0 
N 92 76 0 
N 15 41 0 
O 15 39 0 
6
Atoms. Timestep: 5729
N 54 54 0 
N 94 15 0 
N 42 5 0 
N 92 75 0 
N 15 40 0 
O 15 38 0 
6
Atoms. Timestep: 5730
N 55 54 0 
N 94 14 0 
N 42 6 0 
N 92 74 0 
N 15 39 0 
O 15 37 0 
6
Atoms. Timestep: 5731
N 54 54 0 
N 94 13 0 
N 42 5 0 
N 92 73 0 
N 15 38 0 
O 15 36 0 
6
Atoms. Timestep: 5732
N 53 54 0 
N 94 12 0 
N 42 4 0 
N 92 72 0 
N 15 37 0 
O 15 35 0 
6
Atoms. Timestep: 5733
N 52 54 0 
N 94 11 0 
N 42 3 0 
N 92 71 0 
N 15 36 0 
O 15 34 0 
6
Atoms. Timestep: 5734
N 53 54 0 
N 94 10 0 
N 42 2 0 
N 92 70 0 
N 15 35 0 
O 15 33 0 
6
Atoms. Timestep: 5735
N 52 54 0 
N 94 9 0 
N 42 1 0 
N 92 69 0 
N 15 34 0 
O 15 32 0 
6
Atoms. Timestep: 5736
N 51 54 0 
N 94 8 0 
N 42 0 0 
N 92 68 0 
N 15 33 0 
O 15 31 0 
6
Atoms. Timestep: 5737
N 52 54 0 
N 94 7 0 
N 42 99 0 
N 92 67 0 
N 15 32 0 
O 15 30 0 
6
Atoms. Timestep: 5738
N 51 54 0 
N 94 6 0 
N 42 98 0 
N 92 66 0 
N 15 31 0 
O 15 29 0 
6
Atoms. Timestep: 5739
N 50 54 0 
N 94 5 0 
N 42 97 0 
N 92 65 0 
N 15 30 0 
O 15 28 0 
6
Atoms. Timestep: 5740
N 50 53 0 
N 94 4 0 
N 42 96 0 
N 92 64 0 
N 15 29 0 
O 15 27 0 
6
Atoms. Timestep: 5741
N 50 52 0 
N 94 3 0 
N 42 95 0 
N 92 63 0 
N 15 28 0 
O 15 26 0 
6
Atoms. Timestep: 5742
N 50 51 0 
N 94 2 0 
N 42 94 0 
N 92 62 0 
N 15 27 0 
O 15 25 0 
6
Atoms. Timestep: 5743
N 50 50 0 
N 94 1 0 
N 42 93 0 
N 92 61 0 
N 15 26 0 
O 15 24 0 
6
Atoms. Timestep: 5744
N 50 49 0 
N 94 0 0 
N 42 92 0 
N 92 60 0 
N 15 25 0 
O 15 23 0 
6
Atoms. Timestep: 5745
N 50 48 0 
N 94 99 0 
N 42 91 0 
N 92 59 0 
N 15 24 0 
O 15 22 0 
6
Atoms. Timestep: 5746
N 50 47 0 
N 94 98 0 
N 42 90 0 
N 92 58 0 
N 15 23 0 
O 15 21 0 
6
Atoms. Timestep: 5747
N 50 46 0 
N 94 97 0 
N 42 89 0 
N 92 57 0 
N 15 22 0 
O 15 20 0 
6
Atoms. Timestep: 5748
N 50 45 0 
N 94 96 0 
N 42 88 0 
N 92 56 0 
N 15 21 0 
O 15 19 0 
6
Atoms. Timestep: 5749
N 50 44 0 
N 94 95 0 
N 42 87 0 
N 92 55 0 
N 15 20 0 
O 15 18 0 
6
Atoms. Timestep: 5750
N 50 43 0 
N 94 94 0 
N 42 86 0 
N 92 54 0 
N 15 19 0 
O 15 17 0 
6
Atoms. Timestep: 5751
N 50 42 0 
N 94 93 0 
N 42 85 0 
N 92 53 0 
N 15 18 0 
O 15 16 0 
6
Atoms. Timestep: 5752
N 50 41 0 
N 94 92 0 
N 42 84 0 
N 92 52 0 
N 15 17 0 
O 15 15 0 
6
Atoms. Timestep: 5753
N 50 40 0 
N 94 91 0 
N 42 83 0 
N 92 51 0 
N 15 16 0 
O 15 14 0 
6
Atoms. Timestep: 5754
N 50 39 0 
N 94 90 0 
N 42 82 0 
N 92 50 0 
N 15 15 0 
O 15 13 0 
6
Atoms. Timestep: 5755
N 50 38 0 
N 94 89 0 
N 42 81 0 
N 92 49 0 
N 15 14 0 
O 15 12 0 
6
Atoms. Timestep: 5756
N 50 37 0 
N 94 88 0 
N 42 80 0 
N 92 48 0 
N 15 13 0 
O 15 11 0 
6
Atoms. Timestep: 5757
N 50 36 0 
N 94 87 0 
N 42 79 0 
N 92 47 0 
N 15 12 0 
O 15 10 0 
6
Atoms. Timestep: 5758
N 50 35 0 
N 94 86 0 
N 42 78 0 
N 92 46 0 
N 15 11 0 
O 15 9 0 
6
Atoms. Timestep: 5759
N 50 34 0 
N 94 85 0 
N 42 77 0 
N 92 45 0 
N 15 10 0 
O 15 8 0 
6
Atoms. Timestep: 5760
N 50 33 0 
N 94 84 0 
N 42 76 0 
N 92 44 0 
N 15 9 0 
O 15 7 0 
6
Atoms. Timestep: 5761
N 50 32 0 
N 94 83 0 
N 42 75 0 
N 92 43 0 
N 15 8 0 
O 15 6 0 
6
Atoms. Timestep: 5762
N 50 31 0 
N 94 82 0 
N 42 74 0 
N 92 42 0 
N 15 7 0 
O 15 5 0 
6
Atoms. Timestep: 5763
N 50 30 0 
N 94 81 0 
N 42 73 0 
N 92 41 0 
N 15 6 0 
O 15 4 0 
6
Atoms. Timestep: 5764
N 50 29 0 
N 93 81 0 
N 42 72 0 
N 92 40 0 
N 15 5 0 
O 15 3 0 
6
Atoms. Timestep: 5765
N 50 28 0 
N 93 80 0 
N 42 71 0 
N 92 39 0 
N 15 4 0 
O 15 2 0 
6
Atoms. Timestep: 5766
N 50 27 0 
N 93 79 0 
N 42 70 0 
N 92 38 0 
N 15 3 0 
O 15 1 0 
6
Atoms. Timestep: 5767
N 50 26 0 
N 93 78 0 
N 42 69 0 
N 92 37 0 
N 15 2 0 
O 15 0 0 
6
Atoms. Timestep: 5768
N 50 25 0 
N 93 77 0 
N 42 68 0 
N 92 36 0 
N 15 1 0 
O 15 99 0 
6
Atoms. Timestep: 5769
N 50 24 0 
N 93 76 0 
N 42 67 0 
N 92 35 0 
N 15 0 0 
O 15 98 0 
6
Atoms. Timestep: 5770
N 50 23 0 
N 93 75 0 
N 42 66 0 
N 92 34 0 
N 15 99 0 
O 15 97 0 
6
Atoms. Timestep: 5771
N 50 22 0 
N 93 74 0 
N 42 65 0 
N 92 33 0 
N 15 98 0 
O 15 96 0 
6
Atoms. Timestep: 5772
N 50 21 0 
N 93 73 0 
N 42 64 0 
N 92 32 0 
N 15 97 0 
O 15 95 0 
6
Atoms. Timestep: 5773
N 50 20 0 
N 93 72 0 
N 42 63 0 
N 92 31 0 
N 15 96 0 
O 15 94 0 
6
Atoms. Timestep: 5774
N 50 19 0 
N 93 71 0 
N 42 62 0 
N 92 30 0 
N 15 95 0 
O 15 93 0 
6
Atoms. Timestep: 5775
N 50 18 0 
N 93 70 0 
N 42 61 0 
N 92 29 0 
N 15 94 0 
O 15 92 0 
6
Atoms. Timestep: 5776
N 50 17 0 
N 93 69 0 
N 42 60 0 
N 92 28 0 
N 15 93 0 
O 15 91 0 
6
Atoms. Timestep: 5777
N 50 16 0 
N 93 68 0 
N 42 59 0 
N 92 27 0 
N 15 92 0 
O 15 90 0 
6
Atoms. Timestep: 5778
N 50 15 0 
N 93 67 0 
N 42 58 0 
N 92 26 0 
N 15 91 0 
O 15 89 0 
6
Atoms. Timestep: 5779
N 50 14 0 
N 93 66 0 
N 42 57 0 
N 92 25 0 
N 15 90 0 
O 15 88 0 
6
Atoms. Timestep: 5780
N 50 13 0 
N 93 65 0 
N 42 56 0 
N 92 24 0 
N 15 89 0 
O 15 87 0 
6
Atoms. Timestep: 5781
N 50 12 0 
N 93 64 0 
N 42 55 0 
N 92 23 0 
N 15 88 0 
O 15 86 0 
6
Atoms. Timestep: 5782
N 50 11 0 
N 93 63 0 
N 42 54 0 
N 92 22 0 
N 15 87 0 
O 15 85 0 
6
Atoms. Timestep: 5783
N 50 10 0 
N 93 62 0 
N 42 53 0 
N 92 21 0 
N 15 86 0 
O 15 84 0 
6
Atoms. Timestep: 5784
N 50 9 0 
N 93 61 0 
N 42 52 0 
N 92 20 0 
N 15 85 0 
O 15 83 0 
6
Atoms. Timestep: 5785
N 50 8 0 
N 93 60 0 
N 42 51 0 
N 92 19 0 
N 15 84 0 
O 15 82 0 
6
Atoms. Timestep: 5786
N 50 7 0 
N 93 59 0 
N 42 50 0 
N 92 18 0 
N 15 83 0 
O 15 81 0 
6
Atoms. Timestep: 5787
N 50 6 0 
N 93 58 0 
N 42 49 0 
N 92 17 0 
N 15 82 0 
O 15 80 0 
6
Atoms. Timestep: 5788
N 50 5 0 
N 93 57 0 
N 42 48 0 
N 92 16 0 
N 15 81 0 
O 15 79 0 
6
Atoms. Timestep: 5789
N 50 4 0 
N 93 56 0 
N 42 47 0 
N 92 15 0 
N 15 80 0 
O 15 78 0 
6
Atoms. Timestep: 5790
N 50 3 0 
N 93 55 0 
N 42 46 0 
N 92 14 0 
N 15 79 0 
O 15 77 0 
6
Atoms. Timestep: 5791
N 50 2 0 
N 93 54 0 
N 42 45 0 
N 92 13 0 
N 15 78 0 
O 15 76 0 
6
Atoms. Timestep: 5792
N 50 1 0 
N 93 53 0 
N 42 44 0 
N 92 12 0 
N 15 77 0 
O 15 75 0 
6
Atoms. Timestep: 5793
N 50 0 0 
N 93 52 0 
N 42 43 0 
N 92 11 0 
N 15 76 0 
O 15 74 0 
6
Atoms. Timestep: 5794
N 50 99 0 
N 93 51 0 
N 42 42 0 
N 92 10 0 
N 15 75 0 
O 15 73 0 
6
Atoms. Timestep: 5795
N 50 98 0 
N 93 50 0 
N 42 41 0 
N 92 9 0 
N 15 74 0 
O 15 72 0 
6
Atoms. Timestep: 5796
N 50 97 0 
N 93 49 0 
N 42 40 0 
N 92 8 0 
N 15 73 0 
O 15 71 0 
6
Atoms. Timestep: 5797
N 50 96 0 
N 93 48 0 
N 42 39 0 
N 92 7 0 
N 15 72 0 
O 15 70 0 
6
Atoms. Timestep: 5798
N 50 95 0 
N 93 47 0 
N 42 38 0 
N 92 6 0 
N 15 71 0 
O 15 69 0 
6
Atoms. Timestep: 5799
N 50 94 0 
N 93 46 0 
N 42 37 0 
N 92 5 0 
N 15 70 0 
O 15 68 0 
6
Atoms. Timestep: 5800
N 50 93 0 
N 93 45 0 
N 42 36 0 
N 92 4 0 
N 15 69 0 
O 15 67 0 
6
Atoms. Timestep: 5801
N 50 92 0 
N 93 44 0 
N 42 35 0 
N 92 3 0 
N 15 68 0 
O 15 66 0 
6
Atoms. Timestep: 5802
N 50 91 0 
N 93 43 0 
N 42 34 0 
N 92 2 0 
N 15 67 0 
O 15 65 0 
6
Atoms. Timestep: 5803
N 50 90 0 
N 93 42 0 
N 42 33 0 
N 92 1 0 
N 15 66 0 
O 15 64 0 
6
Atoms. Timestep: 5804
N 49 90 0 
N 93 41 0 
N 42 32 0 
N 92 0 0 
N 15 65 0 
O 15 63 0 
6
Atoms. Timestep: 5805
N 49 89 0 
N 93 40 0 
N 42 31 0 
N 92 99 0 
N 15 64 0 
O 15 62 0 
6
Atoms. Timestep: 5806
N 49 88 0 
N 93 39 0 
N 42 30 0 
N 92 98 0 
N 15 63 0 
O 15 61 0 
6
Atoms. Timestep: 5807
N 49 87 0 
N 93 38 0 
N 42 29 0 
N 92 97 0 
N 15 62 0 
O 15 60 0 
6
Atoms. Timestep: 5808
N 49 86 0 
N 93 37 0 
N 42 28 0 
N 92 98 0 
N 15 61 0 
O 15 59 0 
6
Atoms. Timestep: 5809
N 49 85 0 
N 93 36 0 
N 42 27 0 
N 92 97 0 
N 15 60 0 
O 15 58 0 
6
Atoms. Timestep: 5810
N 49 84 0 
N 93 35 0 
N 42 26 0 
N 92 96 0 
N 15 59 0 
O 15 57 0 
6
Atoms. Timestep: 5811
N 49 83 0 
N 93 34 0 
N 42 25 0 
N 92 95 0 
N 15 58 0 
O 15 56 0 
6
Atoms. Timestep: 5812
N 49 82 0 
N 93 33 0 
N 41 25 0 
N 92 94 0 
N 15 57 0 
O 15 55 0 
6
Atoms. Timestep: 5813
N 50 82 0 
N 93 32 0 
N 41 26 0 
N 92 93 0 
N 15 56 0 
O 15 54 0 
6
Atoms. Timestep: 5814
N 50 81 0 
N 93 31 0 
N 41 25 0 
N 92 92 0 
N 15 55 0 
O 15 53 0 
6
Atoms. Timestep: 5815
N 50 80 0 
N 93 30 0 
N 41 24 0 
N 92 91 0 
N 15 54 0 
O 15 52 0 
6
Atoms. Timestep: 5816
N 50 79 0 
N 93 29 0 
N 41 23 0 
N 92 90 0 
N 15 53 0 
O 15 51 0 
6
Atoms. Timestep: 5817
N 50 78 0 
N 93 28 0 
N 41 22 0 
N 92 89 0 
N 15 52 0 
O 15 50 0 
6
Atoms. Timestep: 5818
N 50 77 0 
N 93 27 0 
N 41 21 0 
N 92 88 0 
N 15 51 0 
O 15 49 0 
6
Atoms. Timestep: 5819
N 50 76 0 
N 93 26 0 
N 41 20 0 
N 92 87 0 
N 15 50 0 
O 15 48 0 
6
Atoms. Timestep: 5820
N 50 75 0 
N 93 25 0 
N 41 19 0 
N 92 86 0 
N 15 49 0 
O 15 47 0 
6
Atoms. Timestep: 5821
N 50 74 0 
N 93 24 0 
N 41 18 0 
N 92 85 0 
N 15 48 0 
O 15 46 0 
6
Atoms. Timestep: 5822
N 50 73 0 
N 93 23 0 
N 41 17 0 
N 92 84 0 
N 15 47 0 
O 15 45 0 
6
Atoms. Timestep: 5823
N 50 72 0 
N 93 22 0 
N 41 16 0 
N 92 83 0 
N 15 46 0 
O 15 44 0 
6
Atoms. Timestep: 5824
N 50 71 0 
N 93 21 0 
N 41 15 0 
N 92 82 0 
N 15 45 0 
O 15 43 0 
6
Atoms. Timestep: 5825
N 50 70 0 
N 93 20 0 
N 41 14 0 
N 92 81 0 
N 15 44 0 
O 15 42 0 
6
Atoms. Timestep: 5826
N 50 69 0 
N 93 19 0 
N 41 13 0 
N 92 80 0 
N 15 43 0 
O 15 41 0 
6
Atoms. Timestep: 5827
N 50 68 0 
N 93 18 0 
N 41 12 0 
N 92 79 0 
N 15 42 0 
O 15 40 0 
6
Atoms. Timestep: 5828
N 50 67 0 
N 93 17 0 
N 41 11 0 
N 92 78 0 
N 15 41 0 
O 15 39 0 
6
Atoms. Timestep: 5829
N 50 66 0 
N 93 16 0 
N 41 10 0 
N 92 77 0 
N 15 40 0 
O 15 38 0 
6
Atoms. Timestep: 5830
N 50 65 0 
N 93 15 0 
N 41 9 0 
N 92 76 0 
N 15 39 0 
O 15 37 0 
6
Atoms. Timestep: 5831
N 50 64 0 
N 93 14 0 
N 41 8 0 
N 92 75 0 
N 15 38 0 
O 15 36 0 
6
Atoms. Timestep: 5832
N 50 63 0 
N 93 13 0 
N 41 7 0 
N 92 74 0 
N 15 37 0 
O 15 35 0 
6
Atoms. Timestep: 5833
N 50 62 0 
N 93 12 0 
N 41 6 0 
N 92 73 0 
N 15 36 0 
O 15 34 0 
6
Atoms. Timestep: 5834
N 49 62 0 
N 93 11 0 
N 41 7 0 
N 92 72 0 
N 14 36 0 
O 15 33 0 
6
Atoms. Timestep: 5835
N 48 62 0 
N 93 10 0 
N 40 7 0 
N 92 71 0 
N 14 35 0 
O 15 32 0 
6
Atoms. Timestep: 5836
N 47 62 0 
N 93 9 0 
N 40 8 0 
N 92 70 0 
N 14 34 0 
O 15 31 0 
6
Atoms. Timestep: 5837
N 48 62 0 
N 93 8 0 
N 39 8 0 
N 92 69 0 
N 14 33 0 
O 15 30 0 
6
Atoms. Timestep: 5838
N 47 62 0 
N 93 7 0 
N 38 8 0 
N 92 68 0 
N 14 32 0 
O 15 29 0 
6
Atoms. Timestep: 5839
N 46 62 0 
N 93 6 0 
N 37 8 0 
N 92 67 0 
N 14 31 0 
O 15 28 0 
6
Atoms. Timestep: 5840
N 46 63 0 
N 93 5 0 
N 36 8 0 
N 92 66 0 
N 14 30 0 
O 15 27 0 
6
Atoms. Timestep: 5841
N 46 62 0 
N 93 4 0 
N 35 8 0 
N 92 65 0 
N 14 29 0 
O 15 26 0 
6
Atoms. Timestep: 5842
N 45 62 0 
N 93 3 0 
N 34 8 0 
N 92 64 0 
N 14 28 0 
O 15 25 0 
6
Atoms. Timestep: 5843
N 45 63 0 
N 93 2 0 
N 33 8 0 
N 92 63 0 
N 14 27 0 
O 15 24 0 
6
Atoms. Timestep: 5844
N 45 62 0 
N 93 1 0 
N 32 8 0 
N 92 62 0 
N 14 26 0 
O 15 23 0 
6
Atoms. Timestep: 5845
N 44 62 0 
N 93 0 0 
N 31 8 0 
N 92 61 0 
N 14 25 0 
O 15 22 0 
6
Atoms. Timestep: 5846
N 44 61 0 
N 93 99 0 
N 30 8 0 
N 92 60 0 
N 14 24 0 
O 15 21 0 
6
Atoms. Timestep: 5847
N 43 61 0 
N 93 98 0 
N 29 8 0 
N 92 59 0 
N 14 23 0 
O 15 20 0 
6
Atoms. Timestep: 5848
N 43 62 0 
N 93 97 0 
N 28 8 0 
N 92 58 0 
N 14 22 0 
O 15 19 0 
6
Atoms. Timestep: 5849
N 43 61 0 
N 93 96 0 
N 27 8 0 
N 92 57 0 
N 14 21 0 
O 15 18 0 
6
Atoms. Timestep: 5850
N 43 60 0 
N 93 95 0 
N 26 8 0 
N 92 56 0 
N 14 20 0 
O 15 17 0 
6
Atoms. Timestep: 5851
N 42 60 0 
N 93 94 0 
N 25 8 0 
N 92 55 0 
N 14 19 0 
O 15 16 0 
6
Atoms. Timestep: 5852
N 42 61 0 
N 93 93 0 
N 24 8 0 
N 92 54 0 
N 14 18 0 
O 15 15 0 
6
Atoms. Timestep: 5853
N 42 60 0 
N 93 92 0 
N 23 8 0 
N 92 53 0 
N 14 17 0 
O 15 14 0 
6
Atoms. Timestep: 5854
N 42 61 0 
N 93 91 0 
N 22 8 0 
N 92 52 0 
N 14 16 0 
O 15 13 0 
6
Atoms. Timestep: 5855
N 42 62 0 
N 93 90 0 
N 21 8 0 
N 92 51 0 
N 14 15 0 
O 15 12 0 
6
Atoms. Timestep: 5856
N 42 61 0 
N 93 89 0 
N 20 8 0 
N 92 50 0 
N 14 14 0 
O 15 11 0 
6
Atoms. Timestep: 5857
N 42 62 0 
N 93 88 0 
N 19 8 0 
N 92 49 0 
N 14 13 0 
O 15 10 0 
6
Atoms. Timestep: 5858
N 42 61 0 
N 93 87 0 
N 18 8 0 
N 92 48 0 
N 14 12 0 
O 15 9 0 
6
Atoms. Timestep: 5859
N 42 62 0 
N 92 87 0 
N 17 8 0 
N 92 47 0 
N 14 11 0 
O 14 9 0 
6
Atoms. Timestep: 5860
N 42 61 0 
N 92 86 0 
N 18 8 0 
N 92 46 0 
N 14 10 0 
O 14 8 0 
6
Atoms. Timestep: 5861
N 42 60 0 
N 92 85 0 
N 19 8 0 
N 92 45 0 
N 14 9 0 
O 14 7 0 
6
Atoms. Timestep: 5862
N 42 59 0 
N 92 84 0 
N 20 8 0 
N 92 44 0 
N 14 8 0 
O 14 6 0 
6
Atoms. Timestep: 5863
N 42 60 0 
N 92 83 0 
N 21 8 0 
N 92 43 0 
N 14 7 0 
O 14 5 0 
6
Atoms. Timestep: 5864
N 42 59 0 
N 92 82 0 
N 22 8 0 
N 92 42 0 
N 14 6 0 
O 14 4 0 
6
Atoms. Timestep: 5865
N 42 58 0 
N 92 81 0 
N 23 8 0 
N 92 41 0 
N 14 5 0 
O 14 3 0 
6
Atoms. Timestep: 5866
N 43 58 0 
N 92 80 0 
N 24 8 0 
N 92 40 0 
N 14 4 0 
O 14 2 0 
6
Atoms. Timestep: 5867
N 42 58 0 
N 92 79 0 
N 25 8 0 
N 92 39 0 
N 14 3 0 
O 14 1 0 
6
Atoms. Timestep: 5868
N 42 59 0 
N 92 78 0 
N 26 8 0 
N 92 38 0 
N 14 2 0 
O 14 0 0 
6
Atoms. Timestep: 5869
N 42 60 0 
N 92 77 0 
N 27 8 0 
N 92 37 0 
N 14 1 0 
O 14 99 0 
6
Atoms. Timestep: 5870
N 42 59 0 
N 92 76 0 
N 28 8 0 
N 92 36 0 
N 14 0 0 
O 14 98 0 
6
Atoms. Timestep: 5871
N 42 58 0 
N 92 75 0 
N 29 8 0 
N 92 35 0 
N 14 99 0 
O 14 97 0 
6
Atoms. Timestep: 5872
N 42 57 0 
N 92 74 0 
N 30 8 0 
N 92 34 0 
N 14 98 0 
O 14 96 0 
6
Atoms. Timestep: 5873
N 42 56 0 
N 92 73 0 
N 31 8 0 
N 92 33 0 
N 14 97 0 
O 14 95 0 
6
Atoms. Timestep: 5874
N 42 55 0 
N 92 72 0 
N 32 8 0 
N 92 32 0 
N 14 96 0 
O 14 94 0 
6
Atoms. Timestep: 5875
N 42 56 0 
N 92 71 0 
N 33 8 0 
N 92 31 0 
N 14 95 0 
O 14 93 0 
6
Atoms. Timestep: 5876
N 42 57 0 
N 92 70 0 
N 34 8 0 
N 92 30 0 
N 14 94 0 
O 14 92 0 
6
Atoms. Timestep: 5877
N 42 58 0 
N 92 69 0 
N 35 8 0 
N 92 29 0 
N 14 93 0 
O 14 91 0 
6
Atoms. Timestep: 5878
N 42 59 0 
N 92 68 0 
N 36 8 0 
N 92 28 0 
N 14 92 0 
O 14 90 0 
6
Atoms. Timestep: 5879
N 42 60 0 
N 92 67 0 
N 37 8 0 
N 92 27 0 
N 14 91 0 
O 14 89 0 
6
Atoms. Timestep: 5880
N 42 61 0 
N 92 66 0 
N 38 8 0 
N 92 26 0 
N 14 90 0 
O 14 88 0 
6
Atoms. Timestep: 5881
N 41 61 0 
N 92 65 0 
N 39 8 0 
N 92 25 0 
N 14 89 0 
O 14 87 0 
6
Atoms. Timestep: 5882
N 40 61 0 
N 92 64 0 
N 40 8 0 
N 92 24 0 
N 14 88 0 
O 14 86 0 
6
Atoms. Timestep: 5883
N 40 60 0 
N 92 63 0 
N 41 8 0 
N 92 23 0 
N 14 87 0 
O 14 85 0 
6
Atoms. Timestep: 5884
N 40 59 0 
N 92 62 0 
N 42 8 0 
N 92 22 0 
N 14 86 0 
O 14 84 0 
6
Atoms. Timestep: 5885
N 40 58 0 
N 93 62 0 
N 43 8 0 
N 92 21 0 
N 15 86 0 
O 14 83 0 
6
Atoms. Timestep: 5886
N 40 57 0 
N 94 62 0 
N 44 8 0 
N 92 20 0 
N 15 85 0 
O 14 82 0 
6
Atoms. Timestep: 5887
N 40 56 0 
N 94 63 0 
N 45 8 0 
N 92 19 0 
N 15 84 0 
O 14 81 0 
6
Atoms. Timestep: 5888
N 40 55 0 
N 95 63 0 
N 46 8 0 
N 92 20 0 
N 15 83 0 
O 14 80 0 
6
Atoms. Timestep: 5889
N 40 54 0 
N 96 63 0 
N 47 8 0 
N 92 19 0 
N 15 82 0 
O 14 79 0 
6
Atoms. Timestep: 5890
N 40 53 0 
N 97 63 0 
N 48 8 0 
N 92 18 0 
N 15 81 0 
O 14 78 0 
6
Atoms. Timestep: 5891
N 40 52 0 
N 98 63 0 
N 49 8 0 
N 92 19 0 
N 15 80 0 
O 14 77 0 
6
Atoms. Timestep: 5892
N 40 51 0 
N 99 63 0 
N 49 7 0 
N 92 18 0 
N 15 79 0 
O 14 76 0 
6
Atoms. Timestep: 5893
N 40 50 0 
N 0 63 0 
N 49 6 0 
N 93 18 0 
N 15 78 0 
O 14 75 0 
6
Atoms. Timestep: 5894
N 40 49 0 
N 1 63 0 
N 49 5 0 
N 93 17 0 
N 15 77 0 
O 14 74 0 
6
Atoms. Timestep: 5895
N 40 48 0 
N 2 63 0 
N 49 4 0 
N 94 17 0 
N 15 76 0 
O 14 73 0 
6
Atoms. Timestep: 5896
N 40 47 0 
N 3 63 0 
N 49 3 0 
N 94 16 0 
N 15 75 0 
O 14 72 0 
6
Atoms. Timestep: 5897
N 40 46 0 
N 4 63 0 
N 49 2 0 
N 95 16 0 
N 15 74 0 
O 14 71 0 
6
Atoms. Timestep: 5898
N 40 45 0 
N 5 63 0 
N 49 1 0 
N 95 15 0 
N 15 73 0 
O 14 70 0 
6
Atoms. Timestep: 5899
N 40 44 0 
N 6 63 0 
N 49 0 0 
N 95 16 0 
N 15 72 0 
O 14 69 0 
6
Atoms. Timestep: 5900
N 40 43 0 
N 7 63 0 
N 49 99 0 
N 95 15 0 
N 15 71 0 
O 14 68 0 
6
Atoms. Timestep: 5901
N 40 42 0 
N 8 63 0 
N 49 98 0 
N 96 15 0 
N 15 70 0 
O 14 67 0 
6
Atoms. Timestep: 5902
N 40 41 0 
N 9 63 0 
N 49 97 0 
N 96 14 0 
N 15 69 0 
O 14 66 0 
6
Atoms. Timestep: 5903
N 40 40 0 
N 10 63 0 
N 49 96 0 
N 97 14 0 
N 15 68 0 
O 14 65 0 
6
Atoms. Timestep: 5904
N 40 39 0 
N 11 63 0 
N 49 95 0 
N 96 14 0 
N 15 67 0 
O 14 64 0 
6
Atoms. Timestep: 5905
N 41 39 0 
N 12 63 0 
N 49 94 0 
N 95 14 0 
N 15 66 0 
O 15 64 0 
6
Atoms. Timestep: 5906
N 41 38 0 
N 11 63 0 
N 50 94 0 
N 96 14 0 
N 15 65 0 
O 15 63 0 
6
Atoms. Timestep: 5907
N 41 37 0 
N 10 63 0 
N 50 93 0 
N 97 14 0 
N 15 64 0 
O 15 62 0 
6
Atoms. Timestep: 5908
N 41 36 0 
N 9 63 0 
N 50 92 0 
N 96 14 0 
N 15 63 0 
O 15 61 0 
6
Atoms. Timestep: 5909
N 41 35 0 
N 8 63 0 
N 50 91 0 
N 95 14 0 
N 15 62 0 
O 15 60 0 
6
Atoms. Timestep: 5910
N 42 35 0 
N 7 63 0 
N 50 90 0 
N 94 14 0 
N 15 61 0 
O 15 59 0 
6
Atoms. Timestep: 5911
N 43 35 0 
N 6 63 0 
N 50 89 0 
N 94 15 0 
N 15 60 0 
O 15 58 0 
6
Atoms. Timestep: 5912
N 44 35 0 
N 5 63 0 
N 50 88 0 
N 94 16 0 
N 15 59 0 
O 15 57 0 
6
Atoms. Timestep: 5913
N 43 35 0 
N 4 63 0 
N 51 88 0 
N 94 15 0 
N 15 58 0 
O 15 56 0 
6
Atoms. Timestep: 5914
N 44 35 0 
N 3 63 0 
N 51 87 0 
N 94 14 0 
N 15 57 0 
O 15 55 0 
6
Atoms. Timestep: 5915
N 45 35 0 
N 2 63 0 
N 52 87 0 
N 94 13 0 
N 15 56 0 
O 15 54 0 
6
Atoms. Timestep: 5916
N 44 35 0 
N 1 63 0 
N 52 86 0 
N 94 12 0 
N 15 55 0 
O 15 53 0 
6
Atoms. Timestep: 5917
N 45 35 0 
N 0 63 0 
N 51 86 0 
N 94 11 0 
N 15 54 0 
O 15 52 0 
6
Atoms. Timestep: 5918
N 46 35 0 
N 99 63 0 
N 52 86 0 
N 94 10 0 
N 15 53 0 
O 15 51 0 
6
Atoms. Timestep: 5919
N 45 35 0 
N 98 63 0 
N 51 86 0 
N 94 9 0 
N 15 52 0 
O 15 50 0 
6
Atoms. Timestep: 5920
N 44 35 0 
N 97 63 0 
N 51 85 0 
N 94 10 0 
N 15 51 0 
O 15 49 0 
6
Atoms. Timestep: 5921
N 45 35 0 
N 96 63 0 
N 52 85 0 
N 94 11 0 
N 15 50 0 
O 15 48 0 
6
Atoms. Timestep: 5922
N 44 35 0 
N 95 63 0 
N 51 85 0 
N 94 12 0 
N 15 49 0 
O 15 47 0 
6
Atoms. Timestep: 5923
N 45 35 0 
N 94 63 0 
N 50 85 0 
N 94 13 0 
N 15 48 0 
O 15 46 0 
6
Atoms. Timestep: 5924
N 44 35 0 
N 93 63 0 
N 49 85 0 
N 94 12 0 
N 15 47 0 
O 15 45 0 
6
Atoms. Timestep: 5925
N 43 35 0 
N 92 63 0 
N 48 85 0 
N 94 11 0 
N 15 46 0 
O 15 44 0 
6
Atoms. Timestep: 5926
N 44 35 0 
N 91 63 0 
N 47 85 0 
N 94 10 0 
N 15 45 0 
O 15 43 0 
6
Atoms. Timestep: 5927
N 45 35 0 
N 90 63 0 
N 46 85 0 
N 94 9 0 
N 15 44 0 
O 15 42 0 
6
Atoms. Timestep: 5928
N 44 35 0 
N 89 63 0 
N 45 85 0 
N 94 8 0 
N 15 43 0 
O 15 41 0 
6
Atoms. Timestep: 5929
N 45 35 0 
N 88 63 0 
N 44 85 0 
N 94 7 0 
N 15 42 0 
O 15 40 0 
6
Atoms. Timestep: 5930
N 46 35 0 
N 87 63 0 
N 43 85 0 
N 94 6 0 
N 15 41 0 
O 15 39 0 
6
Atoms. Timestep: 5931
N 47 35 0 
N 86 63 0 
N 42 85 0 
N 94 5 0 
N 15 40 0 
O 15 38 0 
6
Atoms. Timestep: 5932
N 48 35 0 
N 85 63 0 
N 41 85 0 
N 94 4 0 
N 15 39 0 
O 15 37 0 
6
Atoms. Timestep: 5933
N 49 35 0 
N 84 63 0 
N 40 85 0 
N 94 3 0 
N 15 38 0 
O 15 36 0 
6
Atoms. Timestep: 5934
N 50 35 0 
N 84 62 0 
N 39 85 0 
N 94 2 0 
N 15 37 0 
O 15 35 0 
6
Atoms. Timestep: 5935
N 51 35 0 
N 84 61 0 
N 40 85 0 
N 94 1 0 
N 15 36 0 
O 15 34 0 
6
Atoms. Timestep: 5936
N 52 35 0 
N 84 60 0 
N 41 85 0 
N 94 0 0 
N 15 35 0 
O 15 33 0 
6
Atoms. Timestep: 5937
N 53 35 0 
N 85 60 0 
N 40 85 0 
N 94 99 0 
N 15 34 0 
O 15 32 0 
6
Atoms. Timestep: 5938
N 54 35 0 
N 85 59 0 
N 41 85 0 
N 94 98 0 
N 15 33 0 
O 15 31 0 
6
Atoms. Timestep: 5939
N 55 35 0 
N 86 59 0 
N 42 85 0 
N 94 97 0 
N 15 32 0 
O 15 30 0 
6
Atoms. Timestep: 5940
N 54 35 0 
N 87 59 0 
N 43 85 0 
N 94 98 0 
N 15 31 0 
O 15 29 0 
6
Atoms. Timestep: 5941
N 55 35 0 
N 88 59 0 
N 44 85 0 
N 94 99 0 
N 15 30 0 
O 15 28 0 
6
Atoms. Timestep: 5942
N 56 35 0 
N 89 59 0 
N 43 85 0 
N 94 0 0 
N 15 29 0 
O 15 27 0 
6
Atoms. Timestep: 5943
N 55 35 0 
N 90 59 0 
N 43 86 0 
N 94 1 0 
N 15 28 0 
O 15 26 0 
6
Atoms. Timestep: 5944
N 56 35 0 
N 90 60 0 
N 43 87 0 
N 94 2 0 
N 15 27 0 
O 15 25 0 
6
Atoms. Timestep: 5945
N 55 35 0 
N 90 59 0 
N 43 88 0 
N 94 1 0 
N 15 26 0 
O 15 24 0 
6
Atoms. Timestep: 5946
N 54 35 0 
N 90 58 0 
N 43 89 0 
N 94 0 0 
N 15 25 0 
O 15 23 0 
6
Atoms. Timestep: 5947
N 55 35 0 
N 90 57 0 
N 43 88 0 
N 94 99 0 
N 15 24 0 
O 15 22 0 
6
Atoms. Timestep: 5948
N 56 35 0 
N 91 57 0 
N 43 87 0 
N 94 98 0 
N 15 23 0 
O 15 21 0 
6
Atoms. Timestep: 5949
N 55 35 0 
N 91 56 0 
N 43 86 0 
N 94 97 0 
N 15 22 0 
O 15 20 0 
6
Atoms. Timestep: 5950
N 54 35 0 
N 91 55 0 
N 43 85 0 
N 94 96 0 
N 15 21 0 
O 15 19 0 
6
Atoms. Timestep: 5951
N 53 35 0 
N 91 54 0 
N 43 84 0 
N 94 95 0 
N 15 20 0 
O 15 18 0 
6
Atoms. Timestep: 5952
N 54 35 0 
N 91 53 0 
N 43 83 0 
N 94 94 0 
N 15 19 0 
O 15 17 0 
6
Atoms. Timestep: 5953
N 53 35 0 
N 91 52 0 
N 43 82 0 
N 94 93 0 
N 15 18 0 
O 15 16 0 
6
Atoms. Timestep: 5954
N 52 35 0 
N 91 51 0 
N 43 81 0 
N 94 92 0 
N 15 17 0 
O 15 15 0 
6
Atoms. Timestep: 5955
N 51 35 0 
N 91 50 0 
N 43 80 0 
N 94 91 0 
N 15 16 0 
O 15 14 0 
6
Atoms. Timestep: 5956
N 52 35 0 
N 91 49 0 
N 43 79 0 
N 94 90 0 
N 15 15 0 
O 15 13 0 
6
Atoms. Timestep: 5957
N 51 35 0 
N 91 48 0 
N 43 80 0 
N 94 89 0 
N 15 14 0 
O 15 12 0 
6
Atoms. Timestep: 5958
N 50 35 0 
N 91 47 0 
N 43 81 0 
N 94 88 0 
N 15 13 0 
O 15 11 0 
6
Atoms. Timestep: 5959
N 51 35 0 
N 91 46 0 
N 43 80 0 
N 94 87 0 
N 15 12 0 
O 15 10 0 
6
Atoms. Timestep: 5960
N 50 35 0 
N 91 45 0 
N 43 79 0 
N 94 86 0 
N 15 11 0 
O 15 9 0 
6
Atoms. Timestep: 5961
N 49 35 0 
N 91 44 0 
N 43 78 0 
N 94 85 0 
N 15 10 0 
O 15 8 0 
6
Atoms. Timestep: 5962
N 48 35 0 
N 91 43 0 
N 43 77 0 
N 94 84 0 
N 15 9 0 
O 15 7 0 
6
Atoms. Timestep: 5963
N 47 35 0 
N 91 42 0 
N 43 76 0 
N 94 83 0 
N 15 8 0 
O 15 6 0 
6
Atoms. Timestep: 5964
N 47 34 0 
N 91 41 0 
N 43 77 0 
N 94 82 0 
N 15 7 0 
O 15 5 0 
6
Atoms. Timestep: 5965
N 48 34 0 
N 91 40 0 
N 43 78 0 
N 94 81 0 
N 15 6 0 
O 15 4 0 
6
Atoms. Timestep: 5966
N 47 34 0 
N 91 39 0 
N 44 78 0 
N 94 80 0 
N 15 5 0 
O 15 3 0 
6
Atoms. Timestep: 5967
N 48 34 0 
N 91 38 0 
N 45 78 0 
N 94 79 0 
N 15 4 0 
O 15 2 0 
6
Atoms. Timestep: 5968
N 47 34 0 
N 91 37 0 
N 44 78 0 
N 94 78 0 
N 15 3 0 
O 15 1 0 
6
Atoms. Timestep: 5969
N 46 34 0 
N 91 36 0 
N 45 78 0 
N 94 77 0 
N 15 2 0 
O 15 0 0 
6
Atoms. Timestep: 5970
N 46 33 0 
N 91 35 0 
N 46 78 0 
N 94 76 0 
N 15 1 0 
O 15 99 0 
6
Atoms. Timestep: 5971
N 45 33 0 
N 91 34 0 
N 45 78 0 
N 94 75 0 
N 15 0 0 
O 15 98 0 
6
Atoms. Timestep: 5972
N 45 32 0 
N 91 33 0 
N 46 78 0 
N 94 74 0 
N 15 99 0 
O 15 97 0 
6
Atoms. Timestep: 5973
N 45 33 0 
N 91 32 0 
N 47 78 0 
N 94 73 0 
N 15 98 0 
O 15 96 0 
6
Atoms. Timestep: 5974
N 45 32 0 
N 91 31 0 
N 46 78 0 
N 94 72 0 
N 15 97 0 
O 15 95 0 
6
Atoms. Timestep: 5975
N 44 32 0 
N 91 30 0 
N 47 78 0 
N 94 71 0 
N 15 96 0 
O 15 94 0 
6
Atoms. Timestep: 5976
N 44 31 0 
N 91 29 0 
N 46 78 0 
N 94 70 0 
N 15 95 0 
O 15 93 0 
6
Atoms. Timestep: 5977
N 43 31 0 
N 91 28 0 
N 47 78 0 
N 94 69 0 
N 15 94 0 
O 15 92 0 
6
Atoms. Timestep: 5978
N 43 30 0 
N 91 27 0 
N 46 78 0 
N 94 68 0 
N 15 93 0 
O 15 91 0 
6
Atoms. Timestep: 5979
N 43 31 0 
N 91 26 0 
N 45 78 0 
N 94 67 0 
N 15 92 0 
O 15 90 0 
6
Atoms. Timestep: 5980
N 43 30 0 
N 91 25 0 
N 46 78 0 
N 94 66 0 
N 15 91 0 
O 15 89 0 
6
Atoms. Timestep: 5981
N 43 31 0 
N 91 24 0 
N 45 78 0 
N 94 65 0 
N 15 90 0 
O 15 88 0 
6
Atoms. Timestep: 5982
N 43 30 0 
N 91 23 0 
N 46 78 0 
N 94 64 0 
N 15 89 0 
O 15 87 0 
6
Atoms. Timestep: 5983
N 42 30 0 
N 91 22 0 
N 47 78 0 
N 94 63 0 
N 15 88 0 
O 15 86 0 
6
Atoms. Timestep: 5984
N 42 29 0 
N 91 21 0 
N 46 78 0 
N 94 62 0 
N 15 87 0 
O 15 85 0 
6
Atoms. Timestep: 5985
N 42 28 0 
N 91 20 0 
N 45 78 0 
N 94 61 0 
N 15 86 0 
O 15 84 0 
6
Atoms. Timestep: 5986
N 41 28 0 
N 91 19 0 
N 46 78 0 
N 94 60 0 
N 15 85 0 
O 15 83 0 
6
Atoms. Timestep: 5987
N 41 29 0 
N 91 18 0 
N 47 78 0 
N 94 59 0 
N 15 84 0 
O 15 82 0 
6
Atoms. Timestep: 5988
N 41 28 0 
N 91 17 0 
N 48 78 0 
N 94 58 0 
N 15 83 0 
O 15 81 0 
6
Atoms. Timestep: 5989
N 40 28 0 
N 91 16 0 
N 49 78 0 
N 94 57 0 
N 15 82 0 
O 15 80 0 
6
Atoms. Timestep: 5990
N 41 28 0 
N 91 15 0 
N 50 78 0 
N 94 56 0 
N 15 81 0 
O 15 79 0 
6
Atoms. Timestep: 5991
N 42 28 0 
N 91 14 0 
N 51 78 0 
N 94 55 0 
N 15 80 0 
O 15 78 0 
6
Atoms. Timestep: 5992
N 41 28 0 
N 91 13 0 
N 52 78 0 
N 94 54 0 
N 15 79 0 
O 15 77 0 
6
Atoms. Timestep: 5993
N 40 28 0 
N 91 12 0 
N 53 78 0 
N 94 53 0 
N 15 78 0 
O 15 76 0 
6
Atoms. Timestep: 5994
N 41 28 0 
N 91 11 0 
N 54 78 0 
N 94 52 0 
N 15 77 0 
O 15 75 0 
6
Atoms. Timestep: 5995
N 40 28 0 
N 91 10 0 
N 55 78 0 
N 94 53 0 
N 16 77 0 
O 15 74 0 
6
Atoms. Timestep: 5996
N 41 28 0 
N 91 11 0 
N 56 78 0 
N 95 53 0 
N 16 76 0 
O 15 73 0 
6
Atoms. Timestep: 5997
N 42 28 0 
N 91 10 0 
N 57 78 0 
N 96 53 0 
N 16 75 0 
O 15 72 0 
6
Atoms. Timestep: 5998
N 41 28 0 
N 91 11 0 
N 58 78 0 
N 96 54 0 
N 16 74 0 
O 15 71 0 
6
Atoms. Timestep: 5999
N 41 29 0 
N 91 10 0 
N 59 78 0 
N 97 54 0 
N 16 73 0 
O 15 70 0 
6
Atoms. Timestep: 6000
N 41 30 0 
N 91 11 0 
N 60 78 0 
N 98 54 0 
N 16 72 0 
O 15 69 0 
6
Atoms. Timestep: 6001
N 41 31 0 
N 91 10 0 
N 61 78 0 
N 99 54 0 
N 16 71 0 
O 15 68 0 
6
Atoms. Timestep: 6002
N 41 32 0 
N 91 11 0 
N 61 77 0 
N 0 54 0 
N 16 70 0 
O 15 67 0 
6
Atoms. Timestep: 6003
N 41 33 0 
N 91 10 0 
N 61 76 0 
N 1 54 0 
N 16 69 0 
O 15 66 0 
6
Atoms. Timestep: 6004
N 41 34 0 
N 91 9 0 
N 61 75 0 
N 2 54 0 
N 16 68 0 
O 15 65 0 
6
Atoms. Timestep: 6005
N 41 35 0 
N 91 10 0 
N 61 76 0 
N 3 54 0 
N 16 67 0 
O 15 64 0 
6
Atoms. Timestep: 6006
N 41 36 0 
N 91 11 0 
N 61 77 0 
N 4 54 0 
N 16 66 0 
O 15 63 0 
6
Atoms. Timestep: 6007
N 41 37 0 
N 91 12 0 
N 61 78 0 
N 5 54 0 
N 16 65 0 
O 15 62 0 
6
Atoms. Timestep: 6008
N 41 36 0 
N 91 13 0 
N 61 79 0 
N 6 54 0 
N 16 64 0 
O 15 61 0 
6
Atoms. Timestep: 6009
N 41 35 0 
N 91 12 0 
N 61 78 0 
N 7 54 0 
N 16 63 0 
O 15 60 0 
6
Atoms. Timestep: 6010
N 41 34 0 
N 91 11 0 
N 61 77 0 
N 8 54 0 
N 16 62 0 
O 15 59 0 
6
Atoms. Timestep: 6011
N 41 33 0 
N 91 12 0 
N 61 76 0 
N 9 54 0 
N 16 61 0 
O 15 58 0 
6
Atoms. Timestep: 6012
N 41 32 0 
N 91 11 0 
N 61 75 0 
N 10 54 0 
N 16 60 0 
O 15 57 0 
6
Atoms. Timestep: 6013
N 41 31 0 
N 91 12 0 
N 61 74 0 
N 11 54 0 
N 16 59 0 
O 15 56 0 
6
Atoms. Timestep: 6014
N 41 30 0 
N 91 11 0 
N 61 75 0 
N 12 54 0 
N 16 58 0 
O 15 55 0 
6
Atoms. Timestep: 6015
N 42 30 0 
N 91 12 0 
N 61 74 0 
N 13 54 0 
N 16 57 0 
O 16 55 0 
6
Atoms. Timestep: 6016
N 43 30 0 
N 91 11 0 
N 61 75 0 
N 12 54 0 
N 16 56 0 
O 16 54 0 
6
Atoms. Timestep: 6017
N 44 30 0 
N 91 12 0 
N 61 74 0 
N 11 54 0 
N 16 55 0 
O 16 53 0 
6
Atoms. Timestep: 6018
N 45 30 0 
N 91 11 0 
N 61 75 0 
N 10 54 0 
N 16 54 0 
O 16 52 0 
6
Atoms. Timestep: 6019
N 44 30 0 
N 91 10 0 
N 61 74 0 
N 9 54 0 
N 16 53 0 
O 16 51 0 
6
Atoms. Timestep: 6020
N 45 30 0 
N 91 11 0 
N 61 73 0 
N 8 54 0 
N 16 52 0 
O 16 50 0 
6
Atoms. Timestep: 6021
N 46 30 0 
N 91 10 0 
N 61 74 0 
N 7 54 0 
N 16 51 0 
O 16 49 0 
6
Atoms. Timestep: 6022
N 45 30 0 
N 91 11 0 
N 61 75 0 
N 6 54 0 
N 16 50 0 
O 16 48 0 
6
Atoms. Timestep: 6023
N 46 30 0 
N 91 12 0 
N 61 74 0 
N 5 54 0 
N 16 49 0 
O 16 47 0 
6
Atoms. Timestep: 6024
N 47 30 0 
N 91 11 0 
N 61 75 0 
N 4 54 0 
N 16 48 0 
O 16 46 0 
6
Atoms. Timestep: 6025
N 46 30 0 
N 91 10 0 
N 61 74 0 
N 3 54 0 
N 16 47 0 
O 16 45 0 
6
Atoms. Timestep: 6026
N 45 30 0 
N 91 9 0 
N 60 74 0 
N 2 54 0 
N 16 46 0 
O 16 44 0 
6
Atoms. Timestep: 6027
N 46 30 0 
N 91 8 0 
N 59 74 0 
N 1 54 0 
N 16 45 0 
O 16 43 0 
6
Atoms. Timestep: 6028
N 45 30 0 
N 91 7 0 
N 59 75 0 
N 0 54 0 
N 16 44 0 
O 16 42 0 
6
Atoms. Timestep: 6029
N 46 30 0 
N 91 6 0 
N 59 74 0 
N 99 54 0 
N 16 43 0 
O 16 41 0 
6
Atoms. Timestep: 6030
N 45 30 0 
N 91 5 0 
N 58 74 0 
N 98 54 0 
N 16 42 0 
O 16 40 0 
6
Atoms. Timestep: 6031
N 44 30 0 
N 91 4 0 
N 57 74 0 
N 97 54 0 
N 16 41 0 
O 16 39 0 
6
Atoms. Timestep: 6032
N 45 30 0 
N 91 3 0 
N 56 74 0 
N 96 54 0 
N 16 40 0 
O 16 38 0 
6
Atoms. Timestep: 6033
N 46 30 0 
N 91 2 0 
N 55 74 0 
N 95 54 0 
N 16 39 0 
O 16 37 0 
6
Atoms. Timestep: 6034
N 45 30 0 
N 91 1 0 
N 54 74 0 
N 94 54 0 
N 16 38 0 
O 16 36 0 
6
Atoms. Timestep: 6035
N 46 30 0 
N 91 0 0 
N 53 74 0 
N 93 54 0 
N 16 37 0 
O 16 35 0 
6
Atoms. Timestep: 6036
N 47 30 0 
N 91 99 0 
N 52 74 0 
N 92 54 0 
N 16 36 0 
O 16 34 0 
6
Atoms. Timestep: 6037
N 48 30 0 
N 91 98 0 
N 51 74 0 
N 91 54 0 
N 16 35 0 
O 16 33 0 
6
Atoms. Timestep: 6038
N 49 30 0 
N 91 97 0 
N 50 74 0 
N 90 54 0 
N 16 34 0 
O 16 32 0 
6
Atoms. Timestep: 6039
N 50 30 0 
N 91 98 0 
N 49 74 0 
N 89 54 0 
N 16 33 0 
O 16 31 0 
6
Atoms. Timestep: 6040
N 51 30 0 
N 91 99 0 
N 48 74 0 
N 88 54 0 
N 16 32 0 
O 16 30 0 
6
Atoms. Timestep: 6041
N 52 30 0 
N 91 0 0 
N 47 74 0 
N 87 54 0 
N 16 31 0 
O 16 29 0 
6
Atoms. Timestep: 6042
N 53 30 0 
N 91 1 0 
N 46 74 0 
N 86 54 0 
N 16 30 0 
O 16 28 0 
6
Atoms. Timestep: 6043
N 54 30 0 
N 91 2 0 
N 45 74 0 
N 85 54 0 
N 16 29 0 
O 16 27 0 
6
Atoms. Timestep: 6044
N 55 30 0 
N 91 3 0 
N 45 75 0 
N 86 54 0 
N 16 28 0 
O 16 26 0 
6
Atoms. Timestep: 6045
N 56 30 0 
N 92 3 0 
N 45 76 0 
N 87 54 0 
N 16 29 0 
O 16 25 0 
6
Atoms. Timestep: 6046
N 55 30 0 
N 93 3 0 
N 44 76 0 
N 86 54 0 
N 16 28 0 
O 16 24 0 
6
Atoms. Timestep: 6047
N 56 30 0 
N 94 3 0 
N 44 77 0 
N 87 54 0 
N 16 27 0 
O 16 23 0 
6
Atoms. Timestep: 6048
N 55 30 0 
N 95 3 0 
N 44 78 0 
N 88 54 0 
N 16 26 0 
O 16 22 0 
6
Atoms. Timestep: 6049
N 56 30 0 
N 96 3 0 
N 44 79 0 
N 89 54 0 
N 16 25 0 
O 16 21 0 
6
Atoms. Timestep: 6050
N 57 30 0 
N 97 3 0 
N 44 80 0 
N 90 54 0 
N 16 24 0 
O 16 20 0 
6
Atoms. Timestep: 6051
N 57 31 0 
N 98 3 0 
N 44 81 0 
N 91 54 0 
N 16 23 0 
O 16 19 0 
6
Atoms. Timestep: 6052
N 56 31 0 
N 99 3 0 
N 44 82 0 
N 91 55 0 
N 16 22 0 
O 16 18 0 
6
Atoms. Timestep: 6053
N 57 31 0 
N 0 3 0 
N 44 83 0 
N 92 55 0 
N 16 21 0 
O 16 17 0 
6
Atoms. Timestep: 6054
N 58 31 0 
N 1 3 0 
N 44 84 0 
N 93 55 0 
N 16 20 0 
O 16 16 0 
6
Atoms. Timestep: 6055
N 57 31 0 
N 2 3 0 
N 44 85 0 
N 94 55 0 
N 16 19 0 
O 16 15 0 
6
Atoms. Timestep: 6056
N 58 31 0 
N 3 3 0 
N 44 86 0 
N 94 56 0 
N 16 18 0 
O 16 14 0 
6
Atoms. Timestep: 6057
N 57 31 0 
N 4 3 0 
N 43 86 0 
N 95 56 0 
N 16 17 0 
O 16 13 0 
6
Atoms. Timestep: 6058
N 58 31 0 
N 5 3 0 
N 42 86 0 
N 96 56 0 
N 16 16 0 
O 16 12 0 
6
Atoms. Timestep: 6059
N 59 31 0 
N 6 3 0 
N 42 87 0 
N 97 56 0 
N 16 15 0 
O 16 11 0 
6
Atoms. Timestep: 6060
N 58 31 0 
N 7 3 0 
N 41 87 0 
N 98 56 0 
N 16 14 0 
O 16 10 0 
6
Atoms. Timestep: 6061
N 59 31 0 
N 8 3 0 
N 40 87 0 
N 98 57 0 
N 16 13 0 
O 16 9 0 
6
Atoms. Timestep: 6062
N 58 31 0 
N 9 3 0 
N 39 87 0 
N 99 57 0 
N 16 12 0 
O 16 8 0 
6
Atoms. Timestep: 6063
N 59 31 0 
N 10 3 0 
N 38 87 0 
N 99 56 0 
N 16 11 0 
O 16 7 0 
6
Atoms. Timestep: 6064
N 60 31 0 
N 11 3 0 
N 37 87 0 
N 0 56 0 
N 16 10 0 
O 16 6 0 
6
Atoms. Timestep: 6065
N 59 31 0 
N 12 3 0 
N 36 87 0 
N 1 56 0 
N 16 9 0 
O 16 5 0 
6
Atoms. Timestep: 6066
N 58 31 0 
N 13 3 0 
N 35 87 0 
N 0 56 0 
N 16 8 0 
O 17 5 0 
6
Atoms. Timestep: 6067
N 58 32 0 
N 14 3 0 
N 35 88 0 
N 99 56 0 
N 16 7 0 
O 17 4 0 
6
Atoms. Timestep: 6068
N 57 32 0 
N 14 2 0 
N 34 88 0 
N 0 56 0 
N 16 6 0 
O 17 3 0 
6
Atoms. Timestep: 6069
N 56 32 0 
N 14 1 0 
N 33 88 0 
N 99 56 0 
N 16 5 0 
O 17 2 0 
6
Atoms. Timestep: 6070
N 55 32 0 
N 14 0 0 
N 32 88 0 
N 98 56 0 
N 16 4 0 
O 17 1 0 
6
Atoms. Timestep: 6071
N 54 32 0 
N 14 99 0 
N 31 88 0 
N 98 55 0 
N 16 3 0 
O 17 0 0 
6
Atoms. Timestep: 6072
N 55 32 0 
N 14 98 0 
N 30 88 0 
N 98 54 0 
N 16 2 0 
O 17 99 0 
6
Atoms. Timestep: 6073
N 54 32 0 
N 14 97 0 
N 29 88 0 
N 98 53 0 
N 16 1 0 
O 17 98 0 
6
Atoms. Timestep: 6074
N 53 32 0 
N 14 96 0 
N 28 88 0 
N 98 52 0 
N 16 0 0 
O 17 97 0 
6
Atoms. Timestep: 6075
N 52 32 0 
N 14 95 0 
N 27 88 0 
N 98 51 0 
N 16 99 0 
O 17 96 0 
6
Atoms. Timestep: 6076
N 51 32 0 
N 14 94 0 
N 26 88 0 
N 98 50 0 
N 16 98 0 
O 17 95 0 
6
Atoms. Timestep: 6077
N 50 32 0 
N 14 93 0 
N 25 88 0 
N 98 49 0 
N 16 97 0 
O 17 94 0 
6
Atoms. Timestep: 6078
N 50 33 0 
N 14 92 0 
N 24 88 0 
N 98 48 0 
N 16 96 0 
O 17 93 0 
6
Atoms. Timestep: 6079
N 49 33 0 
N 14 91 0 
N 23 88 0 
N 98 47 0 
N 16 95 0 
O 17 92 0 
6
Atoms. Timestep: 6080
N 48 33 0 
N 14 90 0 
N 22 88 0 
N 98 46 0 
N 16 94 0 
O 17 91 0 
6
Atoms. Timestep: 6081
N 48 32 0 
N 14 89 0 
N 21 88 0 
N 98 45 0 
N 16 93 0 
O 17 90 0 
6
Atoms. Timestep: 6082
N 48 31 0 
N 14 88 0 
N 20 88 0 
N 98 44 0 
N 16 92 0 
O 17 89 0 
6
Atoms. Timestep: 6083
N 48 32 0 
N 14 87 0 
N 19 88 0 
N 98 43 0 
N 16 91 0 
O 16 89 0 
6
Atoms. Timestep: 6084
N 48 31 0 
N 14 88 0 
N 20 88 0 
N 98 42 0 
N 16 90 0 
O 16 88 0 
6
Atoms. Timestep: 6085
N 48 30 0 
N 15 88 0 
N 19 88 0 
N 98 41 0 
N 16 91 0 
O 17 88 0 
6
Atoms. Timestep: 6086
N 48 31 0 
N 16 88 0 
N 18 88 0 
N 98 40 0 
N 16 92 0 
O 17 88 0 
5
Atoms. Timestep: 6087
N 48 32 0 
N 15 88 0 
N 17 88 0 
N 98 41 0 
N 16 93 0 
