6
Atoms. Timestep: 1
N 62 84 0 
N 93 54 0 
N 74 36 0 
N 30 89 0 
N 76 44 0 
O 30 9 0 
6
Atoms. Timestep: 2
N 63 84 0 
N 93 55 0 
N 73 36 0 
N 31 89 0 
N 75 44 0 
O 31 9 0 
6
Atoms. Timestep: 3
N 63 85 0 
N 93 56 0 
N 72 36 0 
N 32 89 0 
N 74 44 0 
O 30 9 0 
6
Atoms. Timestep: 4
N 63 84 0 
N 93 57 0 
N 71 36 0 
N 33 89 0 
N 73 44 0 
O 30 10 0 
6
Atoms. Timestep: 5
N 63 85 0 
N 93 58 0 
N 70 36 0 
N 34 89 0 
N 72 44 0 
O 30 11 0 
6
Atoms. Timestep: 6
N 62 85 0 
N 93 59 0 
N 69 36 0 
N 35 89 0 
N 71 44 0 
O 30 12 0 
6
Atoms. Timestep: 7
N 61 85 0 
N 93 60 0 
N 68 36 0 
N 36 89 0 
N 70 44 0 
O 30 13 0 
6
Atoms. Timestep: 8
N 62 85 0 
N 93 61 0 
N 67 36 0 
N 37 89 0 
N 69 44 0 
O 30 14 0 
6
Atoms. Timestep: 9
N 61 85 0 
N 93 62 0 
N 66 36 0 
N 38 89 0 
N 68 44 0 
O 31 14 0 
6
Atoms. Timestep: 10
N 61 84 0 
N 93 63 0 
N 65 36 0 
N 39 89 0 
N 67 44 0 
O 30 14 0 
6
Atoms. Timestep: 11
N 61 85 0 
N 93 64 0 
N 64 36 0 
N 40 89 0 
N 66 44 0 
O 29 14 0 
6
Atoms. Timestep: 12
N 62 85 0 
N 93 65 0 
N 63 36 0 
N 41 89 0 
N 65 44 0 
O 30 14 0 
6
Atoms. Timestep: 13
N 62 86 0 
N 93 66 0 
N 62 36 0 
N 42 89 0 
N 64 44 0 
O 31 14 0 
6
Atoms. Timestep: 14
N 62 85 0 
N 94 66 0 
N 61 36 0 
N 43 89 0 
N 63 44 0 
O 32 14 0 
6
Atoms. Timestep: 15
N 61 85 0 
N 95 66 0 
N 60 36 0 
N 44 89 0 
N 62 44 0 
O 31 14 0 
6
Atoms. Timestep: 16
N 60 85 0 
N 96 66 0 
N 59 36 0 
N 45 89 0 
N 61 44 0 
O 32 14 0 
6
Atoms. Timestep: 17
N 61 85 0 
N 97 66 0 
N 58 36 0 
N 46 89 0 
N 61 45 0 
O 31 14 0 
6
Atoms. Timestep: 18
N 61 86 0 
N 98 66 0 
N 57 36 0 
N 47 89 0 
N 61 46 0 
O 32 14 0 
6
Atoms. Timestep: 19
N 61 85 0 
N 99 66 0 
N 56 36 0 
N 48 89 0 
N 61 47 0 
O 31 14 0 
6
Atoms. Timestep: 20
N 60 85 0 
N 0 66 0 
N 55 36 0 
N 49 89 0 
N 61 48 0 
O 30 14 0 
6
Atoms. Timestep: 21
N 59 85 0 
N 1 66 0 
N 54 36 0 
N 50 89 0 
N 61 49 0 
O 29 14 0 
6
Atoms. Timestep: 22
N 59 84 0 
N 2 66 0 
N 53 36 0 
N 51 89 0 
N 61 50 0 
O 30 14 0 
6
Atoms. Timestep: 23
N 60 84 0 
N 3 66 0 
N 52 36 0 
N 52 89 0 
N 61 51 0 
O 31 14 0 
6
Atoms. Timestep: 24
N 60 83 0 
N 4 66 0 
N 53 36 0 
N 53 89 0 
N 61 52 0 
O 32 14 0 
6
Atoms. Timestep: 25
N 60 84 0 
N 5 66 0 
N 53 37 0 
N 54 89 0 
N 61 53 0 
O 32 15 0 
6
Atoms. Timestep: 26
N 59 84 0 
N 6 66 0 
N 53 38 0 
N 55 89 0 
N 61 54 0 
O 32 16 0 
6
Atoms. Timestep: 27
N 58 84 0 
N 6 67 0 
N 53 39 0 
N 56 89 0 
N 61 55 0 
O 32 17 0 
6
Atoms. Timestep: 28
N 57 84 0 
N 7 67 0 
N 53 40 0 
N 57 89 0 
N 61 56 0 
O 32 18 0 
6
Atoms. Timestep: 29
N 56 84 0 
N 7 68 0 
N 53 41 0 
N 58 89 0 
N 61 57 0 
O 33 18 0 
6
Atoms. Timestep: 30
N 57 84 0 
N 7 69 0 
N 53 42 0 
N 59 89 0 
N 61 58 0 
O 34 18 0 
6
Atoms. Timestep: 31
N 57 83 0 
N 8 69 0 
N 53 43 0 
N 60 89 0 
N 61 59 0 
O 35 18 0 
6
Atoms. Timestep: 32
N 57 84 0 
N 9 69 0 
N 53 44 0 
N 61 89 0 
N 61 60 0 
O 35 19 0 
6
Atoms. Timestep: 33
N 58 84 0 
N 10 69 0 
N 53 45 0 
N 62 89 0 
N 61 61 0 
O 35 18 0 
6
Atoms. Timestep: 34
N 57 84 0 
N 11 69 0 
N 53 46 0 
N 63 89 0 
N 61 62 0 
O 36 18 0 
6
Atoms. Timestep: 35
N 58 84 0 
N 12 69 0 
N 53 47 0 
N 64 89 0 
N 61 63 0 
O 37 18 0 
6
Atoms. Timestep: 36
N 57 84 0 
N 13 69 0 
N 53 48 0 
N 65 89 0 
N 62 63 0 
O 38 18 0 
6
Atoms. Timestep: 37
N 57 85 0 
N 14 69 0 
N 53 49 0 
N 66 89 0 
N 62 64 0 
O 38 19 0 
6
Atoms. Timestep: 38
N 58 85 0 
N 15 69 0 
N 53 50 0 
N 67 89 0 
N 62 65 0 
O 38 20 0 
6
Atoms. Timestep: 39
N 58 84 0 
N 15 70 0 
N 53 51 0 
N 68 89 0 
N 62 66 0 
O 38 19 0 
6
Atoms. Timestep: 40
N 58 83 0 
N 16 70 0 
N 53 52 0 
N 67 89 0 
N 62 67 0 
O 39 19 0 
6
Atoms. Timestep: 41
N 59 83 0 
N 17 70 0 
N 53 53 0 
N 68 89 0 
N 62 68 0 
O 40 19 0 
6
Atoms. Timestep: 42
N 59 84 0 
N 18 70 0 
N 53 54 0 
N 69 89 0 
N 62 69 0 
O 40 20 0 
6
Atoms. Timestep: 43
N 59 85 0 
N 18 71 0 
N 53 55 0 
N 70 89 0 
N 62 70 0 
O 39 20 0 
6
Atoms. Timestep: 44
N 58 85 0 
N 19 71 0 
N 53 56 0 
N 69 89 0 
N 63 70 0 
O 40 20 0 
6
Atoms. Timestep: 45
N 59 85 0 
N 20 71 0 
N 53 57 0 
N 70 89 0 
N 63 71 0 
O 41 20 0 
6
Atoms. Timestep: 46
N 58 85 0 
N 21 71 0 
N 53 58 0 
N 71 89 0 
N 64 71 0 
O 42 20 0 
6
Atoms. Timestep: 47
N 58 86 0 
N 22 71 0 
N 53 59 0 
N 72 89 0 
N 65 71 0 
O 43 20 0 
6
Atoms. Timestep: 48
N 58 85 0 
N 23 71 0 
N 53 60 0 
N 73 89 0 
N 66 71 0 
O 44 20 0 
6
Atoms. Timestep: 49
N 58 86 0 
N 24 71 0 
N 53 61 0 
N 74 89 0 
N 67 71 0 
O 45 20 0 
6
Atoms. Timestep: 50
N 58 85 0 
N 25 71 0 
N 53 62 0 
N 75 89 0 
N 68 71 0 
O 46 20 0 
6
Atoms. Timestep: 51
N 58 84 0 
N 26 71 0 
N 53 63 0 
N 76 89 0 
N 69 71 0 
O 46 21 0 
6
Atoms. Timestep: 52
N 58 85 0 
N 26 72 0 
N 53 64 0 
N 77 89 0 
N 69 72 0 
O 47 21 0 
6
Atoms. Timestep: 53
N 58 86 0 
N 27 72 0 
N 53 65 0 
N 78 89 0 
N 70 72 0 
O 47 22 0 
6
Atoms. Timestep: 54
N 58 87 0 
N 27 73 0 
N 53 66 0 
N 79 89 0 
N 70 73 0 
O 48 22 0 
6
Atoms. Timestep: 55
N 58 88 0 
N 28 73 0 
N 53 67 0 
N 80 89 0 
N 71 73 0 
O 49 22 0 
6
Atoms. Timestep: 56
N 58 89 0 
N 29 73 0 
N 53 68 0 
N 81 89 0 
N 72 73 0 
O 50 22 0 
6
Atoms. Timestep: 57
N 58 88 0 
N 30 73 0 
N 53 69 0 
N 82 89 0 
N 73 73 0 
O 50 23 0 
6
Atoms. Timestep: 58
N 58 89 0 
N 31 73 0 
N 53 70 0 
N 83 89 0 
N 73 74 0 
O 51 23 0 
6
Atoms. Timestep: 59
N 57 89 0 
N 31 74 0 
N 53 71 0 
N 84 89 0 
N 74 74 0 
O 52 23 0 
6
Atoms. Timestep: 60
N 57 90 0 
N 32 74 0 
N 53 70 0 
N 85 89 0 
N 75 74 0 
O 53 23 0 
6
Atoms. Timestep: 61
N 56 90 0 
N 33 74 0 
N 53 71 0 
N 86 89 0 
N 76 74 0 
O 54 23 0 
6
Atoms. Timestep: 62
N 57 90 0 
N 34 74 0 
N 53 72 0 
N 87 89 0 
N 77 74 0 
O 55 23 0 
6
Atoms. Timestep: 63
N 57 91 0 
N 35 74 0 
N 53 73 0 
N 88 89 0 
N 78 74 0 
O 56 23 0 
6
Atoms. Timestep: 64
N 57 90 0 
N 36 74 0 
N 53 74 0 
N 89 89 0 
N 79 74 0 
O 57 23 0 
6
Atoms. Timestep: 65
N 57 91 0 
N 37 74 0 
N 54 74 0 
N 90 89 0 
N 80 74 0 
O 58 23 0 
6
Atoms. Timestep: 66
N 56 91 0 
N 38 74 0 
N 55 74 0 
N 91 89 0 
N 81 74 0 
O 59 23 0 
6
Atoms. Timestep: 67
N 56 92 0 
N 39 74 0 
N 56 74 0 
N 92 89 0 
N 82 74 0 
O 60 23 0 
6
Atoms. Timestep: 68
N 55 92 0 
N 40 74 0 
N 57 74 0 
N 93 89 0 
N 83 74 0 
O 61 23 0 
6
Atoms. Timestep: 69
N 55 91 0 
N 41 74 0 
N 58 74 0 
N 94 89 0 
N 84 74 0 
O 62 23 0 
6
Atoms. Timestep: 70
N 55 92 0 
N 42 74 0 
N 59 74 0 
N 95 89 0 
N 85 74 0 
O 63 23 0 
6
Atoms. Timestep: 71
N 54 92 0 
N 43 74 0 
N 60 74 0 
N 96 89 0 
N 86 74 0 
O 64 23 0 
6
Atoms. Timestep: 72
N 53 92 0 
N 44 74 0 
N 61 74 0 
N 97 89 0 
N 87 74 0 
O 65 23 0 
6
Atoms. Timestep: 73
N 53 91 0 
N 45 74 0 
N 62 74 0 
N 98 89 0 
N 88 74 0 
O 66 23 0 
6
Atoms. Timestep: 74
N 52 91 0 
N 44 74 0 
N 63 74 0 
N 99 89 0 
N 89 74 0 
O 67 23 0 
6
Atoms. Timestep: 75
N 52 90 0 
N 45 74 0 
N 64 74 0 
N 0 89 0 
N 90 74 0 
O 68 23 0 
6
Atoms. Timestep: 76
N 53 90 0 
N 46 74 0 
N 65 74 0 
N 1 89 0 
N 91 74 0 
O 69 23 0 
6
Atoms. Timestep: 77
N 53 91 0 
N 47 74 0 
N 66 74 0 
N 0 89 0 
N 92 74 0 
O 70 23 0 
6
Atoms. Timestep: 78
N 53 90 0 
N 48 74 0 
N 67 74 0 
N 1 89 0 
N 93 74 0 
O 71 23 0 
6
Atoms. Timestep: 79
N 53 89 0 
N 49 74 0 
N 68 74 0 
N 2 89 0 
N 94 74 0 
O 72 23 0 
6
Atoms. Timestep: 80
N 53 90 0 
N 48 74 0 
N 69 74 0 
N 3 89 0 
N 95 74 0 
O 73 23 0 
6
Atoms. Timestep: 81
N 53 89 0 
N 49 74 0 
N 70 74 0 
N 4 89 0 
N 96 74 0 
O 74 23 0 
6
Atoms. Timestep: 82
N 53 88 0 
N 50 74 0 
N 71 74 0 
N 5 89 0 
N 97 74 0 
O 75 23 0 
6
Atoms. Timestep: 83
N 53 87 0 
N 51 74 0 
N 72 74 0 
N 6 89 0 
N 98 74 0 
O 76 23 0 
6
Atoms. Timestep: 84
N 53 88 0 
N 52 74 0 
N 73 74 0 
N 7 89 0 
N 99 74 0 
O 77 23 0 
6
Atoms. Timestep: 85
N 53 87 0 
N 53 74 0 
N 74 74 0 
N 8 89 0 
N 0 74 0 
O 78 23 0 
6
Atoms. Timestep: 86
N 54 87 0 
N 54 74 0 
N 75 74 0 
N 9 89 0 
N 1 74 0 
O 79 23 0 
6
Atoms. Timestep: 87
N 55 87 0 
N 55 74 0 
N 76 74 0 
N 10 89 0 
N 2 74 0 
O 80 23 0 
6
Atoms. Timestep: 88
N 54 87 0 
N 56 74 0 
N 77 74 0 
N 11 89 0 
N 3 74 0 
O 81 23 0 
6
Atoms. Timestep: 89
N 54 88 0 
N 55 74 0 
N 78 74 0 
N 12 89 0 
N 3 75 0 
O 82 23 0 
6
Atoms. Timestep: 90
N 54 87 0 
N 56 74 0 
N 79 74 0 
N 13 89 0 
N 4 75 0 
O 83 23 0 
6
Atoms. Timestep: 91
N 55 87 0 
N 57 74 0 
N 80 74 0 
N 14 89 0 
N 5 75 0 
O 84 23 0 
6
Atoms. Timestep: 92
N 56 87 0 
N 58 74 0 
N 81 74 0 
N 15 89 0 
N 6 75 0 
O 85 23 0 
6
Atoms. Timestep: 93
N 56 86 0 
N 59 74 0 
N 82 74 0 
N 16 89 0 
N 7 75 0 
O 86 23 0 
6
Atoms. Timestep: 94
N 56 87 0 
N 60 74 0 
N 83 74 0 
N 17 89 0 
N 8 75 0 
O 87 23 0 
6
Atoms. Timestep: 95
N 56 86 0 
N 61 74 0 
N 84 74 0 
N 18 89 0 
N 9 75 0 
O 88 23 0 
6
Atoms. Timestep: 96
N 56 87 0 
N 62 74 0 
N 85 74 0 
N 19 89 0 
N 10 75 0 
O 89 23 0 
6
Atoms. Timestep: 97
N 57 87 0 
N 63 74 0 
N 86 74 0 
N 20 89 0 
N 11 75 0 
O 90 23 0 
6
Atoms. Timestep: 98
N 56 87 0 
N 64 74 0 
N 87 74 0 
N 21 89 0 
N 12 75 0 
O 91 23 0 
6
Atoms. Timestep: 99
N 57 87 0 
N 65 74 0 
N 88 74 0 
N 22 89 0 
N 13 75 0 
O 92 23 0 
6
Atoms. Timestep: 100
N 57 88 0 
N 66 74 0 
N 89 74 0 
N 23 89 0 
N 14 75 0 
O 93 23 0 
6
Atoms. Timestep: 101
N 58 88 0 
N 67 74 0 
N 90 74 0 
N 24 89 0 
N 15 75 0 
O 94 23 0 
6
Atoms. Timestep: 102
N 58 87 0 
N 68 74 0 
N 91 74 0 
N 25 89 0 
N 16 75 0 
O 95 23 0 
6
Atoms. Timestep: 103
N 58 86 0 
N 69 74 0 
N 92 74 0 
N 26 89 0 
N 17 75 0 
O 96 23 0 
6
Atoms. Timestep: 104
N 59 86 0 
N 70 74 0 
N 93 74 0 
N 27 89 0 
N 18 75 0 
O 97 23 0 
6
Atoms. Timestep: 105
N 60 86 0 
N 71 74 0 
N 94 74 0 
N 28 89 0 
N 19 75 0 
O 98 23 0 
6
Atoms. Timestep: 106
N 59 86 0 
N 72 74 0 
N 95 74 0 
N 29 89 0 
N 20 75 0 
O 99 23 0 
6
Atoms. Timestep: 107
N 60 86 0 
N 73 74 0 
N 96 74 0 
N 30 89 0 
N 21 75 0 
O 0 23 0 
6
Atoms. Timestep: 108
N 61 86 0 
N 74 74 0 
N 97 74 0 
N 31 89 0 
N 22 75 0 
O 1 23 0 
6
Atoms. Timestep: 109
N 61 87 0 
N 75 74 0 
N 98 74 0 
N 32 89 0 
N 23 75 0 
O 2 23 0 
6
Atoms. Timestep: 110
N 60 87 0 
N 76 74 0 
N 99 74 0 
N 33 89 0 
N 24 75 0 
O 3 23 0 
6
Atoms. Timestep: 111
N 61 87 0 
N 77 74 0 
N 0 74 0 
N 34 89 0 
N 25 75 0 
O 4 23 0 
6
Atoms. Timestep: 112
N 62 87 0 
N 78 74 0 
N 1 74 0 
N 35 89 0 
N 26 75 0 
O 5 23 0 
6
Atoms. Timestep: 113
N 61 87 0 
N 79 74 0 
N 2 74 0 
N 36 89 0 
N 27 75 0 
O 6 23 0 
6
Atoms. Timestep: 114
N 61 88 0 
N 80 74 0 
N 3 74 0 
N 37 89 0 
N 28 75 0 
O 7 23 0 
6
Atoms. Timestep: 115
N 61 89 0 
N 81 74 0 
N 4 74 0 
N 38 89 0 
N 29 75 0 
O 8 23 0 
6
Atoms. Timestep: 116
N 61 90 0 
N 82 74 0 
N 5 74 0 
N 39 89 0 
N 30 75 0 
O 9 23 0 
6
Atoms. Timestep: 117
N 61 89 0 
N 83 74 0 
N 6 74 0 
N 40 89 0 
N 31 75 0 
O 10 23 0 
6
Atoms. Timestep: 118
N 61 90 0 
N 84 74 0 
N 7 74 0 
N 41 89 0 
N 32 75 0 
O 11 23 0 
6
Atoms. Timestep: 119
N 61 91 0 
N 85 74 0 
N 8 74 0 
N 42 89 0 
N 33 75 0 
O 12 23 0 
6
Atoms. Timestep: 120
N 61 90 0 
N 86 74 0 
N 9 74 0 
N 43 89 0 
N 34 75 0 
O 13 23 0 
6
Atoms. Timestep: 121
N 61 91 0 
N 87 74 0 
N 9 75 0 
N 44 89 0 
N 35 75 0 
O 14 23 0 
6
Atoms. Timestep: 122
N 61 92 0 
N 88 74 0 
N 10 75 0 
N 45 89 0 
N 36 75 0 
O 15 23 0 
6
Atoms. Timestep: 123
N 62 92 0 
N 89 74 0 
N 11 75 0 
N 46 89 0 
N 37 75 0 
O 16 23 0 
6
Atoms. Timestep: 124
N 61 92 0 
N 90 74 0 
N 12 75 0 
N 47 89 0 
N 38 75 0 
O 17 23 0 
6
Atoms. Timestep: 125
N 62 92 0 
N 89 74 0 
N 13 75 0 
N 48 89 0 
N 39 75 0 
O 18 23 0 
6
Atoms. Timestep: 126
N 62 93 0 
N 90 74 0 
N 14 75 0 
N 49 89 0 
N 39 74 0 
O 19 23 0 
6
Atoms. Timestep: 127
N 61 93 0 
N 91 74 0 
N 15 75 0 
N 50 89 0 
N 40 74 0 
O 20 23 0 
6
Atoms. Timestep: 128
N 61 92 0 
N 92 74 0 
N 16 75 0 
N 51 89 0 
N 41 74 0 
O 21 23 0 
6
Atoms. Timestep: 129
N 61 93 0 
N 93 74 0 
N 17 75 0 
N 51 88 0 
N 41 75 0 
O 22 23 0 
6
Atoms. Timestep: 130
N 60 93 0 
N 94 74 0 
N 18 75 0 
N 52 88 0 
N 42 75 0 
O 23 23 0 
6
Atoms. Timestep: 131
N 59 93 0 
N 95 74 0 
N 19 75 0 
N 53 88 0 
N 43 75 0 
O 24 23 0 
6
Atoms. Timestep: 132
N 60 93 0 
N 96 74 0 
N 20 75 0 
N 54 88 0 
N 44 75 0 
O 25 23 0 
6
Atoms. Timestep: 133
N 60 92 0 
N 97 74 0 
N 21 75 0 
N 55 88 0 
N 45 75 0 
O 26 23 0 
6
Atoms. Timestep: 134
N 60 93 0 
N 98 74 0 
N 22 75 0 
N 56 88 0 
N 46 75 0 
O 27 23 0 
6
Atoms. Timestep: 135
N 59 93 0 
N 99 74 0 
N 23 75 0 
N 57 88 0 
N 47 75 0 
O 28 23 0 
6
Atoms. Timestep: 136
N 60 93 0 
N 99 75 0 
N 24 75 0 
N 58 88 0 
N 48 75 0 
O 29 23 0 
6
Atoms. Timestep: 137
N 59 93 0 
N 0 75 0 
N 25 75 0 
N 59 88 0 
N 49 75 0 
O 30 23 0 
6
Atoms. Timestep: 138
N 58 93 0 
N 1 75 0 
N 26 75 0 
N 60 88 0 
N 50 75 0 
O 31 23 0 
6
Atoms. Timestep: 139
N 59 93 0 
N 2 75 0 
N 27 75 0 
N 61 88 0 
N 51 75 0 
O 32 23 0 
6
Atoms. Timestep: 140
N 60 93 0 
N 3 75 0 
N 28 75 0 
N 62 88 0 
N 52 75 0 
O 33 23 0 
6
Atoms. Timestep: 141
N 60 94 0 
N 4 75 0 
N 29 75 0 
N 63 88 0 
N 53 75 0 
O 34 23 0 
6
Atoms. Timestep: 142
N 60 95 0 
N 5 75 0 
N 30 75 0 
N 64 88 0 
N 54 75 0 
O 35 23 0 
6
Atoms. Timestep: 143
N 60 96 0 
N 6 75 0 
N 31 75 0 
N 65 88 0 
N 55 75 0 
O 36 23 0 
6
Atoms. Timestep: 144
N 59 96 0 
N 7 75 0 
N 32 75 0 
N 66 88 0 
N 56 75 0 
O 37 23 0 
6
Atoms. Timestep: 145
N 59 97 0 
N 8 75 0 
N 33 75 0 
N 67 88 0 
N 56 74 0 
O 38 23 0 
6
Atoms. Timestep: 146
N 59 98 0 
N 9 75 0 
N 34 75 0 
N 68 88 0 
N 57 74 0 
O 39 23 0 
6
Atoms. Timestep: 147
N 60 98 0 
N 10 75 0 
N 35 75 0 
N 69 88 0 
N 58 74 0 
O 40 23 0 
6
Atoms. Timestep: 148
N 61 98 0 
N 11 75 0 
N 36 75 0 
N 70 88 0 
N 59 74 0 
O 41 23 0 
6
Atoms. Timestep: 149
N 61 97 0 
N 12 75 0 
N 37 75 0 
N 71 88 0 
N 60 74 0 
O 42 23 0 
6
Atoms. Timestep: 150
N 60 97 0 
N 13 75 0 
N 38 75 0 
N 72 88 0 
N 61 74 0 
O 43 23 0 
6
Atoms. Timestep: 151
N 60 98 0 
N 14 75 0 
N 39 75 0 
N 73 88 0 
N 62 74 0 
O 44 23 0 
6
Atoms. Timestep: 152
N 60 99 0 
N 15 75 0 
N 40 75 0 
N 74 88 0 
N 63 74 0 
O 45 23 0 
6
Atoms. Timestep: 153
N 59 99 0 
N 16 75 0 
N 41 75 0 
N 75 88 0 
N 64 74 0 
O 46 23 0 
6
Atoms. Timestep: 154
N 59 0 0 
N 17 75 0 
N 42 75 0 
N 76 88 0 
N 65 74 0 
O 47 23 0 
6
Atoms. Timestep: 155
N 59 99 0 
N 18 75 0 
N 43 75 0 
N 77 88 0 
N 66 74 0 
O 48 23 0 
6
Atoms. Timestep: 156
N 58 99 0 
N 19 75 0 
N 44 75 0 
N 78 88 0 
N 67 74 0 
O 49 23 0 
6
Atoms. Timestep: 157
N 58 0 0 
N 20 75 0 
N 45 75 0 
N 79 88 0 
N 68 74 0 
O 50 23 0 
6
Atoms. Timestep: 158
N 58 99 0 
N 21 75 0 
N 46 75 0 
N 80 88 0 
N 69 74 0 
O 51 23 0 
6
Atoms. Timestep: 159
N 58 0 0 
N 22 75 0 
N 47 75 0 
N 81 88 0 
N 70 74 0 
O 52 23 0 
6
Atoms. Timestep: 160
N 57 0 0 
N 23 75 0 
N 48 75 0 
N 82 88 0 
N 71 74 0 
O 53 23 0 
6
Atoms. Timestep: 161
N 56 0 0 
N 24 75 0 
N 49 75 0 
N 83 88 0 
N 72 74 0 
O 54 23 0 
6
Atoms. Timestep: 162
N 56 1 0 
N 25 75 0 
N 50 75 0 
N 84 88 0 
N 73 74 0 
O 55 23 0 
6
Atoms. Timestep: 163
N 57 1 0 
N 26 75 0 
N 51 75 0 
N 85 88 0 
N 74 74 0 
O 56 23 0 
6
Atoms. Timestep: 164
N 57 0 0 
N 27 75 0 
N 52 75 0 
N 86 88 0 
N 74 75 0 
O 57 23 0 
6
Atoms. Timestep: 165
N 57 99 0 
N 28 75 0 
N 53 75 0 
N 87 88 0 
N 75 75 0 
O 58 23 0 
6
Atoms. Timestep: 166
N 58 99 0 
N 29 75 0 
N 54 75 0 
N 88 88 0 
N 76 75 0 
O 59 23 0 
6
Atoms. Timestep: 167
N 58 0 0 
N 30 75 0 
N 55 75 0 
N 89 88 0 
N 76 74 0 
O 60 23 0 
6
Atoms. Timestep: 168
N 58 1 0 
N 31 75 0 
N 56 75 0 
N 90 88 0 
N 77 74 0 
O 61 23 0 
6
Atoms. Timestep: 169
N 58 2 0 
N 32 75 0 
N 57 75 0 
N 91 88 0 
N 78 74 0 
O 62 23 0 
6
Atoms. Timestep: 170
N 58 3 0 
N 33 75 0 
N 57 76 0 
N 92 88 0 
N 79 74 0 
O 63 23 0 
6
Atoms. Timestep: 171
N 58 4 0 
N 34 75 0 
N 58 76 0 
N 93 88 0 
N 80 74 0 
O 64 23 0 
6
Atoms. Timestep: 172
N 59 4 0 
N 35 75 0 
N 59 76 0 
N 94 88 0 
N 81 74 0 
O 65 23 0 
6
Atoms. Timestep: 173
N 59 5 0 
N 35 76 0 
N 60 76 0 
N 94 89 0 
N 82 74 0 
O 66 23 0 
6
Atoms. Timestep: 174
N 59 4 0 
N 36 76 0 
N 61 76 0 
N 95 89 0 
N 83 74 0 
O 67 23 0 
6
Atoms. Timestep: 175
N 59 5 0 
N 37 76 0 
N 62 76 0 
N 96 89 0 
N 84 74 0 
O 68 23 0 
6
Atoms. Timestep: 176
N 59 6 0 
N 38 76 0 
N 63 76 0 
N 97 89 0 
N 85 74 0 
O 69 23 0 
6
Atoms. Timestep: 177
N 60 6 0 
N 39 76 0 
N 64 76 0 
N 98 89 0 
N 86 74 0 
O 70 23 0 
6
Atoms. Timestep: 178
N 59 6 0 
N 40 76 0 
N 65 76 0 
N 99 89 0 
N 87 74 0 
O 71 23 0 
6
Atoms. Timestep: 179
N 59 7 0 
N 41 76 0 
N 66 76 0 
N 0 89 0 
N 88 74 0 
O 72 23 0 
6
Atoms. Timestep: 180
N 59 6 0 
N 42 76 0 
N 67 76 0 
N 1 89 0 
N 89 74 0 
O 73 23 0 
6
Atoms. Timestep: 181
N 58 6 0 
N 43 76 0 
N 68 76 0 
N 2 89 0 
N 90 74 0 
O 74 23 0 
6
Atoms. Timestep: 182
N 58 5 0 
N 44 76 0 
N 69 76 0 
N 3 89 0 
N 91 74 0 
O 75 23 0 
6
Atoms. Timestep: 183
N 58 4 0 
N 45 76 0 
N 70 76 0 
N 4 89 0 
N 92 74 0 
O 76 23 0 
6
Atoms. Timestep: 184
N 58 3 0 
N 46 76 0 
N 71 76 0 
N 5 89 0 
N 93 74 0 
O 77 23 0 
6
Atoms. Timestep: 185
N 58 2 0 
N 47 76 0 
N 72 76 0 
N 6 89 0 
N 94 74 0 
O 78 23 0 
6
Atoms. Timestep: 186
N 58 1 0 
N 47 77 0 
N 73 76 0 
N 7 89 0 
N 95 74 0 
O 79 23 0 
6
Atoms. Timestep: 187
N 58 2 0 
N 48 77 0 
N 74 76 0 
N 8 89 0 
N 96 74 0 
O 80 23 0 
6
Atoms. Timestep: 188
N 59 2 0 
N 49 77 0 
N 75 76 0 
N 9 89 0 
N 97 74 0 
O 81 23 0 
6
Atoms. Timestep: 189
N 59 3 0 
N 50 77 0 
N 76 76 0 
N 10 89 0 
N 98 74 0 
O 82 23 0 
6
Atoms. Timestep: 190
N 59 4 0 
N 51 77 0 
N 77 76 0 
N 11 89 0 
N 99 74 0 
O 83 23 0 
6
Atoms. Timestep: 191
N 60 4 0 
N 52 77 0 
N 78 76 0 
N 12 89 0 
N 0 74 0 
O 84 23 0 
6
Atoms. Timestep: 192
N 60 3 0 
N 53 77 0 
N 79 76 0 
N 13 89 0 
N 1 74 0 
O 85 23 0 
6
Atoms. Timestep: 193
N 59 3 0 
N 54 77 0 
N 80 76 0 
N 14 89 0 
N 2 74 0 
O 86 23 0 
6
Atoms. Timestep: 194
N 58 3 0 
N 55 77 0 
N 81 76 0 
N 15 89 0 
N 3 74 0 
O 87 23 0 
6
Atoms. Timestep: 195
N 58 4 0 
N 55 78 0 
N 82 76 0 
N 16 89 0 
N 4 74 0 
O 88 23 0 
6
Atoms. Timestep: 196
N 58 5 0 
N 56 78 0 
N 83 76 0 
N 17 89 0 
N 5 74 0 
O 89 23 0 
6
Atoms. Timestep: 197
N 57 5 0 
N 57 78 0 
N 84 76 0 
N 18 89 0 
N 6 74 0 
O 90 23 0 
6
Atoms. Timestep: 198
N 57 6 0 
N 58 78 0 
N 85 76 0 
N 19 89 0 
N 7 74 0 
O 91 23 0 
6
Atoms. Timestep: 199
N 57 5 0 
N 59 78 0 
N 86 76 0 
N 20 89 0 
N 8 74 0 
O 92 23 0 
6
Atoms. Timestep: 200
N 58 5 0 
N 60 78 0 
N 87 76 0 
N 21 89 0 
N 9 74 0 
O 93 23 0 
6
Atoms. Timestep: 201
N 58 4 0 
N 61 78 0 
N 88 76 0 
N 20 89 0 
N 10 74 0 
O 94 23 0 
6
Atoms. Timestep: 202
N 57 4 0 
N 62 78 0 
N 89 76 0 
N 21 89 0 
N 11 74 0 
O 95 23 0 
6
Atoms. Timestep: 203
N 58 4 0 
N 63 78 0 
N 90 76 0 
N 22 89 0 
N 12 74 0 
O 96 23 0 
6
Atoms. Timestep: 204
N 59 4 0 
N 64 78 0 
N 91 76 0 
N 23 89 0 
N 13 74 0 
O 97 23 0 
6
Atoms. Timestep: 205
N 60 4 0 
N 65 78 0 
N 92 76 0 
N 24 89 0 
N 14 74 0 
O 98 23 0 
6
Atoms. Timestep: 206
N 59 4 0 
N 66 78 0 
N 93 76 0 
N 25 89 0 
N 15 74 0 
O 99 23 0 
6
Atoms. Timestep: 207
N 60 4 0 
N 67 78 0 
N 94 76 0 
N 26 89 0 
N 16 74 0 
O 0 23 0 
6
Atoms. Timestep: 208
N 60 3 0 
N 68 78 0 
N 95 76 0 
N 27 89 0 
N 17 74 0 
O 1 23 0 
6
Atoms. Timestep: 209
N 61 3 0 
N 69 78 0 
N 96 76 0 
N 28 89 0 
N 18 74 0 
O 2 23 0 
6
Atoms. Timestep: 210
N 61 2 0 
N 70 78 0 
N 97 76 0 
N 29 89 0 
N 19 74 0 
O 3 23 0 
6
Atoms. Timestep: 211
N 61 3 0 
N 71 78 0 
N 98 76 0 
N 30 89 0 
N 20 74 0 
O 4 23 0 
6
Atoms. Timestep: 212
N 61 4 0 
N 72 78 0 
N 99 76 0 
N 31 89 0 
N 21 74 0 
O 5 23 0 
6
Atoms. Timestep: 213
N 61 5 0 
N 73 78 0 
N 0 76 0 
N 32 89 0 
N 22 74 0 
O 6 23 0 
6
Atoms. Timestep: 214
N 61 6 0 
N 74 78 0 
N 1 76 0 
N 33 89 0 
N 23 74 0 
O 7 23 0 
6
Atoms. Timestep: 215
N 62 6 0 
N 74 79 0 
N 2 76 0 
N 34 89 0 
N 24 74 0 
O 8 23 0 
6
Atoms. Timestep: 216
N 61 6 0 
N 75 79 0 
N 3 76 0 
N 35 89 0 
N 25 74 0 
O 9 23 0 
6
Atoms. Timestep: 217
N 60 6 0 
N 76 79 0 
N 4 76 0 
N 36 89 0 
N 26 74 0 
O 10 23 0 
6
Atoms. Timestep: 218
N 60 5 0 
N 77 79 0 
N 5 76 0 
N 37 89 0 
N 27 74 0 
O 11 23 0 
6
Atoms. Timestep: 219
N 60 4 0 
N 78 79 0 
N 6 76 0 
N 36 89 0 
N 28 74 0 
O 12 23 0 
6
Atoms. Timestep: 220
N 60 3 0 
N 79 79 0 
N 7 76 0 
N 37 89 0 
N 29 74 0 
O 13 23 0 
6
Atoms. Timestep: 221
N 61 3 0 
N 80 79 0 
N 8 76 0 
N 38 89 0 
N 30 74 0 
O 14 23 0 
6
Atoms. Timestep: 222
N 60 3 0 
N 81 79 0 
N 9 76 0 
N 39 89 0 
N 31 74 0 
O 15 23 0 
6
Atoms. Timestep: 223
N 60 2 0 
N 82 79 0 
N 10 76 0 
N 40 89 0 
N 32 74 0 
O 16 23 0 
6
Atoms. Timestep: 224
N 60 3 0 
N 83 79 0 
N 11 76 0 
N 41 89 0 
N 33 74 0 
O 17 23 0 
6
Atoms. Timestep: 225
N 60 4 0 
N 84 79 0 
N 12 76 0 
N 42 89 0 
N 34 74 0 
O 18 23 0 
6
Atoms. Timestep: 226
N 60 3 0 
N 85 79 0 
N 13 76 0 
N 43 89 0 
N 35 74 0 
O 19 23 0 
6
Atoms. Timestep: 227
N 60 4 0 
N 86 79 0 
N 14 76 0 
N 44 89 0 
N 36 74 0 
O 20 23 0 
6
Atoms. Timestep: 228
N 60 5 0 
N 87 79 0 
N 15 76 0 
N 45 89 0 
N 37 74 0 
O 21 23 0 
6
Atoms. Timestep: 229
N 61 5 0 
N 88 79 0 
N 16 76 0 
N 46 89 0 
N 37 75 0 
O 22 23 0 
6
Atoms. Timestep: 230
N 61 6 0 
N 89 79 0 
N 17 76 0 
N 47 89 0 
N 38 75 0 
O 23 23 0 
6
Atoms. Timestep: 231
N 60 6 0 
N 90 79 0 
N 18 76 0 
N 48 89 0 
N 39 75 0 
O 24 23 0 
6
Atoms. Timestep: 232
N 59 6 0 
N 91 79 0 
N 19 76 0 
N 49 89 0 
N 40 75 0 
O 25 23 0 
6
Atoms. Timestep: 233
N 60 6 0 
N 92 79 0 
N 20 76 0 
N 50 89 0 
N 41 75 0 
O 26 23 0 
6
Atoms. Timestep: 234
N 60 7 0 
N 93 79 0 
N 21 76 0 
N 51 89 0 
N 42 75 0 
O 27 23 0 
6
Atoms. Timestep: 235
N 60 6 0 
N 94 79 0 
N 22 76 0 
N 52 89 0 
N 43 75 0 
O 28 23 0 
6
Atoms. Timestep: 236
N 59 6 0 
N 95 79 0 
N 23 76 0 
N 53 89 0 
N 44 75 0 
O 29 23 0 
6
Atoms. Timestep: 237
N 59 5 0 
N 95 80 0 
N 24 76 0 
N 54 89 0 
N 45 75 0 
O 30 23 0 
6
Atoms. Timestep: 238
N 59 4 0 
N 96 80 0 
N 25 76 0 
N 55 89 0 
N 46 75 0 
O 31 23 0 
6
Atoms. Timestep: 239
N 58 4 0 
N 97 80 0 
N 26 76 0 
N 56 89 0 
N 47 75 0 
O 32 23 0 
6
Atoms. Timestep: 240
N 58 5 0 
N 98 80 0 
N 27 76 0 
N 57 89 0 
N 48 75 0 
O 33 23 0 
6
Atoms. Timestep: 241
N 58 6 0 
N 99 80 0 
N 28 76 0 
N 58 89 0 
N 49 75 0 
O 34 23 0 
6
Atoms. Timestep: 242
N 58 5 0 
N 0 80 0 
N 29 76 0 
N 59 89 0 
N 50 75 0 
O 35 23 0 
6
Atoms. Timestep: 243
N 59 5 0 
N 1 80 0 
N 30 76 0 
N 60 89 0 
N 51 75 0 
O 36 23 0 
6
Atoms. Timestep: 244
N 59 6 0 
N 2 80 0 
N 31 76 0 
N 61 89 0 
N 52 75 0 
O 37 23 0 
6
Atoms. Timestep: 245
N 58 6 0 
N 3 80 0 
N 32 76 0 
N 62 89 0 
N 53 75 0 
O 38 23 0 
6
Atoms. Timestep: 246
N 59 6 0 
N 4 80 0 
N 33 76 0 
N 63 89 0 
N 54 75 0 
O 39 23 0 
6
Atoms. Timestep: 247
N 60 6 0 
N 5 80 0 
N 34 76 0 
N 64 89 0 
N 55 75 0 
O 40 23 0 
6
Atoms. Timestep: 248
N 60 7 0 
N 6 80 0 
N 35 76 0 
N 65 89 0 
N 56 75 0 
O 41 23 0 
6
Atoms. Timestep: 249
N 60 6 0 
N 7 80 0 
N 36 76 0 
N 66 89 0 
N 57 75 0 
O 42 23 0 
6
Atoms. Timestep: 250
N 60 7 0 
N 8 80 0 
N 37 76 0 
N 67 89 0 
N 58 75 0 
O 43 23 0 
6
Atoms. Timestep: 251
N 60 8 0 
N 9 80 0 
N 38 76 0 
N 68 89 0 
N 59 75 0 
O 44 23 0 
6
Atoms. Timestep: 252
N 60 9 0 
N 10 80 0 
N 39 76 0 
N 67 89 0 
N 60 75 0 
O 45 23 0 
6
Atoms. Timestep: 253
N 61 9 0 
N 11 80 0 
N 40 76 0 
N 68 89 0 
N 61 75 0 
O 46 23 0 
6
Atoms. Timestep: 254
N 61 10 0 
N 12 80 0 
N 41 76 0 
N 69 89 0 
N 62 75 0 
O 47 23 0 
6
Atoms. Timestep: 255
N 61 11 0 
N 13 80 0 
N 42 76 0 
N 70 89 0 
N 63 75 0 
O 48 23 0 
6
Atoms. Timestep: 256
N 61 10 0 
N 14 80 0 
N 43 76 0 
N 71 89 0 
N 64 75 0 
O 49 23 0 
6
Atoms. Timestep: 257
N 62 10 0 
N 15 80 0 
N 44 76 0 
N 72 89 0 
N 65 75 0 
O 50 23 0 
6
Atoms. Timestep: 258
N 62 11 0 
N 16 80 0 
N 45 76 0 
N 73 89 0 
N 66 75 0 
O 51 23 0 
6
Atoms. Timestep: 259
N 63 11 0 
N 17 80 0 
N 46 76 0 
N 74 89 0 
N 67 75 0 
O 52 23 0 
6
Atoms. Timestep: 260
N 64 11 0 
N 18 80 0 
N 47 76 0 
N 75 89 0 
N 68 75 0 
O 53 23 0 
6
Atoms. Timestep: 261
N 64 12 0 
N 19 80 0 
N 48 76 0 
N 76 89 0 
N 69 75 0 
O 54 23 0 
6
Atoms. Timestep: 262
N 63 12 0 
N 20 80 0 
N 49 76 0 
N 77 89 0 
N 70 75 0 
O 55 23 0 
6
Atoms. Timestep: 263
N 62 12 0 
N 21 80 0 
N 50 76 0 
N 78 89 0 
N 71 75 0 
O 56 23 0 
6
Atoms. Timestep: 264
N 62 13 0 
N 22 80 0 
N 51 76 0 
N 79 89 0 
N 72 75 0 
O 57 23 0 
6
Atoms. Timestep: 265
N 63 13 0 
N 23 80 0 
N 52 76 0 
N 80 89 0 
N 73 75 0 
O 58 23 0 
6
Atoms. Timestep: 266
N 64 13 0 
N 24 80 0 
N 53 76 0 
N 81 89 0 
N 74 75 0 
O 59 23 0 
6
Atoms. Timestep: 267
N 64 12 0 
N 25 80 0 
N 54 76 0 
N 82 89 0 
N 75 75 0 
O 60 23 0 
6
Atoms. Timestep: 268
N 63 12 0 
N 26 80 0 
N 55 76 0 
N 83 89 0 
N 76 75 0 
O 61 23 0 
6
Atoms. Timestep: 269
N 63 11 0 
N 27 80 0 
N 56 76 0 
N 84 89 0 
N 77 75 0 
O 62 23 0 
6
Atoms. Timestep: 270
N 63 12 0 
N 28 80 0 
N 57 76 0 
N 85 89 0 
N 78 75 0 
O 63 23 0 
6
Atoms. Timestep: 271
N 64 12 0 
N 29 80 0 
N 58 76 0 
N 86 89 0 
N 79 75 0 
O 64 23 0 
6
Atoms. Timestep: 272
N 63 12 0 
N 30 80 0 
N 59 76 0 
N 87 89 0 
N 80 75 0 
O 65 23 0 
6
Atoms. Timestep: 273
N 63 11 0 
N 31 80 0 
N 60 76 0 
N 88 89 0 
N 81 75 0 
O 66 23 0 
6
Atoms. Timestep: 274
N 62 11 0 
N 32 80 0 
N 61 76 0 
N 87 89 0 
N 82 75 0 
O 67 23 0 
6
Atoms. Timestep: 275
N 62 10 0 
N 33 80 0 
N 62 76 0 
N 88 89 0 
N 83 75 0 
O 68 23 0 
6
Atoms. Timestep: 276
N 63 10 0 
N 34 80 0 
N 63 76 0 
N 89 89 0 
N 84 75 0 
O 69 23 0 
6
Atoms. Timestep: 277
N 62 10 0 
N 35 80 0 
N 64 76 0 
N 90 89 0 
N 85 75 0 
O 70 23 0 
6
Atoms. Timestep: 278
N 63 10 0 
N 36 80 0 
N 65 76 0 
N 91 89 0 
N 86 75 0 
O 71 23 0 
6
Atoms. Timestep: 279
N 63 11 0 
N 37 80 0 
N 66 76 0 
N 92 89 0 
N 87 75 0 
O 72 23 0 
6
Atoms. Timestep: 280
N 64 11 0 
N 38 80 0 
N 67 76 0 
N 93 89 0 
N 88 75 0 
O 73 23 0 
6
Atoms. Timestep: 281
N 65 11 0 
N 39 80 0 
N 68 76 0 
N 94 89 0 
N 89 75 0 
O 74 23 0 
6
Atoms. Timestep: 282
N 64 11 0 
N 40 80 0 
N 69 76 0 
N 95 89 0 
N 90 75 0 
O 75 23 0 
6
Atoms. Timestep: 283
N 65 11 0 
N 41 80 0 
N 70 76 0 
N 96 89 0 
N 91 75 0 
O 76 23 0 
6
Atoms. Timestep: 284
N 64 11 0 
N 42 80 0 
N 71 76 0 
N 97 89 0 
N 92 75 0 
O 77 23 0 
6
Atoms. Timestep: 285
N 63 11 0 
N 43 80 0 
N 71 75 0 
N 98 89 0 
N 93 75 0 
O 78 23 0 
6
Atoms. Timestep: 286
N 62 11 0 
N 44 80 0 
N 72 75 0 
N 99 89 0 
N 94 75 0 
O 79 23 0 
6
Atoms. Timestep: 287
N 62 10 0 
N 45 80 0 
N 73 75 0 
N 0 89 0 
N 95 75 0 
O 80 23 0 
6
Atoms. Timestep: 288
N 62 9 0 
N 46 80 0 
N 74 75 0 
N 1 89 0 
N 96 75 0 
O 81 23 0 
6
Atoms. Timestep: 289
N 61 9 0 
N 47 80 0 
N 75 75 0 
N 2 89 0 
N 97 75 0 
O 82 23 0 
6
Atoms. Timestep: 290
N 60 9 0 
N 48 80 0 
N 76 75 0 
N 3 89 0 
N 98 75 0 
O 83 23 0 
6
Atoms. Timestep: 291
N 61 9 0 
N 49 80 0 
N 77 75 0 
N 4 89 0 
N 99 75 0 
O 84 23 0 
6
Atoms. Timestep: 292
N 61 8 0 
N 50 80 0 
N 78 75 0 
N 5 89 0 
N 0 75 0 
O 85 23 0 
6
Atoms. Timestep: 293
N 60 8 0 
N 51 80 0 
N 79 75 0 
N 6 89 0 
N 1 75 0 
O 86 23 0 
6
Atoms. Timestep: 294
N 59 8 0 
N 52 80 0 
N 79 76 0 
N 7 89 0 
N 2 75 0 
O 87 23 0 
6
Atoms. Timestep: 295
N 58 8 0 
N 53 80 0 
N 80 76 0 
N 8 89 0 
N 3 75 0 
O 88 23 0 
6
Atoms. Timestep: 296
N 58 7 0 
N 54 80 0 
N 81 76 0 
N 9 89 0 
N 4 75 0 
O 89 23 0 
6
Atoms. Timestep: 297
N 57 7 0 
N 55 80 0 
N 82 76 0 
N 10 89 0 
N 5 75 0 
O 90 23 0 
6
Atoms. Timestep: 298
N 57 6 0 
N 56 80 0 
N 83 76 0 
N 11 89 0 
N 6 75 0 
O 91 23 0 
6
Atoms. Timestep: 299
N 58 6 0 
N 57 80 0 
N 84 76 0 
N 12 89 0 
N 7 75 0 
O 92 23 0 
6
Atoms. Timestep: 300
N 57 6 0 
N 58 80 0 
N 85 76 0 
N 13 89 0 
N 8 75 0 
O 93 23 0 
6
Atoms. Timestep: 301
N 56 6 0 
N 59 80 0 
N 86 76 0 
N 14 89 0 
N 8 76 0 
O 94 23 0 
6
Atoms. Timestep: 302
N 56 7 0 
N 60 80 0 
N 87 76 0 
N 15 89 0 
N 9 76 0 
O 95 23 0 
6
Atoms. Timestep: 303
N 55 7 0 
N 61 80 0 
N 88 76 0 
N 16 89 0 
N 10 76 0 
O 96 23 0 
6
Atoms. Timestep: 304
N 55 8 0 
N 60 80 0 
N 89 76 0 
N 17 89 0 
N 11 76 0 
O 97 23 0 
6
Atoms. Timestep: 305
N 55 7 0 
N 61 80 0 
N 90 76 0 
N 18 89 0 
N 12 76 0 
O 98 23 0 
6
Atoms. Timestep: 306
N 54 7 0 
N 62 80 0 
N 91 76 0 
N 19 89 0 
N 13 76 0 
O 99 23 0 
6
Atoms. Timestep: 307
N 54 8 0 
N 63 80 0 
N 92 76 0 
N 20 89 0 
N 14 76 0 
O 0 23 0 
6
Atoms. Timestep: 308
N 53 8 0 
N 64 80 0 
N 93 76 0 
N 21 89 0 
N 15 76 0 
O 1 23 0 
6
Atoms. Timestep: 309
N 53 7 0 
N 65 80 0 
N 94 76 0 
N 22 89 0 
N 16 76 0 
O 2 23 0 
6
Atoms. Timestep: 310
N 52 7 0 
N 66 80 0 
N 95 76 0 
N 23 89 0 
N 17 76 0 
O 3 23 0 
6
Atoms. Timestep: 311
N 51 7 0 
N 67 80 0 
N 96 76 0 
N 24 89 0 
N 18 76 0 
O 4 23 0 
6
Atoms. Timestep: 312
N 51 6 0 
N 68 80 0 
N 97 76 0 
N 25 89 0 
N 19 76 0 
O 5 23 0 
6
Atoms. Timestep: 313
N 51 7 0 
N 69 80 0 
N 98 76 0 
N 26 89 0 
N 20 76 0 
O 6 23 0 
6
Atoms. Timestep: 314
N 51 8 0 
N 70 80 0 
N 99 76 0 
N 27 89 0 
N 21 76 0 
O 7 23 0 
6
Atoms. Timestep: 315
N 52 8 0 
N 71 80 0 
N 0 76 0 
N 28 89 0 
N 22 76 0 
O 8 23 0 
6
Atoms. Timestep: 316
N 52 7 0 
N 72 80 0 
N 1 76 0 
N 29 89 0 
N 23 76 0 
O 9 23 0 
6
Atoms. Timestep: 317
N 53 7 0 
N 73 80 0 
N 2 76 0 
N 30 89 0 
N 24 76 0 
O 10 23 0 
6
Atoms. Timestep: 318
N 52 7 0 
N 74 80 0 
N 1 76 0 
N 31 89 0 
N 25 76 0 
O 11 23 0 
6
Atoms. Timestep: 319
N 51 7 0 
N 75 80 0 
N 2 76 0 
N 32 89 0 
N 26 76 0 
O 12 23 0 
6
Atoms. Timestep: 320
N 51 6 0 
N 76 80 0 
N 3 76 0 
N 33 89 0 
N 27 76 0 
O 13 23 0 
6
Atoms. Timestep: 321
N 51 7 0 
N 77 80 0 
N 4 76 0 
N 34 89 0 
N 28 76 0 
O 14 23 0 
6
Atoms. Timestep: 322
N 50 7 0 
N 78 80 0 
N 5 76 0 
N 35 89 0 
N 29 76 0 
O 15 23 0 
6
Atoms. Timestep: 323
N 50 6 0 
N 79 80 0 
N 6 76 0 
N 36 89 0 
N 30 76 0 
O 16 23 0 
6
Atoms. Timestep: 324
N 50 5 0 
N 80 80 0 
N 7 76 0 
N 37 89 0 
N 31 76 0 
O 17 23 0 
6
Atoms. Timestep: 325
N 50 6 0 
N 81 80 0 
N 8 76 0 
N 38 89 0 
N 32 76 0 
O 18 23 0 
6
Atoms. Timestep: 326
N 50 7 0 
N 82 80 0 
N 9 76 0 
N 39 89 0 
N 33 76 0 
O 19 23 0 
6
Atoms. Timestep: 327
N 50 6 0 
N 83 80 0 
N 10 76 0 
N 40 89 0 
N 34 76 0 
O 20 23 0 
6
Atoms. Timestep: 328
N 50 5 0 
N 84 80 0 
N 11 76 0 
N 41 89 0 
N 35 76 0 
O 21 23 0 
6
Atoms. Timestep: 329
N 50 4 0 
N 85 80 0 
N 12 76 0 
N 42 89 0 
N 35 75 0 
O 22 23 0 
6
Atoms. Timestep: 330
N 49 4 0 
N 86 80 0 
N 13 76 0 
N 43 89 0 
N 36 75 0 
O 23 23 0 
6
Atoms. Timestep: 331
N 48 4 0 
N 87 80 0 
N 14 76 0 
N 44 89 0 
N 37 75 0 
O 24 23 0 
6
Atoms. Timestep: 332
N 47 4 0 
N 88 80 0 
N 15 76 0 
N 45 89 0 
N 38 75 0 
O 25 23 0 
6
Atoms. Timestep: 333
N 48 4 0 
N 89 80 0 
N 16 76 0 
N 46 89 0 
N 39 75 0 
O 26 23 0 
6
Atoms. Timestep: 334
N 48 3 0 
N 90 80 0 
N 17 76 0 
N 45 89 0 
N 40 75 0 
O 27 23 0 
6
Atoms. Timestep: 335
N 47 3 0 
N 91 80 0 
N 18 76 0 
N 46 89 0 
N 41 75 0 
O 28 23 0 
6
Atoms. Timestep: 336
N 47 2 0 
N 92 80 0 
N 19 76 0 
N 47 89 0 
N 42 75 0 
O 29 23 0 
6
Atoms. Timestep: 337
N 48 2 0 
N 93 80 0 
N 20 76 0 
N 48 89 0 
N 43 75 0 
O 30 23 0 
6
Atoms. Timestep: 338
N 49 2 0 
N 94 80 0 
N 21 76 0 
N 48 88 0 
N 44 75 0 
O 31 23 0 
6
Atoms. Timestep: 339
N 49 3 0 
N 95 80 0 
N 22 76 0 
N 49 88 0 
N 45 75 0 
O 32 23 0 
6
Atoms. Timestep: 340
N 49 2 0 
N 96 80 0 
N 23 76 0 
N 50 88 0 
N 46 75 0 
O 33 23 0 
6
Atoms. Timestep: 341
N 50 2 0 
N 97 80 0 
N 24 76 0 
N 51 88 0 
N 47 75 0 
O 34 23 0 
6
Atoms. Timestep: 342
N 51 2 0 
N 98 80 0 
N 25 76 0 
N 52 88 0 
N 48 75 0 
O 35 23 0 
6
Atoms. Timestep: 343
N 51 3 0 
N 99 80 0 
N 26 76 0 
N 53 88 0 
N 49 75 0 
O 36 23 0 
6
Atoms. Timestep: 344
N 52 3 0 
N 0 80 0 
N 27 76 0 
N 54 88 0 
N 50 75 0 
O 37 23 0 
6
Atoms. Timestep: 345
N 52 4 0 
N 1 80 0 
N 28 76 0 
N 55 88 0 
N 51 75 0 
O 38 23 0 
6
Atoms. Timestep: 346
N 53 4 0 
N 2 80 0 
N 29 76 0 
N 56 88 0 
N 52 75 0 
O 39 23 0 
6
Atoms. Timestep: 347
N 52 4 0 
N 3 80 0 
N 30 76 0 
N 57 88 0 
N 53 75 0 
O 40 23 0 
6
Atoms. Timestep: 348
N 51 4 0 
N 4 80 0 
N 31 76 0 
N 58 88 0 
N 54 75 0 
O 41 23 0 
6
Atoms. Timestep: 349
N 51 5 0 
N 5 80 0 
N 32 76 0 
N 59 88 0 
N 55 75 0 
O 42 23 0 
6
Atoms. Timestep: 350
N 50 5 0 
N 6 80 0 
N 33 76 0 
N 60 88 0 
N 55 74 0 
O 43 23 0 
6
Atoms. Timestep: 351
N 50 4 0 
N 7 80 0 
N 34 76 0 
N 61 88 0 
N 56 74 0 
O 44 23 0 
6
Atoms. Timestep: 352
N 51 4 0 
N 8 80 0 
N 35 76 0 
N 62 88 0 
N 56 75 0 
O 45 23 0 
6
Atoms. Timestep: 353
N 51 3 0 
N 9 80 0 
N 36 76 0 
N 63 88 0 
N 57 75 0 
O 46 23 0 
6
Atoms. Timestep: 354
N 51 2 0 
N 10 80 0 
N 37 76 0 
N 64 88 0 
N 58 75 0 
O 47 23 0 
6
Atoms. Timestep: 355
N 51 1 0 
N 11 80 0 
N 38 76 0 
N 65 88 0 
N 59 75 0 
O 48 23 0 
6
Atoms. Timestep: 356
N 51 0 0 
N 12 80 0 
N 39 76 0 
N 66 88 0 
N 60 75 0 
O 49 23 0 
6
Atoms. Timestep: 357
N 51 99 0 
N 13 80 0 
N 40 76 0 
N 67 88 0 
N 61 75 0 
O 50 23 0 
6
Atoms. Timestep: 358
N 52 99 0 
N 14 80 0 
N 41 76 0 
N 68 88 0 
N 62 75 0 
O 51 23 0 
6
Atoms. Timestep: 359
N 53 99 0 
N 15 80 0 
N 42 76 0 
N 69 88 0 
N 63 75 0 
O 52 23 0 
6
Atoms. Timestep: 360
N 52 99 0 
N 16 80 0 
N 43 76 0 
N 70 88 0 
N 64 75 0 
O 53 23 0 
6
Atoms. Timestep: 361
N 52 0 0 
N 17 80 0 
N 44 76 0 
N 71 88 0 
N 65 75 0 
O 54 23 0 
6
Atoms. Timestep: 362
N 51 0 0 
N 18 80 0 
N 45 76 0 
N 72 88 0 
N 66 75 0 
O 55 23 0 
6
Atoms. Timestep: 363
N 51 1 0 
N 19 80 0 
N 46 76 0 
N 73 88 0 
N 67 75 0 
O 56 23 0 
6
Atoms. Timestep: 364
N 51 0 0 
N 20 80 0 
N 47 76 0 
N 74 88 0 
N 68 75 0 
O 57 23 0 
6
Atoms. Timestep: 365
N 51 1 0 
N 21 80 0 
N 48 76 0 
N 75 88 0 
N 69 75 0 
O 58 23 0 
6
Atoms. Timestep: 366
N 50 1 0 
N 22 80 0 
N 49 76 0 
N 76 88 0 
N 70 75 0 
O 59 23 0 
6
Atoms. Timestep: 367
N 50 2 0 
N 23 80 0 
N 50 76 0 
N 77 88 0 
N 71 75 0 
O 60 23 0 
6
Atoms. Timestep: 368
N 50 1 0 
N 24 80 0 
N 51 76 0 
N 78 88 0 
N 72 75 0 
O 61 23 0 
6
Atoms. Timestep: 369
N 50 0 0 
N 25 80 0 
N 52 76 0 
N 79 88 0 
N 73 75 0 
O 62 23 0 
6
Atoms. Timestep: 370
N 51 0 0 
N 26 80 0 
N 53 76 0 
N 80 88 0 
N 74 75 0 
O 63 23 0 
6
Atoms. Timestep: 371
N 51 99 0 
N 27 80 0 
N 54 76 0 
N 81 88 0 
N 75 75 0 
O 64 23 0 
6
Atoms. Timestep: 372
N 51 0 0 
N 28 80 0 
N 55 76 0 
N 82 88 0 
N 76 75 0 
O 65 23 0 
6
Atoms. Timestep: 373
N 51 1 0 
N 29 80 0 
N 56 76 0 
N 83 88 0 
N 77 75 0 
O 66 23 0 
6
Atoms. Timestep: 374
N 52 1 0 
N 30 80 0 
N 57 76 0 
N 84 88 0 
N 78 75 0 
O 67 23 0 
6
Atoms. Timestep: 375
N 53 1 0 
N 31 80 0 
N 58 76 0 
N 85 88 0 
N 79 75 0 
O 68 23 0 
6
Atoms. Timestep: 376
N 52 1 0 
N 32 80 0 
N 59 76 0 
N 86 88 0 
N 80 75 0 
O 69 23 0 
6
Atoms. Timestep: 377
N 52 2 0 
N 33 80 0 
N 60 76 0 
N 87 88 0 
N 81 75 0 
O 70 23 0 
6
Atoms. Timestep: 378
N 52 3 0 
N 34 80 0 
N 61 76 0 
N 88 88 0 
N 82 75 0 
O 71 23 0 
6
Atoms. Timestep: 379
N 52 2 0 
N 35 80 0 
N 62 76 0 
N 89 88 0 
N 83 75 0 
O 72 23 0 
6
Atoms. Timestep: 380
N 53 2 0 
N 34 80 0 
N 63 76 0 
N 90 88 0 
N 84 75 0 
O 73 23 0 
6
Atoms. Timestep: 381
N 53 3 0 
N 35 80 0 
N 64 76 0 
N 91 88 0 
N 85 75 0 
O 74 23 0 
6
Atoms. Timestep: 382
N 53 4 0 
N 36 80 0 
N 65 76 0 
N 92 88 0 
N 86 75 0 
O 75 23 0 
6
Atoms. Timestep: 383
N 54 4 0 
N 37 80 0 
N 66 76 0 
N 93 88 0 
N 87 75 0 
O 76 23 0 
6
Atoms. Timestep: 384
N 54 3 0 
N 38 80 0 
N 67 76 0 
N 94 88 0 
N 88 75 0 
O 77 23 0 
6
Atoms. Timestep: 385
N 54 4 0 
N 39 80 0 
N 68 76 0 
N 95 88 0 
N 89 75 0 
O 78 23 0 
6
Atoms. Timestep: 386
N 55 4 0 
N 40 80 0 
N 69 76 0 
N 94 88 0 
N 90 75 0 
O 79 23 0 
6
Atoms. Timestep: 387
N 55 5 0 
N 41 80 0 
N 70 76 0 
N 95 88 0 
N 91 75 0 
O 80 23 0 
6
Atoms. Timestep: 388
N 56 5 0 
N 42 80 0 
N 70 75 0 
N 96 88 0 
N 92 75 0 
O 81 23 0 
6
Atoms. Timestep: 389
N 56 4 0 
N 43 80 0 
N 71 75 0 
N 97 88 0 
N 93 75 0 
O 82 23 0 
6
Atoms. Timestep: 390
N 55 4 0 
N 44 80 0 
N 72 75 0 
N 98 88 0 
N 94 75 0 
O 83 23 0 
6
Atoms. Timestep: 391
N 55 3 0 
N 45 80 0 
N 73 75 0 
N 99 88 0 
N 95 75 0 
O 84 23 0 
6
Atoms. Timestep: 392
N 55 4 0 
N 46 80 0 
N 74 75 0 
N 0 88 0 
N 96 75 0 
O 85 23 0 
6
Atoms. Timestep: 393
N 55 5 0 
N 47 80 0 
N 75 75 0 
N 1 88 0 
N 97 75 0 
O 86 23 0 
6
Atoms. Timestep: 394
N 56 5 0 
N 48 80 0 
N 76 75 0 
N 2 88 0 
N 98 75 0 
O 87 23 0 
6
Atoms. Timestep: 395
N 56 4 0 
N 49 80 0 
N 77 75 0 
N 3 88 0 
N 99 75 0 
O 88 23 0 
6
Atoms. Timestep: 396
N 57 4 0 
N 50 80 0 
N 78 75 0 
N 4 88 0 
N 0 75 0 
O 89 23 0 
6
Atoms. Timestep: 397
N 57 5 0 
N 51 80 0 
N 79 75 0 
N 5 88 0 
N 1 75 0 
O 90 23 0 
6
Atoms. Timestep: 398
N 57 4 0 
N 52 80 0 
N 80 75 0 
N 6 88 0 
N 2 75 0 
O 91 23 0 
6
Atoms. Timestep: 399
N 58 4 0 
N 53 80 0 
N 81 75 0 
N 7 88 0 
N 3 75 0 
O 92 23 0 
6
Atoms. Timestep: 400
N 57 4 0 
N 54 80 0 
N 82 75 0 
N 8 88 0 
N 4 75 0 
O 93 23 0 
6
Atoms. Timestep: 401
N 57 3 0 
N 55 80 0 
N 83 75 0 
N 9 88 0 
N 5 75 0 
O 94 23 0 
6
Atoms. Timestep: 402
N 57 4 0 
N 56 80 0 
N 84 75 0 
N 10 88 0 
N 6 75 0 
O 95 23 0 
6
Atoms. Timestep: 403
N 58 4 0 
N 57 80 0 
N 85 75 0 
N 11 88 0 
N 7 75 0 
O 96 23 0 
6
Atoms. Timestep: 404
N 59 4 0 
N 58 80 0 
N 86 75 0 
N 12 88 0 
N 8 75 0 
O 97 23 0 
6
Atoms. Timestep: 405
N 59 5 0 
N 58 79 0 
N 87 75 0 
N 13 88 0 
N 9 75 0 
O 98 23 0 
6
Atoms. Timestep: 406
N 58 5 0 
N 59 79 0 
N 88 75 0 
N 14 88 0 
N 10 75 0 
O 99 23 0 
6
Atoms. Timestep: 407
N 58 4 0 
N 60 79 0 
N 89 75 0 
N 15 88 0 
N 11 75 0 
O 0 23 0 
6
Atoms. Timestep: 408
N 58 3 0 
N 61 79 0 
N 90 75 0 
N 16 88 0 
N 12 75 0 
O 1 23 0 
6
Atoms. Timestep: 409
N 58 2 0 
N 62 79 0 
N 91 75 0 
N 17 88 0 
N 13 75 0 
O 2 23 0 
6
Atoms. Timestep: 410
N 59 2 0 
N 63 79 0 
N 92 75 0 
N 17 87 0 
N 14 75 0 
O 3 23 0 
6
Atoms. Timestep: 411
N 59 3 0 
N 64 79 0 
N 93 75 0 
N 18 87 0 
N 15 75 0 
O 4 23 0 
6
Atoms. Timestep: 412
N 59 2 0 
N 65 79 0 
N 94 75 0 
N 19 87 0 
N 16 75 0 
O 5 23 0 
6
Atoms. Timestep: 413
N 58 2 0 
N 66 79 0 
N 95 75 0 
N 20 87 0 
N 17 75 0 
O 6 23 0 
6
Atoms. Timestep: 414
N 57 2 0 
N 67 79 0 
N 96 75 0 
N 21 87 0 
N 18 75 0 
O 7 23 0 
6
Atoms. Timestep: 415
N 56 2 0 
N 68 79 0 
N 97 75 0 
N 22 87 0 
N 19 75 0 
O 8 23 0 
6
Atoms. Timestep: 416
N 56 1 0 
N 69 79 0 
N 98 75 0 
N 23 87 0 
N 20 75 0 
O 9 23 0 
6
Atoms. Timestep: 417
N 56 0 0 
N 70 79 0 
N 99 75 0 
N 23 86 0 
N 21 75 0 
O 10 23 0 
6
Atoms. Timestep: 418
N 55 0 0 
N 71 79 0 
N 0 75 0 
N 24 86 0 
N 22 75 0 
O 11 23 0 
6
Atoms. Timestep: 419
N 55 1 0 
N 72 79 0 
N 1 75 0 
N 25 86 0 
N 23 75 0 
O 12 23 0 
6
Atoms. Timestep: 420
N 56 1 0 
N 73 79 0 
N 2 75 0 
N 26 86 0 
N 24 75 0 
O 13 23 0 
6
Atoms. Timestep: 421
N 56 2 0 
N 74 79 0 
N 3 75 0 
N 27 86 0 
N 25 75 0 
O 14 23 0 
6
Atoms. Timestep: 422
N 56 3 0 
N 75 79 0 
N 4 75 0 
N 28 86 0 
N 26 75 0 
O 15 23 0 
6
Atoms. Timestep: 423
N 57 3 0 
N 76 79 0 
N 5 75 0 
N 29 86 0 
N 27 75 0 
O 16 23 0 
6
Atoms. Timestep: 424
N 57 4 0 
N 77 79 0 
N 6 75 0 
N 30 86 0 
N 28 75 0 
O 17 23 0 
6
Atoms. Timestep: 425
N 56 4 0 
N 78 79 0 
N 7 75 0 
N 31 86 0 
N 29 75 0 
O 18 23 0 
6
Atoms. Timestep: 426
N 57 4 0 
N 79 79 0 
N 8 75 0 
N 32 86 0 
N 30 75 0 
O 19 23 0 
6
Atoms. Timestep: 427
N 57 5 0 
N 80 79 0 
N 9 75 0 
N 33 86 0 
N 31 75 0 
O 20 23 0 
6
Atoms. Timestep: 428
N 56 5 0 
N 81 79 0 
N 10 75 0 
N 34 86 0 
N 32 75 0 
O 21 23 0 
6
Atoms. Timestep: 429
N 55 5 0 
N 81 80 0 
N 11 75 0 
N 33 86 0 
N 33 75 0 
O 22 23 0 
6
Atoms. Timestep: 430
N 54 5 0 
N 82 80 0 
N 12 75 0 
N 34 86 0 
N 34 75 0 
O 23 23 0 
6
Atoms. Timestep: 431
N 53 5 0 
N 83 80 0 
N 13 75 0 
N 35 86 0 
N 35 75 0 
O 24 23 0 
6
Atoms. Timestep: 432
N 54 5 0 
N 84 80 0 
N 14 75 0 
N 36 86 0 
N 36 75 0 
O 25 23 0 
6
Atoms. Timestep: 433
N 53 5 0 
N 85 80 0 
N 15 75 0 
N 37 86 0 
N 37 75 0 
O 26 23 0 
6
Atoms. Timestep: 434
N 52 5 0 
N 86 80 0 
N 16 75 0 
N 38 86 0 
N 37 76 0 
O 27 23 0 
6
Atoms. Timestep: 435
N 52 4 0 
N 87 80 0 
N 17 75 0 
N 39 86 0 
N 38 76 0 
O 28 23 0 
6
Atoms. Timestep: 436
N 52 5 0 
N 87 79 0 
N 18 75 0 
N 40 86 0 
N 39 76 0 
O 29 23 0 
6
Atoms. Timestep: 437
N 52 6 0 
N 88 79 0 
N 19 75 0 
N 41 86 0 
N 40 76 0 
O 30 23 0 
6
Atoms. Timestep: 438
N 51 6 0 
N 89 79 0 
N 20 75 0 
N 42 86 0 
N 41 76 0 
O 31 23 0 
6
Atoms. Timestep: 439
N 52 6 0 
N 90 79 0 
N 21 75 0 
N 43 86 0 
N 42 76 0 
O 32 23 0 
6
Atoms. Timestep: 440
N 52 5 0 
N 91 79 0 
N 22 75 0 
N 44 86 0 
N 43 76 0 
O 33 23 0 
6
Atoms. Timestep: 441
N 51 5 0 
N 92 79 0 
N 23 75 0 
N 45 86 0 
N 44 76 0 
O 34 23 0 
6
Atoms. Timestep: 442
N 52 5 0 
N 93 79 0 
N 24 75 0 
N 46 86 0 
N 45 76 0 
O 35 23 0 
6
Atoms. Timestep: 443
N 51 5 0 
N 94 79 0 
N 25 75 0 
N 47 86 0 
N 46 76 0 
O 36 23 0 
6
Atoms. Timestep: 444
N 50 5 0 
N 95 79 0 
N 26 75 0 
N 48 86 0 
N 47 76 0 
O 37 23 0 
6
Atoms. Timestep: 445
N 49 5 0 
N 96 79 0 
N 27 75 0 
N 49 86 0 
N 48 76 0 
O 38 23 0 
6
Atoms. Timestep: 446
N 49 6 0 
N 97 79 0 
N 28 75 0 
N 50 86 0 
N 49 76 0 
O 39 23 0 
6
Atoms. Timestep: 447
N 49 7 0 
N 98 79 0 
N 29 75 0 
N 50 85 0 
N 50 76 0 
O 40 23 0 
6
Atoms. Timestep: 448
N 48 7 0 
N 99 79 0 
N 30 75 0 
N 51 85 0 
N 51 76 0 
O 41 23 0 
6
Atoms. Timestep: 449
N 48 8 0 
N 0 79 0 
N 31 75 0 
N 52 85 0 
N 50 76 0 
O 42 23 0 
6
Atoms. Timestep: 450
N 48 7 0 
N 1 79 0 
N 32 75 0 
N 53 85 0 
N 51 76 0 
O 43 23 0 
6
Atoms. Timestep: 451
N 48 8 0 
N 2 79 0 
N 33 75 0 
N 54 85 0 
N 52 76 0 
O 44 23 0 
6
Atoms. Timestep: 452
N 48 7 0 
N 3 79 0 
N 34 75 0 
N 55 85 0 
N 53 76 0 
O 45 23 0 
6
Atoms. Timestep: 453
N 48 6 0 
N 4 79 0 
N 35 75 0 
N 56 85 0 
N 54 76 0 
O 46 23 0 
6
Atoms. Timestep: 454
N 48 7 0 
N 5 79 0 
N 36 75 0 
N 57 85 0 
N 55 76 0 
O 47 23 0 
6
Atoms. Timestep: 455
N 48 8 0 
N 6 79 0 
N 37 75 0 
N 58 85 0 
N 56 76 0 
O 48 23 0 
6
Atoms. Timestep: 456
N 49 8 0 
N 7 79 0 
N 38 75 0 
N 59 85 0 
N 57 76 0 
O 49 23 0 
6
Atoms. Timestep: 457
N 48 8 0 
N 8 79 0 
N 39 75 0 
N 60 85 0 
N 58 76 0 
O 50 23 0 
6
Atoms. Timestep: 458
N 47 8 0 
N 9 79 0 
N 40 75 0 
N 61 85 0 
N 59 76 0 
O 51 23 0 
6
Atoms. Timestep: 459
N 48 8 0 
N 10 79 0 
N 41 75 0 
N 62 85 0 
N 60 76 0 
O 52 23 0 
6
Atoms. Timestep: 460
N 47 8 0 
N 11 79 0 
N 42 75 0 
N 63 85 0 
N 61 76 0 
O 53 23 0 
6
Atoms. Timestep: 461
N 47 9 0 
N 12 79 0 
N 43 75 0 
N 64 85 0 
N 62 76 0 
O 54 23 0 
6
Atoms. Timestep: 462
N 48 9 0 
N 13 79 0 
N 44 75 0 
N 65 85 0 
N 63 76 0 
O 55 23 0 
6
Atoms. Timestep: 463
N 48 10 0 
N 14 79 0 
N 45 75 0 
N 66 85 0 
N 64 76 0 
O 56 23 0 
6
Atoms. Timestep: 464
N 49 10 0 
N 15 79 0 
N 46 75 0 
N 67 85 0 
N 65 76 0 
O 57 23 0 
6
Atoms. Timestep: 465
N 49 11 0 
N 16 79 0 
N 47 75 0 
N 68 85 0 
N 66 76 0 
O 58 23 0 
6
Atoms. Timestep: 466
N 50 11 0 
N 17 79 0 
N 48 75 0 
N 69 85 0 
N 67 76 0 
O 59 23 0 
6
Atoms. Timestep: 467
N 49 11 0 
N 18 79 0 
N 49 75 0 
N 70 85 0 
N 68 76 0 
O 60 23 0 
6
Atoms. Timestep: 468
N 48 11 0 
N 19 79 0 
N 50 75 0 
N 71 85 0 
N 69 76 0 
O 61 23 0 
6
Atoms. Timestep: 469
N 49 11 0 
N 20 79 0 
N 51 75 0 
N 72 85 0 
N 70 76 0 
O 62 23 0 
6
Atoms. Timestep: 470
N 48 11 0 
N 21 79 0 
N 52 75 0 
N 73 85 0 
N 71 76 0 
O 63 23 0 
6
Atoms. Timestep: 471
N 47 11 0 
N 21 80 0 
N 53 75 0 
N 74 85 0 
N 72 76 0 
O 64 23 0 
6
Atoms. Timestep: 472
N 46 11 0 
N 22 80 0 
N 54 75 0 
N 75 85 0 
N 73 76 0 
O 65 23 0 
6
Atoms. Timestep: 473
N 46 10 0 
N 22 79 0 
N 55 75 0 
N 76 85 0 
N 74 76 0 
O 66 23 0 
6
Atoms. Timestep: 474
N 45 10 0 
N 22 78 0 
N 56 75 0 
N 77 85 0 
N 75 76 0 
O 67 23 0 
6
Atoms. Timestep: 475
N 45 9 0 
N 23 78 0 
N 57 75 0 
N 78 85 0 
N 76 76 0 
O 68 23 0 
6
Atoms. Timestep: 476
N 44 9 0 
N 24 78 0 
N 58 75 0 
N 79 85 0 
N 77 76 0 
O 69 23 0 
6
Atoms. Timestep: 477
N 44 8 0 
N 25 78 0 
N 59 75 0 
N 80 85 0 
N 78 76 0 
O 70 23 0 
6
Atoms. Timestep: 478
N 43 8 0 
N 25 77 0 
N 60 75 0 
N 81 85 0 
N 78 75 0 
O 71 23 0 
6
Atoms. Timestep: 479
N 43 9 0 
N 25 76 0 
N 61 75 0 
N 82 85 0 
N 79 75 0 
O 72 23 0 
6
Atoms. Timestep: 480
N 42 9 0 
N 26 76 0 
N 62 75 0 
N 83 85 0 
N 80 75 0 
O 73 23 0 
6
Atoms. Timestep: 481
N 41 9 0 
N 27 76 0 
N 63 75 0 
N 84 85 0 
N 81 75 0 
O 74 23 0 
6
Atoms. Timestep: 482
N 40 9 0 
N 27 75 0 
N 64 75 0 
N 85 85 0 
N 82 75 0 
O 75 23 0 
6
Atoms. Timestep: 483
N 39 9 0 
N 27 74 0 
N 65 75 0 
N 86 85 0 
N 83 75 0 
O 76 23 0 
6
Atoms. Timestep: 484
N 39 8 0 
N 27 73 0 
N 66 75 0 
N 87 85 0 
N 84 75 0 
O 76 22 0 
6
Atoms. Timestep: 485
N 38 8 0 
N 27 72 0 
N 67 75 0 
N 88 85 0 
N 85 75 0 
O 76 21 0 
6
Atoms. Timestep: 486
N 39 8 0 
N 27 71 0 
N 68 75 0 
N 89 85 0 
N 86 75 0 
O 77 21 0 
6
Atoms. Timestep: 487
N 39 9 0 
N 27 70 0 
N 69 75 0 
N 90 85 0 
N 87 75 0 
O 78 21 0 
6
Atoms. Timestep: 488
N 39 8 0 
N 26 70 0 
N 70 75 0 
N 91 85 0 
N 88 75 0 
O 78 22 0 
6
Atoms. Timestep: 489
N 38 8 0 
N 25 70 0 
N 71 75 0 
N 92 85 0 
N 89 75 0 
O 79 22 0 
6
Atoms. Timestep: 490
N 38 9 0 
N 25 71 0 
N 72 75 0 
N 93 85 0 
N 90 75 0 
O 80 22 0 
6
Atoms. Timestep: 491
N 37 9 0 
N 25 72 0 
N 73 75 0 
N 94 85 0 
N 91 75 0 
O 81 22 0 
6
Atoms. Timestep: 492
N 36 9 0 
N 26 72 0 
N 74 75 0 
N 95 85 0 
N 92 75 0 
O 82 22 0 
6
Atoms. Timestep: 493
N 35 9 0 
N 27 72 0 
N 75 75 0 
N 96 85 0 
N 93 75 0 
O 81 22 0 
6
Atoms. Timestep: 494
N 36 9 0 
N 27 73 0 
N 76 75 0 
N 97 85 0 
N 94 75 0 
O 82 22 0 
6
Atoms. Timestep: 495
N 36 10 0 
N 28 73 0 
N 77 75 0 
N 98 85 0 
N 95 75 0 
O 83 22 0 
6
Atoms. Timestep: 496
N 35 10 0 
N 29 73 0 
N 78 75 0 
N 99 85 0 
N 96 75 0 
O 84 22 0 
6
Atoms. Timestep: 497
N 34 10 0 
N 30 73 0 
N 79 75 0 
N 0 85 0 
N 97 75 0 
O 85 22 0 
6
Atoms. Timestep: 498
N 34 9 0 
N 31 73 0 
N 80 75 0 
N 1 85 0 
N 98 75 0 
O 86 22 0 
6
Atoms. Timestep: 499
N 33 9 0 
N 32 73 0 
N 81 75 0 
N 2 85 0 
N 99 75 0 
O 87 22 0 
6
Atoms. Timestep: 500
N 33 8 0 
N 33 73 0 
N 82 75 0 
N 3 85 0 
N 0 75 0 
O 88 22 0 
6
Atoms. Timestep: 501
N 33 9 0 
N 34 73 0 
N 83 75 0 
N 4 85 0 
N 1 75 0 
O 89 22 0 
6
Atoms. Timestep: 502
N 34 9 0 
N 35 73 0 
N 84 75 0 
N 5 85 0 
N 1 74 0 
O 90 22 0 
6
Atoms. Timestep: 503
N 35 9 0 
N 36 73 0 
N 85 75 0 
N 6 85 0 
N 2 74 0 
O 91 22 0 
6
Atoms. Timestep: 504
N 35 10 0 
N 37 73 0 
N 86 75 0 
N 7 85 0 
N 3 74 0 
O 92 22 0 
6
Atoms. Timestep: 505
N 36 10 0 
N 38 73 0 
N 87 75 0 
N 8 85 0 
N 4 74 0 
O 93 22 0 
6
Atoms. Timestep: 506
N 37 10 0 
N 39 73 0 
N 88 75 0 
N 9 85 0 
N 5 74 0 
O 94 22 0 
6
Atoms. Timestep: 507
N 37 9 0 
N 40 73 0 
N 89 75 0 
N 10 85 0 
N 6 74 0 
O 95 22 0 
6
Atoms. Timestep: 508
N 37 10 0 
N 41 73 0 
N 88 75 0 
N 11 85 0 
N 7 74 0 
O 96 22 0 
6
Atoms. Timestep: 509
N 38 10 0 
N 42 73 0 
N 89 75 0 
N 12 85 0 
N 8 74 0 
O 97 22 0 
6
Atoms. Timestep: 510
N 38 11 0 
N 43 73 0 
N 90 75 0 
N 13 85 0 
N 9 74 0 
O 98 22 0 
6
Atoms. Timestep: 511
N 37 11 0 
N 44 73 0 
N 91 75 0 
N 14 85 0 
N 10 74 0 
O 99 22 0 
6
Atoms. Timestep: 512
N 36 11 0 
N 45 73 0 
N 92 75 0 
N 15 85 0 
N 11 74 0 
O 0 22 0 
6
Atoms. Timestep: 513
N 37 11 0 
N 46 73 0 
N 93 75 0 
N 16 85 0 
N 12 74 0 
O 1 22 0 
6
Atoms. Timestep: 514
N 38 11 0 
N 47 73 0 
N 94 75 0 
N 17 85 0 
N 13 74 0 
O 2 22 0 
6
Atoms. Timestep: 515
N 38 12 0 
N 48 73 0 
N 95 75 0 
N 18 85 0 
N 14 74 0 
O 3 22 0 
6
Atoms. Timestep: 516
N 37 12 0 
N 49 73 0 
N 96 75 0 
N 19 85 0 
N 14 73 0 
O 4 22 0 
6
Atoms. Timestep: 517
N 37 13 0 
N 50 73 0 
N 97 75 0 
N 20 85 0 
N 15 73 0 
O 5 22 0 
6
Atoms. Timestep: 518
N 36 13 0 
N 51 73 0 
N 98 75 0 
N 21 85 0 
N 16 73 0 
O 6 22 0 
6
Atoms. Timestep: 519
N 36 12 0 
N 52 73 0 
N 99 75 0 
N 22 85 0 
N 17 73 0 
O 7 22 0 
6
Atoms. Timestep: 520
N 35 12 0 
N 53 73 0 
N 0 75 0 
N 23 85 0 
N 18 73 0 
O 8 22 0 
6
Atoms. Timestep: 521
N 34 12 0 
N 54 73 0 
N 1 75 0 
N 24 85 0 
N 19 73 0 
O 9 22 0 
6
Atoms. Timestep: 522
N 33 12 0 
N 55 73 0 
N 2 75 0 
N 25 85 0 
N 18 73 0 
O 10 22 0 
6
Atoms. Timestep: 523
N 32 12 0 
N 56 73 0 
N 3 75 0 
N 26 85 0 
N 19 73 0 
O 11 22 0 
6
Atoms. Timestep: 524
N 32 11 0 
N 57 73 0 
N 4 75 0 
N 27 85 0 
N 20 73 0 
O 12 22 0 
6
Atoms. Timestep: 525
N 33 11 0 
N 58 73 0 
N 5 75 0 
N 28 85 0 
N 21 73 0 
O 13 22 0 
6
Atoms. Timestep: 526
N 33 12 0 
N 59 73 0 
N 6 75 0 
N 29 85 0 
N 22 73 0 
O 14 22 0 
6
Atoms. Timestep: 527
N 32 12 0 
N 60 73 0 
N 7 75 0 
N 30 85 0 
N 23 73 0 
O 15 22 0 
6
Atoms. Timestep: 528
N 32 11 0 
N 61 73 0 
N 8 75 0 
N 31 85 0 
N 24 73 0 
O 16 22 0 
6
Atoms. Timestep: 529
N 32 12 0 
N 62 73 0 
N 9 75 0 
N 32 85 0 
N 25 73 0 
O 17 22 0 
6
Atoms. Timestep: 530
N 32 11 0 
N 63 73 0 
N 10 75 0 
N 33 85 0 
N 26 73 0 
O 18 22 0 
6
Atoms. Timestep: 531
N 33 11 0 
N 64 73 0 
N 11 75 0 
N 34 85 0 
N 27 73 0 
O 19 22 0 
6
Atoms. Timestep: 532
N 33 10 0 
N 65 73 0 
N 12 75 0 
N 35 85 0 
N 28 73 0 
O 20 22 0 
6
Atoms. Timestep: 533
N 33 11 0 
N 64 73 0 
N 13 75 0 
N 36 85 0 
N 29 73 0 
O 21 22 0 
6
Atoms. Timestep: 534
N 33 10 0 
N 65 73 0 
N 14 75 0 
N 37 85 0 
N 30 73 0 
O 22 22 0 
6
Atoms. Timestep: 535
N 33 9 0 
N 66 73 0 
N 15 75 0 
N 38 85 0 
N 31 73 0 
O 23 22 0 
6
Atoms. Timestep: 536
N 33 10 0 
N 67 73 0 
N 16 75 0 
N 37 85 0 
N 32 73 0 
O 24 22 0 
6
Atoms. Timestep: 537
N 32 10 0 
N 67 74 0 
N 17 75 0 
N 38 85 0 
N 33 73 0 
O 25 22 0 
6
Atoms. Timestep: 538
N 31 10 0 
N 68 74 0 
N 18 75 0 
N 39 85 0 
N 34 73 0 
O 26 22 0 
6
Atoms. Timestep: 539
N 31 9 0 
N 68 75 0 
N 19 75 0 
N 40 85 0 
N 33 73 0 
O 27 22 0 
6
Atoms. Timestep: 540
N 32 9 0 
N 69 75 0 
N 20 75 0 
N 41 85 0 
N 34 73 0 
O 28 22 0 
6
Atoms. Timestep: 541
N 32 8 0 
N 70 75 0 
N 21 75 0 
N 42 85 0 
N 35 73 0 
O 29 22 0 
6
Atoms. Timestep: 542
N 33 8 0 
N 71 75 0 
N 22 75 0 
N 43 85 0 
N 36 73 0 
O 30 22 0 
6
Atoms. Timestep: 543
N 34 8 0 
N 72 75 0 
N 21 75 0 
N 44 85 0 
N 37 73 0 
O 31 22 0 
6
Atoms. Timestep: 544
N 34 7 0 
N 73 75 0 
N 20 75 0 
N 45 85 0 
N 38 73 0 
O 32 22 0 
6
Atoms. Timestep: 545
N 33 7 0 
N 74 75 0 
N 21 75 0 
N 46 85 0 
N 39 73 0 
O 33 22 0 
6
Atoms. Timestep: 546
N 32 7 0 
N 75 75 0 
N 22 75 0 
N 47 85 0 
N 40 73 0 
O 34 22 0 
6
Atoms. Timestep: 547
N 33 7 0 
N 76 75 0 
N 23 75 0 
N 48 85 0 
N 41 73 0 
O 35 22 0 
6
Atoms. Timestep: 548
N 34 7 0 
N 77 75 0 
N 24 75 0 
N 49 85 0 
N 42 73 0 
O 36 22 0 
6
Atoms. Timestep: 549
N 33 7 0 
N 78 75 0 
N 25 75 0 
N 50 85 0 
N 43 73 0 
O 37 22 0 
6
Atoms. Timestep: 550
N 34 7 0 
N 79 75 0 
N 26 75 0 
N 51 85 0 
N 44 73 0 
O 38 22 0 
6
Atoms. Timestep: 551
N 35 7 0 
N 80 75 0 
N 27 75 0 
N 52 85 0 
N 45 73 0 
O 39 22 0 
6
Atoms. Timestep: 552
N 35 6 0 
N 81 75 0 
N 28 75 0 
N 53 85 0 
N 45 72 0 
O 40 22 0 
6
Atoms. Timestep: 553
N 36 6 0 
N 82 75 0 
N 29 75 0 
N 54 85 0 
N 46 72 0 
O 41 22 0 
6
Atoms. Timestep: 554
N 36 5 0 
N 83 75 0 
N 30 75 0 
N 55 85 0 
N 47 72 0 
O 42 22 0 
6
Atoms. Timestep: 555
N 36 4 0 
N 84 75 0 
N 31 75 0 
N 56 85 0 
N 47 73 0 
O 43 22 0 
6
Atoms. Timestep: 556
N 37 4 0 
N 85 75 0 
N 32 75 0 
N 57 85 0 
N 48 73 0 
O 44 22 0 
6
Atoms. Timestep: 557
N 37 3 0 
N 86 75 0 
N 33 75 0 
N 58 85 0 
N 48 74 0 
O 45 22 0 
6
Atoms. Timestep: 558
N 38 3 0 
N 87 75 0 
N 34 75 0 
N 59 85 0 
N 49 74 0 
O 46 22 0 
6
Atoms. Timestep: 559
N 39 3 0 
N 88 75 0 
N 35 75 0 
N 60 85 0 
N 50 74 0 
O 47 22 0 
6
Atoms. Timestep: 560
N 40 3 0 
N 89 75 0 
N 36 75 0 
N 61 85 0 
N 51 74 0 
O 48 22 0 
6
Atoms. Timestep: 561
N 41 3 0 
N 89 74 0 
N 36 76 0 
N 62 85 0 
N 52 74 0 
O 49 22 0 
6
Atoms. Timestep: 562
N 40 3 0 
N 90 74 0 
N 37 76 0 
N 63 85 0 
N 53 74 0 
O 50 22 0 
6
Atoms. Timestep: 563
N 40 4 0 
N 91 74 0 
N 38 76 0 
N 64 85 0 
N 54 74 0 
O 51 22 0 
6
Atoms. Timestep: 564
N 40 3 0 
N 92 74 0 
N 39 76 0 
N 65 85 0 
N 55 74 0 
O 52 22 0 
6
Atoms. Timestep: 565
N 40 2 0 
N 93 74 0 
N 40 76 0 
N 66 85 0 
N 56 74 0 
O 53 22 0 
6
Atoms. Timestep: 566
N 39 2 0 
N 94 74 0 
N 41 76 0 
N 67 85 0 
N 57 74 0 
O 54 22 0 
6
Atoms. Timestep: 567
N 38 2 0 
N 95 74 0 
N 42 76 0 
N 68 85 0 
N 58 74 0 
O 55 22 0 
6
Atoms. Timestep: 568
N 38 1 0 
N 96 74 0 
N 43 76 0 
N 69 85 0 
N 59 74 0 
O 56 22 0 
6
Atoms. Timestep: 569
N 37 1 0 
N 97 74 0 
N 44 76 0 
N 70 85 0 
N 60 74 0 
O 57 22 0 
6
Atoms. Timestep: 570
N 38 1 0 
N 98 74 0 
N 45 76 0 
N 71 85 0 
N 61 74 0 
O 58 22 0 
6
Atoms. Timestep: 571
N 38 2 0 
N 99 74 0 
N 46 76 0 
N 72 85 0 
N 62 74 0 
O 59 22 0 
6
Atoms. Timestep: 572
N 38 1 0 
N 0 74 0 
N 47 76 0 
N 73 85 0 
N 63 74 0 
O 60 22 0 
6
Atoms. Timestep: 573
N 39 1 0 
N 1 74 0 
N 48 76 0 
N 74 85 0 
N 64 74 0 
O 61 22 0 
6
Atoms. Timestep: 574
N 40 1 0 
N 2 74 0 
N 49 76 0 
N 75 85 0 
N 65 74 0 
O 62 22 0 
6
Atoms. Timestep: 575
N 41 1 0 
N 3 74 0 
N 50 76 0 
N 76 85 0 
N 66 74 0 
O 63 22 0 
6
Atoms. Timestep: 576
N 41 0 0 
N 4 74 0 
N 51 76 0 
N 77 85 0 
N 67 74 0 
O 64 22 0 
6
Atoms. Timestep: 577
N 42 0 0 
N 5 74 0 
N 52 76 0 
N 78 85 0 
N 68 74 0 
O 65 22 0 
6
Atoms. Timestep: 578
N 41 0 0 
N 6 74 0 
N 53 76 0 
N 79 85 0 
N 69 74 0 
O 66 22 0 
6
Atoms. Timestep: 579
N 41 99 0 
N 7 74 0 
N 54 76 0 
N 80 85 0 
N 70 74 0 
O 67 22 0 
6
Atoms. Timestep: 580
N 40 99 0 
N 8 74 0 
N 55 76 0 
N 81 85 0 
N 71 74 0 
O 68 22 0 
6
Atoms. Timestep: 581
N 41 99 0 
N 9 74 0 
N 56 76 0 
N 82 85 0 
N 72 74 0 
O 69 22 0 
6
Atoms. Timestep: 582
N 41 98 0 
N 10 74 0 
N 57 76 0 
N 83 85 0 
N 73 74 0 
O 70 22 0 
6
Atoms. Timestep: 583
N 40 98 0 
N 11 74 0 
N 58 76 0 
N 84 85 0 
N 74 74 0 
O 71 22 0 
6
Atoms. Timestep: 584
N 40 97 0 
N 12 74 0 
N 59 76 0 
N 85 85 0 
N 75 74 0 
O 72 22 0 
6
Atoms. Timestep: 585
N 41 97 0 
N 13 74 0 
N 60 76 0 
N 85 84 0 
N 76 74 0 
O 73 22 0 
6
Atoms. Timestep: 586
N 41 98 0 
N 14 74 0 
N 60 77 0 
N 86 84 0 
N 77 74 0 
O 74 22 0 
6
Atoms. Timestep: 587
N 41 97 0 
N 15 74 0 
N 60 78 0 
N 87 84 0 
N 78 74 0 
O 75 22 0 
6
Atoms. Timestep: 588
N 42 97 0 
N 16 74 0 
N 61 78 0 
N 88 84 0 
N 79 74 0 
O 76 22 0 
6
Atoms. Timestep: 589
N 42 96 0 
N 17 74 0 
N 62 78 0 
N 89 84 0 
N 80 74 0 
O 77 22 0 
6
Atoms. Timestep: 590
N 43 96 0 
N 18 74 0 
N 63 78 0 
N 90 84 0 
N 81 74 0 
O 78 22 0 
6
Atoms. Timestep: 591
N 44 96 0 
N 19 74 0 
N 64 78 0 
N 91 84 0 
N 82 74 0 
O 79 22 0 
6
Atoms. Timestep: 592
N 43 96 0 
N 20 74 0 
N 65 78 0 
N 92 84 0 
N 83 74 0 
O 80 22 0 
6
Atoms. Timestep: 593
N 43 95 0 
N 21 74 0 
N 66 78 0 
N 91 84 0 
N 84 74 0 
O 81 22 0 
6
Atoms. Timestep: 594
N 44 95 0 
N 22 74 0 
N 67 78 0 
N 92 84 0 
N 85 74 0 
O 82 22 0 
6
Atoms. Timestep: 595
N 44 96 0 
N 23 74 0 
N 68 78 0 
N 93 84 0 
N 86 74 0 
O 83 22 0 
6
Atoms. Timestep: 596
N 45 96 0 
N 24 74 0 
N 69 78 0 
N 94 84 0 
N 87 74 0 
O 84 22 0 
6
Atoms. Timestep: 597
N 46 96 0 
N 25 74 0 
N 70 78 0 
N 95 84 0 
N 88 74 0 
O 85 22 0 
6
Atoms. Timestep: 598
N 46 95 0 
N 26 74 0 
N 71 78 0 
N 96 84 0 
N 89 74 0 
O 86 22 0 
6
Atoms. Timestep: 599
N 46 96 0 
N 27 74 0 
N 72 78 0 
N 97 84 0 
N 90 74 0 
O 87 22 0 
6
Atoms. Timestep: 600
N 45 96 0 
N 28 74 0 
N 73 78 0 
N 98 84 0 
N 91 74 0 
O 88 22 0 
6
Atoms. Timestep: 601
N 45 95 0 
N 29 74 0 
N 74 78 0 
N 99 84 0 
N 92 74 0 
O 89 22 0 
6
Atoms. Timestep: 602
N 45 94 0 
N 30 74 0 
N 75 78 0 
N 0 84 0 
N 93 74 0 
O 90 22 0 
6
Atoms. Timestep: 603
N 46 94 0 
N 31 74 0 
N 76 78 0 
N 0 83 0 
N 94 74 0 
O 91 22 0 
6
Atoms. Timestep: 604
N 47 94 0 
N 32 74 0 
N 77 78 0 
N 1 83 0 
N 95 74 0 
O 92 22 0 
6
Atoms. Timestep: 605
N 46 94 0 
N 33 74 0 
N 78 78 0 
N 2 83 0 
N 96 74 0 
O 93 22 0 
6
Atoms. Timestep: 606
N 45 94 0 
N 34 74 0 
N 79 78 0 
N 3 83 0 
N 97 74 0 
O 94 22 0 
6
Atoms. Timestep: 607
N 45 93 0 
N 35 74 0 
N 80 78 0 
N 4 83 0 
N 98 74 0 
O 95 22 0 
6
Atoms. Timestep: 608
N 45 92 0 
N 36 74 0 
N 81 78 0 
N 5 83 0 
N 99 74 0 
O 96 22 0 
6
Atoms. Timestep: 609
N 45 91 0 
N 37 74 0 
N 82 78 0 
N 6 83 0 
N 0 74 0 
O 97 22 0 
6
Atoms. Timestep: 610
N 44 91 0 
N 38 74 0 
N 82 77 0 
N 7 83 0 
N 1 74 0 
O 98 22 0 
6
Atoms. Timestep: 611
N 44 92 0 
N 39 74 0 
N 81 77 0 
N 8 83 0 
N 2 74 0 
O 99 22 0 
6
Atoms. Timestep: 612
N 45 92 0 
N 40 74 0 
N 82 77 0 
N 9 83 0 
N 3 74 0 
O 0 22 0 
6
Atoms. Timestep: 613
N 46 92 0 
N 41 74 0 
N 83 77 0 
N 9 82 0 
N 4 74 0 
O 1 22 0 
6
Atoms. Timestep: 614
N 47 92 0 
N 42 74 0 
N 84 77 0 
N 10 82 0 
N 5 74 0 
O 2 22 0 
6
Atoms. Timestep: 615
N 46 92 0 
N 43 74 0 
N 85 77 0 
N 11 82 0 
N 6 74 0 
O 3 22 0 
6
Atoms. Timestep: 616
N 46 93 0 
N 44 74 0 
N 86 77 0 
N 12 82 0 
N 7 74 0 
O 4 22 0 
6
Atoms. Timestep: 617
N 46 94 0 
N 43 74 0 
N 87 77 0 
N 13 82 0 
N 8 74 0 
O 5 22 0 
6
Atoms. Timestep: 618
N 45 94 0 
N 44 74 0 
N 88 77 0 
N 14 82 0 
N 9 74 0 
O 6 22 0 
6
Atoms. Timestep: 619
N 45 95 0 
N 45 74 0 
N 89 77 0 
N 15 82 0 
N 10 74 0 
O 7 22 0 
6
Atoms. Timestep: 620
N 46 95 0 
N 46 74 0 
N 90 77 0 
N 16 82 0 
N 11 74 0 
O 8 22 0 
6
Atoms. Timestep: 621
N 46 94 0 
N 47 74 0 
N 91 77 0 
N 17 82 0 
N 12 74 0 
O 9 22 0 
6
Atoms. Timestep: 622
N 45 94 0 
N 48 74 0 
N 92 77 0 
N 18 82 0 
N 11 74 0 
O 10 22 0 
6
Atoms. Timestep: 623
N 46 94 0 
N 49 74 0 
N 91 77 0 
N 19 82 0 
N 12 74 0 
O 11 22 0 
6
Atoms. Timestep: 624
N 45 94 0 
N 50 74 0 
N 92 77 0 
N 20 82 0 
N 13 74 0 
O 12 22 0 
6
Atoms. Timestep: 625
N 46 94 0 
N 51 74 0 
N 93 77 0 
N 21 82 0 
N 14 74 0 
O 13 22 0 
6
Atoms. Timestep: 626
N 46 93 0 
N 52 74 0 
N 94 77 0 
N 22 82 0 
N 15 74 0 
O 14 22 0 
6
Atoms. Timestep: 627
N 46 92 0 
N 53 74 0 
N 95 77 0 
N 23 82 0 
N 16 74 0 
O 15 22 0 
6
Atoms. Timestep: 628
N 45 92 0 
N 54 74 0 
N 96 77 0 
N 24 82 0 
N 17 74 0 
O 16 22 0 
6
Atoms. Timestep: 629
N 45 93 0 
N 55 74 0 
N 97 77 0 
N 25 82 0 
N 18 74 0 
O 17 22 0 
6
Atoms. Timestep: 630
N 45 94 0 
N 56 74 0 
N 98 77 0 
N 26 82 0 
N 19 74 0 
O 18 22 0 
6
Atoms. Timestep: 631
N 46 94 0 
N 57 74 0 
N 99 77 0 
N 27 82 0 
N 20 74 0 
O 19 22 0 
6
Atoms. Timestep: 632
N 46 93 0 
N 58 74 0 
N 0 77 0 
N 28 82 0 
N 21 74 0 
O 20 22 0 
6
Atoms. Timestep: 633
N 46 92 0 
N 59 74 0 
N 1 77 0 
N 29 82 0 
N 22 74 0 
O 21 22 0 
6
Atoms. Timestep: 634
N 45 92 0 
N 60 74 0 
N 2 77 0 
N 30 82 0 
N 23 74 0 
O 22 22 0 
6
Atoms. Timestep: 635
N 44 92 0 
N 61 74 0 
N 3 77 0 
N 31 82 0 
N 24 74 0 
O 23 22 0 
6
Atoms. Timestep: 636
N 44 93 0 
N 62 74 0 
N 4 77 0 
N 32 82 0 
N 25 74 0 
O 24 22 0 
6
Atoms. Timestep: 637
N 44 92 0 
N 63 74 0 
N 5 77 0 
N 33 82 0 
N 26 74 0 
O 25 22 0 
6
Atoms. Timestep: 638
N 44 91 0 
N 64 74 0 
N 6 77 0 
N 34 82 0 
N 27 74 0 
O 26 22 0 
6
Atoms. Timestep: 639
N 45 91 0 
N 65 74 0 
N 7 77 0 
N 35 82 0 
N 28 74 0 
O 27 22 0 
6
Atoms. Timestep: 640
N 44 91 0 
N 66 74 0 
N 8 77 0 
N 36 82 0 
N 29 74 0 
O 28 22 0 
6
Atoms. Timestep: 641
N 45 91 0 
N 67 74 0 
N 9 77 0 
N 37 82 0 
N 30 74 0 
O 29 22 0 
6
Atoms. Timestep: 642
N 45 92 0 
N 68 74 0 
N 10 77 0 
N 38 82 0 
N 31 74 0 
O 30 22 0 
6
Atoms. Timestep: 643
N 46 92 0 
N 69 74 0 
N 11 77 0 
N 39 82 0 
N 32 74 0 
O 31 22 0 
6
Atoms. Timestep: 644
N 47 92 0 
N 70 74 0 
N 12 77 0 
N 40 82 0 
N 33 74 0 
O 32 22 0 
6
Atoms. Timestep: 645
N 47 93 0 
N 71 74 0 
N 13 77 0 
N 41 82 0 
N 34 74 0 
O 33 22 0 
6
Atoms. Timestep: 646
N 46 93 0 
N 72 74 0 
N 14 77 0 
N 42 82 0 
N 35 74 0 
O 34 22 0 
6
Atoms. Timestep: 647
N 46 92 0 
N 73 74 0 
N 15 77 0 
N 43 82 0 
N 36 74 0 
O 35 22 0 
6
Atoms. Timestep: 648
N 46 93 0 
N 74 74 0 
N 16 77 0 
N 44 82 0 
N 36 75 0 
O 36 22 0 
6
Atoms. Timestep: 649
N 45 93 0 
N 75 74 0 
N 17 77 0 
N 45 82 0 
N 37 75 0 
O 37 22 0 
6
Atoms. Timestep: 650
N 44 93 0 
N 76 74 0 
N 18 77 0 
N 46 82 0 
N 38 75 0 
O 38 22 0 
6
Atoms. Timestep: 651
N 44 92 0 
N 77 74 0 
N 19 77 0 
N 47 82 0 
N 39 75 0 
O 39 22 0 
6
Atoms. Timestep: 652
N 44 93 0 
N 78 74 0 
N 20 77 0 
N 48 82 0 
N 40 75 0 
O 40 22 0 
6
Atoms. Timestep: 653
N 44 92 0 
N 79 74 0 
N 21 77 0 
N 49 82 0 
N 41 75 0 
O 41 22 0 
6
Atoms. Timestep: 654
N 45 92 0 
N 80 74 0 
N 22 77 0 
N 50 82 0 
N 42 75 0 
O 42 22 0 
6
Atoms. Timestep: 655
N 45 93 0 
N 81 74 0 
N 23 77 0 
N 51 82 0 
N 43 75 0 
O 43 22 0 
6
Atoms. Timestep: 656
N 45 92 0 
N 82 74 0 
N 24 77 0 
N 52 82 0 
N 44 75 0 
O 44 22 0 
6
Atoms. Timestep: 657
N 46 92 0 
N 83 74 0 
N 25 77 0 
N 53 82 0 
N 45 75 0 
O 45 22 0 
6
Atoms. Timestep: 658
N 46 91 0 
N 84 74 0 
N 26 77 0 
N 54 82 0 
N 45 76 0 
O 46 22 0 
6
Atoms. Timestep: 659
N 46 90 0 
N 85 74 0 
N 27 77 0 
N 55 82 0 
N 46 76 0 
O 47 22 0 
6
Atoms. Timestep: 660
N 46 89 0 
N 86 74 0 
N 28 77 0 
N 56 82 0 
N 47 76 0 
O 48 22 0 
6
Atoms. Timestep: 661
N 45 89 0 
N 87 74 0 
N 29 77 0 
N 57 82 0 
N 48 76 0 
O 49 22 0 
6
Atoms. Timestep: 662
N 44 89 0 
N 88 74 0 
N 30 77 0 
N 58 82 0 
N 49 76 0 
O 50 22 0 
6
Atoms. Timestep: 663
N 45 89 0 
N 89 74 0 
N 31 77 0 
N 59 82 0 
N 50 76 0 
O 51 22 0 
6
Atoms. Timestep: 664
N 46 89 0 
N 90 74 0 
N 32 77 0 
N 59 81 0 
N 51 76 0 
O 52 22 0 
6
Atoms. Timestep: 665
N 45 89 0 
N 91 74 0 
N 33 77 0 
N 60 81 0 
N 52 76 0 
O 53 22 0 
6
Atoms. Timestep: 666
N 44 89 0 
N 92 74 0 
N 34 77 0 
N 61 81 0 
N 53 76 0 
O 54 22 0 
6
Atoms. Timestep: 667
N 44 90 0 
N 93 74 0 
N 35 77 0 
N 62 81 0 
N 54 76 0 
O 55 22 0 
6
Atoms. Timestep: 668
N 45 90 0 
N 94 74 0 
N 36 77 0 
N 63 81 0 
N 55 76 0 
O 56 22 0 
6
Atoms. Timestep: 669
N 46 90 0 
N 95 74 0 
N 37 77 0 
N 64 81 0 
N 56 76 0 
O 57 22 0 
6
Atoms. Timestep: 670
N 46 91 0 
N 96 74 0 
N 38 77 0 
N 65 81 0 
N 57 76 0 
O 58 22 0 
6
Atoms. Timestep: 671
N 47 91 0 
N 97 74 0 
N 39 77 0 
N 66 81 0 
N 58 76 0 
O 59 22 0 
6
Atoms. Timestep: 672
N 46 91 0 
N 98 74 0 
N 40 77 0 
N 67 81 0 
N 59 76 0 
O 60 22 0 
6
Atoms. Timestep: 673
N 45 91 0 
N 99 74 0 
N 41 77 0 
N 68 81 0 
N 60 76 0 
O 61 22 0 
6
Atoms. Timestep: 674
N 46 91 0 
N 0 74 0 
N 42 77 0 
N 69 81 0 
N 61 76 0 
O 62 22 0 
6
Atoms. Timestep: 675
N 46 90 0 
N 1 74 0 
N 43 77 0 
N 70 81 0 
N 62 76 0 
O 63 22 0 
6
Atoms. Timestep: 676
N 46 89 0 
N 2 74 0 
N 44 77 0 
N 71 81 0 
N 63 76 0 
O 64 22 0 
6
Atoms. Timestep: 677
N 46 88 0 
N 3 74 0 
N 45 77 0 
N 72 81 0 
N 64 76 0 
O 65 22 0 
6
Atoms. Timestep: 678
N 45 88 0 
N 4 74 0 
N 46 77 0 
N 73 81 0 
N 65 76 0 
O 66 22 0 
6
Atoms. Timestep: 679
N 45 89 0 
N 5 74 0 
N 47 77 0 
N 74 81 0 
N 66 76 0 
O 67 22 0 
6
Atoms. Timestep: 680
N 45 88 0 
N 6 74 0 
N 47 76 0 
N 75 81 0 
N 67 76 0 
O 68 22 0 
6
Atoms. Timestep: 681
N 46 88 0 
N 7 74 0 
N 48 76 0 
N 76 81 0 
N 68 76 0 
O 69 22 0 
6
Atoms. Timestep: 682
N 47 88 0 
N 8 74 0 
N 49 76 0 
N 77 81 0 
N 69 76 0 
O 70 22 0 
6
Atoms. Timestep: 683
N 46 88 0 
N 9 74 0 
N 49 75 0 
N 78 81 0 
N 70 76 0 
O 71 22 0 
6
Atoms. Timestep: 684
N 46 89 0 
N 10 74 0 
N 50 75 0 
N 79 81 0 
N 71 76 0 
O 72 22 0 
6
Atoms. Timestep: 685
N 45 89 0 
N 11 74 0 
N 51 75 0 
N 80 81 0 
N 72 76 0 
O 73 22 0 
6
Atoms. Timestep: 686
N 44 89 0 
N 12 74 0 
N 52 75 0 
N 81 81 0 
N 73 76 0 
O 74 22 0 
6
Atoms. Timestep: 687
N 43 89 0 
N 13 74 0 
N 53 75 0 
N 82 81 0 
N 74 76 0 
O 75 22 0 
6
Atoms. Timestep: 688
N 43 90 0 
N 14 74 0 
N 54 75 0 
N 83 81 0 
N 74 77 0 
O 76 22 0 
6
Atoms. Timestep: 689
N 43 91 0 
N 14 75 0 
N 55 75 0 
N 84 81 0 
N 75 77 0 
O 77 22 0 
6
Atoms. Timestep: 690
N 43 90 0 
N 15 75 0 
N 56 75 0 
N 85 81 0 
N 76 77 0 
O 78 22 0 
6
Atoms. Timestep: 691
N 43 91 0 
N 16 75 0 
N 57 75 0 
N 86 81 0 
N 77 77 0 
O 79 22 0 
6
Atoms. Timestep: 692
N 43 92 0 
N 17 75 0 
N 58 75 0 
N 87 81 0 
N 78 77 0 
O 80 22 0 
6
Atoms. Timestep: 693
N 43 91 0 
N 18 75 0 
N 59 75 0 
N 88 81 0 
N 78 78 0 
O 81 22 0 
6
Atoms. Timestep: 694
N 42 91 0 
N 19 75 0 
N 60 75 0 
N 89 81 0 
N 79 78 0 
O 82 22 0 
6
Atoms. Timestep: 695
N 42 92 0 
N 18 75 0 
N 61 75 0 
N 90 81 0 
N 80 78 0 
O 83 22 0 
6
Atoms. Timestep: 696
N 43 92 0 
N 19 75 0 
N 62 75 0 
N 91 81 0 
N 81 78 0 
O 84 22 0 
6
Atoms. Timestep: 697
N 43 91 0 
N 20 75 0 
N 63 75 0 
N 92 81 0 
N 82 78 0 
O 85 22 0 
6
Atoms. Timestep: 698
N 42 91 0 
N 21 75 0 
N 64 75 0 
N 93 81 0 
N 83 78 0 
O 86 22 0 
6
Atoms. Timestep: 699
N 41 91 0 
N 22 75 0 
N 65 75 0 
N 94 81 0 
N 84 78 0 
O 87 22 0 
6
Atoms. Timestep: 700
N 41 92 0 
N 23 75 0 
N 66 75 0 
N 95 81 0 
N 85 78 0 
O 88 22 0 
6
Atoms. Timestep: 701
N 40 92 0 
N 24 75 0 
N 67 75 0 
N 96 81 0 
N 86 78 0 
O 89 22 0 
6
Atoms. Timestep: 702
N 40 91 0 
N 25 75 0 
N 68 75 0 
N 97 81 0 
N 87 78 0 
O 90 22 0 
6
Atoms. Timestep: 703
N 40 90 0 
N 26 75 0 
N 69 75 0 
N 98 81 0 
N 88 78 0 
O 91 22 0 
6
Atoms. Timestep: 704
N 39 90 0 
N 27 75 0 
N 70 75 0 
N 99 81 0 
N 89 78 0 
O 92 22 0 
6
Atoms. Timestep: 705
N 40 90 0 
N 28 75 0 
N 71 75 0 
N 0 81 0 
N 90 78 0 
O 93 22 0 
6
Atoms. Timestep: 706
N 40 89 0 
N 29 75 0 
N 72 75 0 
N 1 81 0 
N 91 78 0 
O 94 22 0 
6
Atoms. Timestep: 707
N 40 90 0 
N 30 75 0 
N 73 75 0 
N 2 81 0 
N 92 78 0 
O 95 22 0 
6
Atoms. Timestep: 708
N 41 90 0 
N 31 75 0 
N 74 75 0 
N 3 81 0 
N 93 78 0 
O 96 22 0 
6
Atoms. Timestep: 709
N 40 90 0 
N 31 76 0 
N 75 75 0 
N 4 81 0 
N 94 78 0 
O 97 22 0 
6
Atoms. Timestep: 710
N 40 91 0 
N 32 76 0 
N 76 75 0 
N 3 81 0 
N 95 78 0 
O 98 22 0 
6
Atoms. Timestep: 711
N 40 92 0 
N 33 76 0 
N 77 75 0 
N 4 81 0 
N 96 78 0 
O 99 22 0 
6
Atoms. Timestep: 712
N 41 92 0 
N 34 76 0 
N 78 75 0 
N 5 81 0 
N 97 78 0 
O 0 22 0 
6
Atoms. Timestep: 713
N 41 91 0 
N 35 76 0 
N 79 75 0 
N 4 81 0 
N 98 78 0 
O 1 22 0 
6
Atoms. Timestep: 714
N 41 90 0 
N 36 76 0 
N 80 75 0 
N 5 81 0 
N 99 78 0 
O 2 22 0 
6
Atoms. Timestep: 715
N 41 91 0 
N 37 76 0 
N 81 75 0 
N 6 81 0 
N 0 78 0 
O 3 22 0 
6
Atoms. Timestep: 716
N 41 90 0 
N 38 76 0 
N 82 75 0 
N 7 81 0 
N 1 78 0 
O 4 22 0 
6
Atoms. Timestep: 717
N 41 91 0 
N 39 76 0 
N 83 75 0 
N 8 81 0 
N 2 78 0 
O 5 22 0 
6
Atoms. Timestep: 718
N 41 92 0 
N 40 76 0 
N 84 75 0 
N 9 81 0 
N 3 78 0 
O 6 22 0 
6
Atoms. Timestep: 719
N 41 93 0 
N 41 76 0 
N 85 75 0 
N 10 81 0 
N 4 78 0 
O 7 22 0 
6
Atoms. Timestep: 720
N 42 93 0 
N 42 76 0 
N 86 75 0 
N 11 81 0 
N 5 78 0 
O 8 22 0 
6
Atoms. Timestep: 721
N 42 92 0 
N 43 76 0 
N 87 75 0 
N 12 81 0 
N 6 78 0 
O 9 22 0 
6
Atoms. Timestep: 722
N 42 91 0 
N 44 76 0 
N 88 75 0 
N 13 81 0 
N 7 78 0 
O 10 22 0 
6
Atoms. Timestep: 723
N 42 92 0 
N 45 76 0 
N 89 75 0 
N 14 81 0 
N 8 78 0 
O 11 22 0 
6
Atoms. Timestep: 724
N 41 92 0 
N 46 76 0 
N 90 75 0 
N 15 81 0 
N 9 78 0 
O 12 22 0 
6
Atoms. Timestep: 725
N 40 92 0 
N 47 76 0 
N 91 75 0 
N 16 81 0 
N 10 78 0 
O 13 22 0 
6
Atoms. Timestep: 726
N 41 92 0 
N 48 76 0 
N 92 75 0 
N 17 81 0 
N 11 78 0 
O 14 22 0 
6
Atoms. Timestep: 727
N 40 92 0 
N 49 76 0 
N 93 75 0 
N 18 81 0 
N 12 78 0 
O 15 22 0 
6
Atoms. Timestep: 728
N 39 92 0 
N 50 76 0 
N 94 75 0 
N 19 81 0 
N 13 78 0 
O 16 22 0 
6
Atoms. Timestep: 729
N 39 91 0 
N 51 76 0 
N 95 75 0 
N 20 81 0 
N 14 78 0 
O 17 22 0 
6
Atoms. Timestep: 730
N 39 90 0 
N 52 76 0 
N 96 75 0 
N 21 81 0 
N 15 78 0 
O 18 22 0 
6
Atoms. Timestep: 731
N 40 90 0 
N 53 76 0 
N 97 75 0 
N 22 81 0 
N 16 78 0 
O 19 22 0 
6
Atoms. Timestep: 732
N 40 91 0 
N 54 76 0 
N 98 75 0 
N 23 81 0 
N 17 78 0 
O 20 22 0 
6
Atoms. Timestep: 733
N 39 91 0 
N 55 76 0 
N 99 75 0 
N 24 81 0 
N 18 78 0 
O 21 22 0 
6
Atoms. Timestep: 734
N 39 92 0 
N 56 76 0 
N 98 75 0 
N 25 81 0 
N 19 78 0 
O 22 22 0 
6
Atoms. Timestep: 735
N 39 91 0 
N 57 76 0 
N 99 75 0 
N 26 81 0 
N 20 78 0 
O 23 22 0 
6
Atoms. Timestep: 736
N 39 92 0 
N 58 76 0 
N 0 75 0 
N 26 82 0 
N 21 78 0 
O 24 22 0 
6
Atoms. Timestep: 737
N 40 92 0 
N 59 76 0 
N 1 75 0 
N 27 82 0 
N 22 78 0 
O 25 22 0 
6
Atoms. Timestep: 738
N 39 92 0 
N 60 76 0 
N 2 75 0 
N 28 82 0 
N 23 78 0 
O 26 22 0 
6
Atoms. Timestep: 739
N 39 91 0 
N 61 76 0 
N 3 75 0 
N 29 82 0 
N 24 78 0 
O 27 22 0 
6
Atoms. Timestep: 740
N 39 90 0 
N 62 76 0 
N 4 75 0 
N 30 82 0 
N 25 78 0 
O 28 22 0 
6
Atoms. Timestep: 741
N 38 90 0 
N 63 76 0 
N 5 75 0 
N 31 82 0 
N 26 78 0 
O 29 22 0 
6
Atoms. Timestep: 742
N 38 91 0 
N 64 76 0 
N 6 75 0 
N 32 82 0 
N 27 78 0 
O 30 22 0 
6
Atoms. Timestep: 743
N 39 91 0 
N 65 76 0 
N 7 75 0 
N 33 82 0 
N 28 78 0 
O 31 22 0 
6
Atoms. Timestep: 744
N 39 90 0 
N 66 76 0 
N 8 75 0 
N 34 82 0 
N 29 78 0 
O 32 22 0 
6
Atoms. Timestep: 745
N 39 89 0 
N 67 76 0 
N 9 75 0 
N 35 82 0 
N 30 78 0 
O 33 22 0 
6
Atoms. Timestep: 746
N 40 89 0 
N 68 76 0 
N 10 75 0 
N 36 82 0 
N 31 78 0 
O 34 22 0 
6
Atoms. Timestep: 747
N 40 88 0 
N 69 76 0 
N 10 74 0 
N 37 82 0 
N 32 78 0 
O 35 22 0 
6
Atoms. Timestep: 748
N 39 88 0 
N 70 76 0 
N 11 74 0 
N 38 82 0 
N 33 78 0 
O 36 22 0 
6
Atoms. Timestep: 749
N 39 87 0 
N 71 76 0 
N 12 74 0 
N 39 82 0 
N 34 78 0 
O 37 22 0 
6
Atoms. Timestep: 750
N 38 87 0 
N 72 76 0 
N 13 74 0 
N 40 82 0 
N 35 78 0 
O 38 22 0 
6
Atoms. Timestep: 751
N 38 88 0 
N 73 76 0 
N 14 74 0 
N 41 82 0 
N 36 78 0 
O 39 22 0 
6
Atoms. Timestep: 752
N 38 87 0 
N 74 76 0 
N 15 74 0 
N 42 82 0 
N 37 78 0 
O 40 22 0 
6
Atoms. Timestep: 753
N 38 88 0 
N 75 76 0 
N 14 74 0 
N 43 82 0 
N 38 78 0 
O 41 22 0 
6
Atoms. Timestep: 754
N 37 88 0 
N 76 76 0 
N 15 74 0 
N 44 82 0 
N 39 78 0 
O 42 22 0 
6
Atoms. Timestep: 755
N 37 87 0 
N 76 75 0 
N 16 74 0 
N 45 82 0 
N 40 78 0 
O 43 22 0 
6
Atoms. Timestep: 756
N 36 87 0 
N 77 75 0 
N 17 74 0 
N 46 82 0 
N 41 78 0 
O 44 22 0 
6
Atoms. Timestep: 757
N 35 87 0 
N 78 75 0 
N 18 74 0 
N 47 82 0 
N 42 78 0 
O 45 22 0 
6
Atoms. Timestep: 758
N 34 87 0 
N 79 75 0 
N 19 74 0 
N 48 82 0 
N 43 78 0 
O 46 22 0 
6
Atoms. Timestep: 759
N 34 86 0 
N 80 75 0 
N 20 74 0 
N 49 82 0 
N 44 78 0 
O 47 22 0 
6
Atoms. Timestep: 760
N 34 87 0 
N 81 75 0 
N 21 74 0 
N 50 82 0 
N 43 78 0 
O 48 22 0 
6
Atoms. Timestep: 761
N 34 86 0 
N 81 74 0 
N 22 74 0 
N 51 82 0 
N 44 78 0 
O 49 22 0 
6
Atoms. Timestep: 762
N 33 86 0 
N 82 74 0 
N 23 74 0 
N 52 82 0 
N 45 78 0 
O 50 22 0 
6
Atoms. Timestep: 763
N 33 87 0 
N 82 73 0 
N 24 74 0 
N 53 82 0 
N 46 78 0 
O 51 22 0 
6
Atoms. Timestep: 764
N 34 87 0 
N 83 73 0 
N 25 74 0 
N 54 82 0 
N 47 78 0 
O 52 22 0 
6
Atoms. Timestep: 765
N 35 87 0 
N 84 73 0 
N 26 74 0 
N 55 82 0 
N 48 78 0 
O 53 22 0 
6
Atoms. Timestep: 766
N 36 87 0 
N 85 73 0 
N 27 74 0 
N 56 82 0 
N 49 78 0 
O 54 22 0 
6
Atoms. Timestep: 767
N 37 87 0 
N 86 73 0 
N 28 74 0 
N 57 82 0 
N 50 78 0 
O 55 22 0 
6
Atoms. Timestep: 768
N 38 87 0 
N 87 73 0 
N 29 74 0 
N 58 82 0 
N 51 78 0 
O 56 22 0 
6
Atoms. Timestep: 769
N 37 87 0 
N 88 73 0 
N 30 74 0 
N 59 82 0 
N 52 78 0 
O 57 22 0 
6
Atoms. Timestep: 770
N 38 87 0 
N 87 73 0 
N 31 74 0 
N 60 82 0 
N 53 78 0 
O 58 22 0 
6
Atoms. Timestep: 771
N 38 86 0 
N 88 73 0 
N 32 74 0 
N 61 82 0 
N 54 78 0 
O 59 22 0 
6
Atoms. Timestep: 772
N 37 86 0 
N 89 73 0 
N 33 74 0 
N 62 82 0 
N 55 78 0 
O 60 22 0 
6
Atoms. Timestep: 773
N 38 86 0 
N 90 73 0 
N 34 74 0 
N 63 82 0 
N 56 78 0 
O 61 22 0 
6
Atoms. Timestep: 774
N 38 87 0 
N 91 73 0 
N 35 74 0 
N 64 82 0 
N 57 78 0 
O 62 22 0 
6
Atoms. Timestep: 775
N 38 88 0 
N 92 73 0 
N 36 74 0 
N 65 82 0 
N 58 78 0 
O 63 22 0 
6
Atoms. Timestep: 776
N 38 87 0 
N 93 73 0 
N 37 74 0 
N 66 82 0 
N 59 78 0 
O 64 22 0 
6
Atoms. Timestep: 777
N 38 86 0 
N 94 73 0 
N 38 74 0 
N 67 82 0 
N 60 78 0 
O 65 22 0 
6
Atoms. Timestep: 778
N 39 86 0 
N 95 73 0 
N 39 74 0 
N 68 82 0 
N 61 78 0 
O 66 22 0 
6
Atoms. Timestep: 779
N 39 87 0 
N 95 72 0 
N 40 74 0 
N 69 82 0 
N 62 78 0 
O 67 22 0 
6
Atoms. Timestep: 780
N 39 86 0 
N 96 72 0 
N 41 74 0 
N 70 82 0 
N 63 78 0 
O 68 22 0 
6
Atoms. Timestep: 781
N 39 85 0 
N 97 72 0 
N 42 74 0 
N 71 82 0 
N 64 78 0 
O 69 22 0 
6
Atoms. Timestep: 782
N 40 85 0 
N 98 72 0 
N 43 74 0 
N 72 82 0 
N 65 78 0 
O 68 22 0 
6
Atoms. Timestep: 783
N 40 86 0 
N 99 72 0 
N 44 74 0 
N 73 82 0 
N 66 78 0 
O 67 22 0 
6
Atoms. Timestep: 784
N 41 86 0 
N 99 73 0 
N 43 74 0 
N 74 82 0 
N 65 78 0 
O 68 22 0 
6
Atoms. Timestep: 785
N 41 87 0 
N 0 73 0 
N 44 74 0 
N 75 82 0 
N 66 78 0 
O 69 22 0 
6
Atoms. Timestep: 786
N 41 86 0 
N 1 73 0 
N 45 74 0 
N 76 82 0 
N 67 78 0 
O 70 22 0 
6
Atoms. Timestep: 787
N 42 86 0 
N 2 73 0 
N 46 74 0 
N 77 82 0 
N 68 78 0 
O 71 22 0 
6
Atoms. Timestep: 788
N 42 87 0 
N 3 73 0 
N 47 74 0 
N 78 82 0 
N 69 78 0 
O 72 22 0 
6
Atoms. Timestep: 789
N 41 87 0 
N 4 73 0 
N 48 74 0 
N 79 82 0 
N 70 78 0 
O 73 22 0 
6
Atoms. Timestep: 790
N 41 86 0 
N 5 73 0 
N 49 74 0 
N 79 83 0 
N 71 78 0 
O 74 22 0 
6
Atoms. Timestep: 791
N 42 86 0 
N 6 73 0 
N 50 74 0 
N 80 83 0 
N 72 78 0 
O 75 22 0 
6
Atoms. Timestep: 792
N 42 85 0 
N 7 73 0 
N 51 74 0 
N 81 83 0 
N 73 78 0 
O 76 22 0 
6
Atoms. Timestep: 793
N 43 85 0 
N 8 73 0 
N 51 73 0 
N 82 83 0 
N 74 78 0 
O 77 22 0 
6
Atoms. Timestep: 794
N 44 85 0 
N 9 73 0 
N 51 74 0 
N 83 83 0 
N 75 78 0 
O 78 22 0 
6
Atoms. Timestep: 795
N 44 86 0 
N 10 73 0 
N 52 74 0 
N 84 83 0 
N 76 78 0 
O 79 22 0 
6
Atoms. Timestep: 796
N 45 86 0 
N 11 73 0 
N 53 74 0 
N 85 83 0 
N 77 78 0 
O 80 22 0 
6
Atoms. Timestep: 797
N 45 87 0 
N 12 73 0 
N 54 74 0 
N 86 83 0 
N 78 78 0 
O 81 22 0 
6
Atoms. Timestep: 798
N 45 88 0 
N 13 73 0 
N 55 74 0 
N 87 83 0 
N 79 78 0 
O 82 22 0 
6
Atoms. Timestep: 799
N 45 89 0 
N 14 73 0 
N 56 74 0 
N 88 83 0 
N 80 78 0 
O 83 22 0 
6
Atoms. Timestep: 800
N 46 89 0 
N 15 73 0 
N 57 74 0 
N 89 83 0 
N 81 78 0 
O 84 22 0 
6
Atoms. Timestep: 801
N 46 90 0 
N 16 73 0 
N 58 74 0 
N 90 83 0 
N 82 78 0 
O 85 22 0 
6
Atoms. Timestep: 802
N 47 90 0 
N 17 73 0 
N 59 74 0 
N 91 83 0 
N 83 78 0 
O 86 22 0 
6
Atoms. Timestep: 803
N 48 90 0 
N 18 73 0 
N 60 74 0 
N 92 83 0 
N 84 78 0 
O 87 22 0 
6
Atoms. Timestep: 804
N 48 91 0 
N 19 73 0 
N 61 74 0 
N 93 83 0 
N 85 78 0 
O 88 22 0 
6
Atoms. Timestep: 805
N 48 92 0 
N 20 73 0 
N 62 74 0 
N 94 83 0 
N 86 78 0 
O 89 22 0 
6
Atoms. Timestep: 806
N 48 93 0 
N 21 73 0 
N 63 74 0 
N 95 83 0 
N 87 78 0 
O 90 22 0 
6
Atoms. Timestep: 807
N 48 92 0 
N 22 73 0 
N 64 74 0 
N 96 83 0 
N 88 78 0 
O 91 22 0 
6
Atoms. Timestep: 808
N 47 92 0 
N 23 73 0 
N 65 74 0 
N 97 83 0 
N 87 78 0 
O 92 22 0 
6
Atoms. Timestep: 809
N 47 93 0 
N 24 73 0 
N 66 74 0 
N 98 83 0 
N 88 78 0 
O 93 22 0 
6
Atoms. Timestep: 810
N 48 93 0 
N 25 73 0 
N 67 74 0 
N 98 84 0 
N 89 78 0 
O 94 22 0 
6
Atoms. Timestep: 811
N 47 93 0 
N 26 73 0 
N 68 74 0 
N 99 84 0 
N 90 78 0 
O 95 22 0 
6
Atoms. Timestep: 812
N 46 93 0 
N 27 73 0 
N 69 74 0 
N 0 84 0 
N 91 78 0 
O 96 22 0 
6
Atoms. Timestep: 813
N 46 92 0 
N 28 73 0 
N 70 74 0 
N 1 84 0 
N 90 78 0 
O 97 22 0 
6
Atoms. Timestep: 814
N 45 92 0 
N 29 73 0 
N 71 74 0 
N 2 84 0 
N 91 78 0 
O 98 22 0 
6
Atoms. Timestep: 815
N 45 93 0 
N 30 73 0 
N 72 74 0 
N 3 84 0 
N 92 78 0 
O 99 22 0 
6
Atoms. Timestep: 816
N 45 92 0 
N 31 73 0 
N 73 74 0 
N 4 84 0 
N 93 78 0 
O 0 22 0 
6
Atoms. Timestep: 817
N 44 92 0 
N 32 73 0 
N 74 74 0 
N 5 84 0 
N 94 78 0 
O 1 22 0 
6
Atoms. Timestep: 818
N 43 92 0 
N 33 73 0 
N 75 74 0 
N 6 84 0 
N 95 78 0 
O 2 22 0 
6
Atoms. Timestep: 819
N 42 92 0 
N 33 72 0 
N 76 74 0 
N 7 84 0 
N 96 78 0 
O 3 22 0 
6
Atoms. Timestep: 820
N 41 92 0 
N 33 73 0 
N 77 74 0 
N 8 84 0 
N 97 78 0 
O 4 22 0 
6
Atoms. Timestep: 821
N 42 92 0 
N 34 73 0 
N 78 74 0 
N 9 84 0 
N 98 78 0 
O 5 22 0 
6
Atoms. Timestep: 822
N 43 92 0 
N 35 73 0 
N 79 74 0 
N 10 84 0 
N 99 78 0 
O 6 22 0 
6
Atoms. Timestep: 823
N 44 92 0 
N 36 73 0 
N 80 74 0 
N 11 84 0 
N 0 78 0 
O 7 22 0 
6
Atoms. Timestep: 824
N 43 92 0 
N 37 73 0 
N 81 74 0 
N 12 84 0 
N 1 78 0 
O 8 22 0 
6
Atoms. Timestep: 825
N 43 91 0 
N 38 73 0 
N 82 74 0 
N 13 84 0 
N 2 78 0 
O 9 22 0 
6
Atoms. Timestep: 826
N 44 91 0 
N 39 73 0 
N 82 75 0 
N 14 84 0 
N 3 78 0 
O 10 22 0 
6
Atoms. Timestep: 827
N 44 92 0 
N 40 73 0 
N 83 75 0 
N 15 84 0 
N 4 78 0 
O 11 22 0 
6
Atoms. Timestep: 828
N 44 93 0 
N 41 73 0 
N 84 75 0 
N 16 84 0 
N 5 78 0 
O 12 22 0 
6
Atoms. Timestep: 829
N 45 93 0 
N 42 73 0 
N 85 75 0 
N 17 84 0 
N 6 78 0 
O 13 22 0 
6
Atoms. Timestep: 830
N 46 93 0 
N 43 73 0 
N 86 75 0 
N 18 84 0 
N 7 78 0 
O 14 22 0 
6
Atoms. Timestep: 831
N 46 94 0 
N 44 73 0 
N 87 75 0 
N 18 85 0 
N 8 78 0 
O 15 22 0 
6
Atoms. Timestep: 832
N 46 93 0 
N 45 73 0 
N 86 75 0 
N 19 85 0 
N 9 78 0 
O 16 22 0 
6
Atoms. Timestep: 833
N 46 94 0 
N 46 73 0 
N 87 75 0 
N 20 85 0 
N 10 78 0 
O 17 22 0 
6
Atoms. Timestep: 834
N 47 94 0 
N 47 73 0 
N 88 75 0 
N 21 85 0 
N 11 78 0 
O 18 22 0 
6
Atoms. Timestep: 835
N 47 93 0 
N 47 74 0 
N 89 75 0 
N 22 85 0 
N 12 78 0 
O 19 22 0 
6
Atoms. Timestep: 836
N 47 94 0 
N 48 74 0 
N 90 75 0 
N 23 85 0 
N 13 78 0 
O 20 22 0 
6
Atoms. Timestep: 837
N 48 94 0 
N 49 74 0 
N 91 75 0 
N 24 85 0 
N 14 78 0 
O 21 22 0 
6
Atoms. Timestep: 838
N 48 93 0 
N 50 74 0 
N 92 75 0 
N 25 85 0 
N 15 78 0 
O 22 22 0 
6
Atoms. Timestep: 839
N 48 94 0 
N 51 74 0 
N 93 75 0 
N 26 85 0 
N 16 78 0 
O 23 22 0 
6
Atoms. Timestep: 840
N 48 93 0 
N 52 74 0 
N 94 75 0 
N 27 85 0 
N 17 78 0 
O 24 22 0 
6
Atoms. Timestep: 841
N 47 93 0 
N 53 74 0 
N 95 75 0 
N 28 85 0 
N 18 78 0 
O 25 22 0 
6
Atoms. Timestep: 842
N 46 93 0 
N 54 74 0 
N 96 75 0 
N 29 85 0 
N 19 78 0 
O 26 22 0 
6
Atoms. Timestep: 843
N 45 93 0 
N 55 74 0 
N 97 75 0 
N 30 85 0 
N 20 78 0 
O 27 22 0 
6
Atoms. Timestep: 844
N 44 93 0 
N 56 74 0 
N 98 75 0 
N 31 85 0 
N 21 78 0 
O 28 22 0 
6
Atoms. Timestep: 845
N 43 93 0 
N 57 74 0 
N 99 75 0 
N 32 85 0 
N 21 77 0 
O 29 22 0 
6
Atoms. Timestep: 846
N 43 94 0 
N 58 74 0 
N 0 75 0 
N 33 85 0 
N 22 77 0 
O 30 22 0 
6
Atoms. Timestep: 847
N 44 94 0 
N 59 74 0 
N 1 75 0 
N 34 85 0 
N 23 77 0 
O 31 22 0 
6
Atoms. Timestep: 848
N 43 94 0 
N 60 74 0 
N 2 75 0 
N 35 85 0 
N 24 77 0 
O 32 22 0 
6
Atoms. Timestep: 849
N 43 93 0 
N 61 74 0 
N 3 75 0 
N 36 85 0 
N 25 77 0 
O 33 22 0 
6
Atoms. Timestep: 850
N 44 93 0 
N 62 74 0 
N 4 75 0 
N 37 85 0 
N 26 77 0 
O 34 22 0 
6
Atoms. Timestep: 851
N 44 92 0 
N 61 74 0 
N 5 75 0 
N 38 85 0 
N 27 77 0 
O 35 22 0 
6
Atoms. Timestep: 852
N 44 93 0 
N 62 74 0 
N 6 75 0 
N 39 85 0 
N 28 77 0 
O 36 22 0 
6
Atoms. Timestep: 853
N 44 94 0 
N 63 74 0 
N 7 75 0 
N 40 85 0 
N 29 77 0 
O 37 22 0 
6
Atoms. Timestep: 854
N 44 93 0 
N 64 74 0 
N 8 75 0 
N 41 85 0 
N 30 77 0 
O 38 22 0 
6
Atoms. Timestep: 855
N 45 93 0 
N 65 74 0 
N 9 75 0 
N 42 85 0 
N 31 77 0 
O 39 22 0 
6
Atoms. Timestep: 856
N 44 93 0 
N 66 74 0 
N 10 75 0 
N 43 85 0 
N 32 77 0 
O 40 22 0 
6
Atoms. Timestep: 857
N 44 92 0 
N 67 74 0 
N 11 75 0 
N 44 85 0 
N 33 77 0 
O 41 22 0 
6
Atoms. Timestep: 858
N 43 92 0 
N 67 75 0 
N 12 75 0 
N 45 85 0 
N 34 77 0 
O 42 22 0 
6
Atoms. Timestep: 859
N 43 91 0 
N 68 75 0 
N 13 75 0 
N 46 85 0 
N 35 77 0 
O 43 22 0 
6
Atoms. Timestep: 860
N 43 92 0 
N 69 75 0 
N 14 75 0 
N 47 85 0 
N 36 77 0 
O 44 22 0 
6
Atoms. Timestep: 861
N 43 93 0 
N 70 75 0 
N 15 75 0 
N 48 85 0 
N 37 77 0 
O 45 22 0 
6
Atoms. Timestep: 862
N 42 93 0 
N 71 75 0 
N 16 75 0 
N 49 85 0 
N 38 77 0 
O 46 22 0 
6
Atoms. Timestep: 863
N 43 93 0 
N 72 75 0 
N 17 75 0 
N 50 85 0 
N 39 77 0 
O 47 22 0 
6
Atoms. Timestep: 864
N 42 93 0 
N 73 75 0 
N 16 75 0 
N 51 85 0 
N 40 77 0 
O 48 22 0 
6
Atoms. Timestep: 865
N 42 92 0 
N 74 75 0 
N 17 75 0 
N 52 85 0 
N 41 77 0 
O 49 22 0 
6
Atoms. Timestep: 866
N 43 92 0 
N 75 75 0 
N 18 75 0 
N 53 85 0 
N 42 77 0 
O 50 22 0 
6
Atoms. Timestep: 867
N 43 91 0 
N 76 75 0 
N 19 75 0 
N 54 85 0 
N 43 77 0 
O 51 22 0 
6
Atoms. Timestep: 868
N 43 90 0 
N 77 75 0 
N 20 75 0 
N 55 85 0 
N 44 77 0 
O 52 22 0 
6
Atoms. Timestep: 869
N 44 90 0 
N 78 75 0 
N 21 75 0 
N 56 85 0 
N 45 77 0 
O 53 22 0 
6
Atoms. Timestep: 870
N 45 90 0 
N 79 75 0 
N 20 75 0 
N 57 85 0 
N 46 77 0 
O 54 22 0 
6
Atoms. Timestep: 871
N 46 90 0 
N 80 75 0 
N 21 75 0 
N 58 85 0 
N 47 77 0 
O 55 22 0 
6
Atoms. Timestep: 872
N 45 90 0 
N 81 75 0 
N 22 75 0 
N 59 85 0 
N 48 77 0 
O 56 22 0 
6
Atoms. Timestep: 873
N 44 90 0 
N 82 75 0 
N 23 75 0 
N 60 85 0 
N 49 77 0 
O 57 22 0 
6
Atoms. Timestep: 874
N 43 90 0 
N 83 75 0 
N 24 75 0 
N 61 85 0 
N 50 77 0 
O 58 22 0 
6
Atoms. Timestep: 875
N 43 91 0 
N 84 75 0 
N 25 75 0 
N 62 85 0 
N 51 77 0 
O 59 22 0 
6
Atoms. Timestep: 876
N 44 91 0 
N 85 75 0 
N 26 75 0 
N 63 85 0 
N 52 77 0 
O 60 22 0 
6
Atoms. Timestep: 877
N 44 92 0 
N 86 75 0 
N 27 75 0 
N 64 85 0 
N 53 77 0 
O 61 22 0 
6
Atoms. Timestep: 878
N 45 92 0 
N 87 75 0 
N 28 75 0 
N 65 85 0 
N 54 77 0 
O 62 22 0 
6
Atoms. Timestep: 879
N 44 92 0 
N 88 75 0 
N 29 75 0 
N 66 85 0 
N 55 77 0 
O 63 22 0 
6
Atoms. Timestep: 880
N 44 93 0 
N 89 75 0 
N 30 75 0 
N 67 85 0 
N 56 77 0 
O 64 22 0 
6
Atoms. Timestep: 881
N 44 94 0 
N 90 75 0 
N 31 75 0 
N 68 85 0 
N 57 77 0 
O 65 22 0 
6
Atoms. Timestep: 882
N 44 95 0 
N 91 75 0 
N 32 75 0 
N 69 85 0 
N 58 77 0 
O 66 22 0 
6
Atoms. Timestep: 883
N 44 94 0 
N 92 75 0 
N 33 75 0 
N 70 85 0 
N 59 77 0 
O 67 22 0 
6
Atoms. Timestep: 884
N 44 93 0 
N 93 75 0 
N 34 75 0 
N 71 85 0 
N 60 77 0 
O 68 22 0 
6
Atoms. Timestep: 885
N 44 92 0 
N 94 75 0 
N 35 75 0 
N 72 85 0 
N 61 77 0 
O 69 22 0 
6
Atoms. Timestep: 886
N 45 92 0 
N 95 75 0 
N 36 75 0 
N 73 85 0 
N 60 77 0 
O 70 22 0 
6
Atoms. Timestep: 887
N 45 91 0 
N 96 75 0 
N 37 75 0 
N 74 85 0 
N 61 77 0 
O 71 22 0 
6
Atoms. Timestep: 888
N 45 90 0 
N 97 75 0 
N 38 75 0 
N 75 85 0 
N 62 77 0 
O 72 22 0 
6
Atoms. Timestep: 889
N 46 90 0 
N 98 75 0 
N 39 75 0 
N 76 85 0 
N 63 77 0 
O 73 22 0 
6
Atoms. Timestep: 890
N 46 91 0 
N 99 75 0 
N 40 75 0 
N 77 85 0 
N 64 77 0 
O 74 22 0 
6
Atoms. Timestep: 891
N 47 91 0 
N 0 75 0 
N 41 75 0 
N 78 85 0 
N 65 77 0 
O 75 22 0 
6
Atoms. Timestep: 892
N 48 91 0 
N 1 75 0 
N 42 75 0 
N 79 85 0 
N 66 77 0 
O 76 22 0 
6
Atoms. Timestep: 893
N 48 92 0 
N 2 75 0 
N 43 75 0 
N 80 85 0 
N 67 77 0 
O 77 22 0 
6
Atoms. Timestep: 894
N 49 92 0 
N 3 75 0 
N 44 75 0 
N 81 85 0 
N 68 77 0 
O 78 22 0 
6
Atoms. Timestep: 895
N 48 92 0 
N 4 75 0 
N 45 75 0 
N 82 85 0 
N 69 77 0 
O 79 22 0 
6
Atoms. Timestep: 896
N 49 92 0 
N 5 75 0 
N 46 75 0 
N 83 85 0 
N 70 77 0 
O 80 22 0 
6
Atoms. Timestep: 897
N 50 92 0 
N 6 75 0 
N 47 75 0 
N 84 85 0 
N 71 77 0 
O 81 22 0 
6
Atoms. Timestep: 898
N 49 92 0 
N 7 75 0 
N 48 75 0 
N 85 85 0 
N 72 77 0 
O 82 22 0 
6
Atoms. Timestep: 899
N 48 92 0 
N 8 75 0 
N 49 75 0 
N 86 85 0 
N 73 77 0 
O 83 22 0 
6
Atoms. Timestep: 900
N 48 93 0 
N 9 75 0 
N 50 75 0 
N 87 85 0 
N 74 77 0 
O 84 22 0 
6
Atoms. Timestep: 901
N 49 93 0 
N 10 75 0 
N 51 75 0 
N 88 85 0 
N 75 77 0 
O 85 22 0 
6
Atoms. Timestep: 902
N 49 94 0 
N 11 75 0 
N 52 75 0 
N 89 85 0 
N 76 77 0 
O 86 22 0 
6
Atoms. Timestep: 903
N 49 95 0 
N 12 75 0 
N 53 75 0 
N 90 85 0 
N 77 77 0 
O 87 22 0 
6
Atoms. Timestep: 904
N 49 94 0 
N 13 75 0 
N 54 75 0 
N 91 85 0 
N 78 77 0 
O 88 22 0 
6
Atoms. Timestep: 905
N 50 94 0 
N 14 75 0 
N 55 75 0 
N 92 85 0 
N 79 77 0 
O 89 22 0 
6
Atoms. Timestep: 906
N 51 94 0 
N 15 75 0 
N 56 75 0 
N 93 85 0 
N 80 77 0 
O 90 22 0 
6
Atoms. Timestep: 907
N 50 94 0 
N 16 75 0 
N 57 75 0 
N 94 85 0 
N 81 77 0 
O 91 22 0 
6
Atoms. Timestep: 908
N 51 94 0 
N 17 75 0 
N 58 75 0 
N 95 85 0 
N 82 77 0 
O 92 22 0 
6
Atoms. Timestep: 909
N 51 95 0 
N 18 75 0 
N 59 75 0 
N 96 85 0 
N 83 77 0 
O 93 22 0 
6
Atoms. Timestep: 910
N 51 96 0 
N 19 75 0 
N 60 75 0 
N 97 85 0 
N 84 77 0 
O 94 22 0 
6
Atoms. Timestep: 911
N 50 96 0 
N 20 75 0 
N 61 75 0 
N 98 85 0 
N 85 77 0 
O 95 22 0 
6
Atoms. Timestep: 912
N 51 96 0 
N 21 75 0 
N 62 75 0 
N 99 85 0 
N 86 77 0 
O 96 22 0 
6
Atoms. Timestep: 913
N 52 96 0 
N 22 75 0 
N 63 75 0 
N 0 85 0 
N 87 77 0 
O 97 22 0 
6
Atoms. Timestep: 914
N 51 96 0 
N 23 75 0 
N 64 75 0 
N 1 85 0 
N 88 77 0 
O 98 22 0 
6
Atoms. Timestep: 915
N 51 97 0 
N 24 75 0 
N 65 75 0 
N 2 85 0 
N 89 77 0 
O 99 22 0 
6
Atoms. Timestep: 916
N 51 98 0 
N 25 75 0 
N 66 75 0 
N 3 85 0 
N 90 77 0 
O 0 22 0 
6
Atoms. Timestep: 917
N 51 97 0 
N 26 75 0 
N 67 75 0 
N 4 85 0 
N 89 77 0 
O 1 22 0 
6
Atoms. Timestep: 918
N 52 97 0 
N 27 75 0 
N 68 75 0 
N 5 85 0 
N 89 76 0 
O 2 22 0 
6
Atoms. Timestep: 919
N 53 97 0 
N 28 75 0 
N 69 75 0 
N 6 85 0 
N 90 76 0 
O 3 22 0 
6
Atoms. Timestep: 920
N 52 97 0 
N 29 75 0 
N 70 75 0 
N 7 85 0 
N 91 76 0 
O 4 22 0 
6
Atoms. Timestep: 921
N 53 97 0 
N 30 75 0 
N 71 75 0 
N 8 85 0 
N 92 76 0 
O 5 22 0 
6
Atoms. Timestep: 922
N 54 97 0 
N 31 75 0 
N 72 75 0 
N 9 85 0 
N 93 76 0 
O 6 22 0 
6
Atoms. Timestep: 923
N 55 97 0 
N 32 75 0 
N 73 75 0 
N 10 85 0 
N 94 76 0 
O 7 22 0 
6
Atoms. Timestep: 924
N 55 96 0 
N 33 75 0 
N 74 75 0 
N 11 85 0 
N 95 76 0 
O 8 22 0 
6
Atoms. Timestep: 925
N 56 96 0 
N 34 75 0 
N 75 75 0 
N 12 85 0 
N 96 76 0 
O 9 22 0 
6
Atoms. Timestep: 926
N 55 96 0 
N 35 75 0 
N 76 75 0 
N 13 85 0 
N 95 76 0 
O 10 22 0 
6
Atoms. Timestep: 927
N 56 96 0 
N 36 75 0 
N 77 75 0 
N 14 85 0 
N 96 76 0 
O 11 22 0 
6
Atoms. Timestep: 928
N 56 95 0 
N 37 75 0 
N 78 75 0 
N 15 85 0 
N 97 76 0 
O 12 22 0 
6
Atoms. Timestep: 929
N 56 96 0 
N 38 75 0 
N 79 75 0 
N 16 85 0 
N 98 76 0 
O 13 22 0 
6
Atoms. Timestep: 930
N 57 96 0 
N 39 75 0 
N 80 75 0 
N 17 85 0 
N 99 76 0 
O 14 22 0 
6
Atoms. Timestep: 931
N 57 95 0 
N 40 75 0 
N 81 75 0 
N 18 85 0 
N 0 76 0 
O 15 22 0 
6
Atoms. Timestep: 932
N 58 95 0 
N 41 75 0 
N 82 75 0 
N 19 85 0 
N 1 76 0 
O 16 22 0 
6
Atoms. Timestep: 933
N 58 94 0 
N 42 75 0 
N 83 75 0 
N 20 85 0 
N 2 76 0 
O 17 22 0 
6
Atoms. Timestep: 934
N 58 95 0 
N 43 75 0 
N 84 75 0 
N 21 85 0 
N 3 76 0 
O 18 22 0 
6
Atoms. Timestep: 935
N 58 94 0 
N 44 75 0 
N 85 75 0 
N 22 85 0 
N 4 76 0 
O 19 22 0 
6
Atoms. Timestep: 936
N 58 95 0 
N 45 75 0 
N 86 75 0 
N 23 85 0 
N 5 76 0 
O 20 22 0 
6
Atoms. Timestep: 937
N 58 94 0 
N 46 75 0 
N 87 75 0 
N 24 85 0 
N 6 76 0 
O 21 22 0 
6
Atoms. Timestep: 938
N 59 94 0 
N 47 75 0 
N 88 75 0 
N 25 85 0 
N 7 76 0 
O 22 22 0 
6
Atoms. Timestep: 939
N 58 94 0 
N 48 75 0 
N 89 75 0 
N 26 85 0 
N 8 76 0 
O 23 22 0 
6
Atoms. Timestep: 940
N 58 95 0 
N 49 75 0 
N 90 75 0 
N 27 85 0 
N 9 76 0 
O 24 22 0 
6
Atoms. Timestep: 941
N 57 95 0 
N 50 75 0 
N 91 75 0 
N 28 85 0 
N 10 76 0 
O 25 22 0 
6
Atoms. Timestep: 942
N 57 94 0 
N 51 75 0 
N 92 75 0 
N 29 85 0 
N 11 76 0 
O 26 22 0 
6
Atoms. Timestep: 943
N 58 94 0 
N 52 75 0 
N 93 75 0 
N 30 85 0 
N 12 76 0 
O 27 22 0 
6
Atoms. Timestep: 944
N 58 93 0 
N 53 75 0 
N 94 75 0 
N 31 85 0 
N 13 76 0 
O 28 22 0 
6
Atoms. Timestep: 945
N 57 93 0 
N 54 75 0 
N 95 75 0 
N 32 85 0 
N 14 76 0 
O 29 22 0 
6
Atoms. Timestep: 946
N 56 93 0 
N 55 75 0 
N 96 75 0 
N 33 85 0 
N 15 76 0 
O 30 22 0 
6
Atoms. Timestep: 947
N 56 94 0 
N 56 75 0 
N 97 75 0 
N 34 85 0 
N 16 76 0 
O 31 22 0 
6
Atoms. Timestep: 948
N 57 94 0 
N 57 75 0 
N 98 75 0 
N 35 85 0 
N 17 76 0 
O 32 22 0 
6
Atoms. Timestep: 949
N 58 94 0 
N 58 75 0 
N 99 75 0 
N 36 85 0 
N 18 76 0 
O 33 22 0 
6
Atoms. Timestep: 950
N 58 95 0 
N 59 75 0 
N 0 75 0 
N 37 85 0 
N 19 76 0 
O 34 22 0 
6
Atoms. Timestep: 951
N 58 94 0 
N 60 75 0 
N 1 75 0 
N 38 85 0 
N 20 76 0 
O 35 22 0 
6
Atoms. Timestep: 952
N 57 94 0 
N 59 75 0 
N 2 75 0 
N 39 85 0 
N 21 76 0 
O 36 22 0 
6
Atoms. Timestep: 953
N 57 93 0 
N 60 75 0 
N 3 75 0 
N 40 85 0 
N 22 76 0 
O 37 22 0 
6
Atoms. Timestep: 954
N 56 93 0 
N 61 75 0 
N 4 75 0 
N 41 85 0 
N 23 76 0 
O 38 22 0 
6
Atoms. Timestep: 955
N 55 93 0 
N 62 75 0 
N 5 75 0 
N 42 85 0 
N 22 76 0 
O 39 22 0 
6
Atoms. Timestep: 956
N 54 93 0 
N 63 75 0 
N 6 75 0 
N 43 85 0 
N 23 76 0 
O 40 22 0 
6
Atoms. Timestep: 957
N 53 93 0 
N 64 75 0 
N 7 75 0 
N 44 85 0 
N 24 76 0 
O 41 22 0 
6
Atoms. Timestep: 958
N 54 93 0 
N 65 75 0 
N 8 75 0 
N 45 85 0 
N 25 76 0 
O 42 22 0 
6
Atoms. Timestep: 959
N 54 92 0 
N 66 75 0 
N 9 75 0 
N 46 85 0 
N 26 76 0 
O 43 22 0 
6
Atoms. Timestep: 960
N 55 92 0 
N 67 75 0 
N 10 75 0 
N 47 85 0 
N 27 76 0 
O 44 22 0 
6
Atoms. Timestep: 961
N 55 93 0 
N 68 75 0 
N 11 75 0 
N 48 85 0 
N 28 76 0 
O 45 22 0 
6
Atoms. Timestep: 962
N 55 94 0 
N 69 75 0 
N 12 75 0 
N 49 85 0 
N 29 76 0 
O 46 22 0 
6
Atoms. Timestep: 963
N 56 94 0 
N 70 75 0 
N 13 75 0 
N 50 85 0 
N 30 76 0 
O 47 22 0 
6
Atoms. Timestep: 964
N 56 93 0 
N 71 75 0 
N 14 75 0 
N 51 85 0 
N 31 76 0 
O 48 22 0 
6
Atoms. Timestep: 965
N 55 93 0 
N 72 75 0 
N 15 75 0 
N 52 85 0 
N 32 76 0 
O 49 22 0 
6
Atoms. Timestep: 966
N 55 94 0 
N 73 75 0 
N 16 75 0 
N 53 85 0 
N 33 76 0 
O 50 22 0 
6
Atoms. Timestep: 967
N 55 95 0 
N 74 75 0 
N 17 75 0 
N 53 86 0 
N 34 76 0 
O 51 22 0 
6
Atoms. Timestep: 968
N 55 96 0 
N 75 75 0 
N 18 75 0 
N 54 86 0 
N 35 76 0 
O 52 22 0 
6
Atoms. Timestep: 969
N 55 95 0 
N 76 75 0 
N 19 75 0 
N 55 86 0 
N 36 76 0 
O 53 22 0 
6
Atoms. Timestep: 970
N 56 95 0 
N 77 75 0 
N 20 75 0 
N 56 86 0 
N 37 76 0 
O 54 22 0 
6
Atoms. Timestep: 971
N 57 95 0 
N 78 75 0 
N 21 75 0 
N 57 86 0 
N 38 76 0 
O 55 22 0 
6
Atoms. Timestep: 972
N 57 94 0 
N 79 75 0 
N 22 75 0 
N 58 86 0 
N 39 76 0 
O 56 22 0 
6
Atoms. Timestep: 973
N 57 93 0 
N 80 75 0 
N 23 75 0 
N 59 86 0 
N 40 76 0 
O 57 22 0 
6
Atoms. Timestep: 974
N 58 93 0 
N 81 75 0 
N 24 75 0 
N 60 86 0 
N 41 76 0 
O 58 22 0 
6
Atoms. Timestep: 975
N 59 93 0 
N 82 75 0 
N 25 75 0 
N 61 86 0 
N 42 76 0 
O 59 22 0 
6
Atoms. Timestep: 976
N 60 93 0 
N 83 75 0 
N 26 75 0 
N 62 86 0 
N 43 76 0 
O 60 22 0 
6
Atoms. Timestep: 977
N 60 92 0 
N 84 75 0 
N 27 75 0 
N 63 86 0 
N 43 77 0 
O 61 22 0 
6
Atoms. Timestep: 978
N 61 92 0 
N 85 75 0 
N 28 75 0 
N 64 86 0 
N 43 76 0 
O 62 22 0 
6
Atoms. Timestep: 979
N 61 93 0 
N 86 75 0 
N 29 75 0 
N 65 86 0 
N 44 76 0 
O 63 22 0 
6
Atoms. Timestep: 980
N 61 94 0 
N 87 75 0 
N 30 75 0 
N 66 86 0 
N 45 76 0 
O 64 22 0 
6
Atoms. Timestep: 981
N 61 93 0 
N 88 75 0 
N 31 75 0 
N 67 86 0 
N 46 76 0 
O 65 22 0 
6
Atoms. Timestep: 982
N 62 93 0 
N 89 75 0 
N 32 75 0 
N 68 86 0 
N 47 76 0 
O 66 22 0 
6
Atoms. Timestep: 983
N 62 94 0 
N 90 75 0 
N 33 75 0 
N 69 86 0 
N 48 76 0 
O 67 22 0 
6
Atoms. Timestep: 984
N 62 93 0 
N 89 75 0 
N 34 75 0 
N 70 86 0 
N 47 76 0 
O 68 22 0 
6
Atoms. Timestep: 985
N 62 92 0 
N 90 75 0 
N 35 75 0 
N 71 86 0 
N 48 76 0 
O 69 22 0 
6
Atoms. Timestep: 986
N 63 92 0 
N 91 75 0 
N 36 75 0 
N 72 86 0 
N 49 76 0 
O 70 22 0 
6
Atoms. Timestep: 987
N 63 91 0 
N 92 75 0 
N 37 75 0 
N 73 86 0 
N 50 76 0 
O 71 22 0 
6
Atoms. Timestep: 988
N 63 90 0 
N 91 75 0 
N 38 75 0 
N 74 86 0 
N 51 76 0 
O 72 22 0 
6
Atoms. Timestep: 989
N 62 90 0 
N 92 75 0 
N 39 75 0 
N 75 86 0 
N 52 76 0 
O 73 22 0 
6
Atoms. Timestep: 990
N 63 90 0 
N 93 75 0 
N 40 75 0 
N 76 86 0 
N 53 76 0 
O 74 22 0 
6
Atoms. Timestep: 991
N 62 90 0 
N 94 75 0 
N 41 75 0 
N 77 86 0 
N 54 76 0 
O 75 22 0 
6
Atoms. Timestep: 992
N 61 90 0 
N 95 75 0 
N 42 75 0 
N 78 86 0 
N 55 76 0 
O 76 22 0 
6
Atoms. Timestep: 993
N 62 90 0 
N 96 75 0 
N 43 75 0 
N 79 86 0 
N 56 76 0 
O 77 22 0 
6
Atoms. Timestep: 994
N 62 91 0 
N 97 75 0 
N 44 75 0 
N 80 86 0 
N 57 76 0 
O 78 22 0 
6
Atoms. Timestep: 995
N 62 92 0 
N 98 75 0 
N 45 75 0 
N 81 86 0 
N 58 76 0 
O 79 22 0 
6
Atoms. Timestep: 996
N 62 93 0 
N 99 75 0 
N 46 75 0 
N 82 86 0 
N 59 76 0 
O 80 22 0 
6
Atoms. Timestep: 997
N 63 93 0 
N 0 75 0 
N 47 75 0 
N 83 86 0 
N 60 76 0 
O 81 22 0 
6
Atoms. Timestep: 998
N 64 93 0 
N 1 75 0 
N 48 75 0 
N 84 86 0 
N 61 76 0 
O 82 22 0 
6
Atoms. Timestep: 999
N 63 93 0 
N 2 75 0 
N 49 75 0 
N 85 86 0 
N 62 76 0 
O 83 22 0 
6
Atoms. Timestep: 1000
N 63 94 0 
N 3 75 0 
N 50 75 0 
N 86 86 0 
N 63 76 0 
O 84 22 0 
6
Atoms. Timestep: 1001
N 62 94 0 
N 4 75 0 
N 51 75 0 
N 87 86 0 
N 62 76 0 
O 85 22 0 
6
Atoms. Timestep: 1002
N 61 94 0 
N 5 75 0 
N 52 75 0 
N 88 86 0 
N 63 76 0 
O 86 22 0 
6
Atoms. Timestep: 1003
N 61 93 0 
N 6 75 0 
N 53 75 0 
N 89 86 0 
N 64 76 0 
O 87 22 0 
6
Atoms. Timestep: 1004
N 61 92 0 
N 7 75 0 
N 54 75 0 
N 90 86 0 
N 65 76 0 
O 88 22 0 
6
Atoms. Timestep: 1005
N 62 92 0 
N 8 75 0 
N 55 75 0 
N 91 86 0 
N 66 76 0 
O 89 22 0 
6
Atoms. Timestep: 1006
N 62 91 0 
N 9 75 0 
N 56 75 0 
N 92 86 0 
N 67 76 0 
O 90 22 0 
6
Atoms. Timestep: 1007
N 61 91 0 
N 10 75 0 
N 57 75 0 
N 93 86 0 
N 68 76 0 
O 91 22 0 
6
Atoms. Timestep: 1008
N 61 92 0 
N 11 75 0 
N 58 75 0 
N 94 86 0 
N 69 76 0 
O 92 22 0 
6
Atoms. Timestep: 1009
N 61 91 0 
N 12 75 0 
N 59 75 0 
N 95 86 0 
N 70 76 0 
O 93 22 0 
6
Atoms. Timestep: 1010
N 62 91 0 
N 13 75 0 
N 60 75 0 
N 96 86 0 
N 71 76 0 
O 94 22 0 
6
Atoms. Timestep: 1011
N 62 90 0 
N 14 75 0 
N 61 75 0 
N 97 86 0 
N 72 76 0 
O 95 22 0 
6
Atoms. Timestep: 1012
N 62 91 0 
N 13 75 0 
N 62 75 0 
N 98 86 0 
N 73 76 0 
O 96 22 0 
6
Atoms. Timestep: 1013
N 63 91 0 
N 14 75 0 
N 63 75 0 
N 99 86 0 
N 74 76 0 
O 97 22 0 
6
Atoms. Timestep: 1014
N 63 90 0 
N 15 75 0 
N 63 76 0 
N 0 86 0 
N 75 76 0 
O 98 22 0 
6
Atoms. Timestep: 1015
N 63 91 0 
N 16 75 0 
N 64 76 0 
N 1 86 0 
N 76 76 0 
O 99 22 0 
6
Atoms. Timestep: 1016
N 63 90 0 
N 17 75 0 
N 65 76 0 
N 2 86 0 
N 77 76 0 
O 0 22 0 
6
Atoms. Timestep: 1017
N 63 91 0 
N 18 75 0 
N 66 76 0 
N 3 86 0 
N 78 76 0 
O 1 22 0 
6
Atoms. Timestep: 1018
N 63 90 0 
N 19 75 0 
N 67 76 0 
N 4 86 0 
N 79 76 0 
O 2 22 0 
6
Atoms. Timestep: 1019
N 63 91 0 
N 20 75 0 
N 68 76 0 
N 5 86 0 
N 80 76 0 
O 3 22 0 
6
Atoms. Timestep: 1020
N 62 91 0 
N 21 75 0 
N 69 76 0 
N 6 86 0 
N 81 76 0 
O 4 22 0 
6
Atoms. Timestep: 1021
N 61 91 0 
N 22 75 0 
N 70 76 0 
N 7 86 0 
N 82 76 0 
O 5 22 0 
6
Atoms. Timestep: 1022
N 61 92 0 
N 23 75 0 
N 71 76 0 
N 8 86 0 
N 83 76 0 
O 6 22 0 
6
Atoms. Timestep: 1023
N 60 92 0 
N 24 75 0 
N 72 76 0 
N 9 86 0 
N 84 76 0 
O 7 22 0 
6
Atoms. Timestep: 1024
N 59 92 0 
N 25 75 0 
N 73 76 0 
N 10 86 0 
N 85 76 0 
O 8 22 0 
6
Atoms. Timestep: 1025
N 59 93 0 
N 26 75 0 
N 74 76 0 
N 11 86 0 
N 86 76 0 
O 9 22 0 
6
Atoms. Timestep: 1026
N 60 93 0 
N 27 75 0 
N 75 76 0 
N 12 86 0 
N 86 75 0 
O 10 22 0 
6
Atoms. Timestep: 1027
N 61 93 0 
N 28 75 0 
N 76 76 0 
N 13 86 0 
N 87 75 0 
O 11 22 0 
6
Atoms. Timestep: 1028
N 61 94 0 
N 29 75 0 
N 77 76 0 
N 14 86 0 
N 88 75 0 
O 12 22 0 
6
Atoms. Timestep: 1029
N 61 93 0 
N 30 75 0 
N 78 76 0 
N 15 86 0 
N 89 75 0 
O 13 22 0 
6
Atoms. Timestep: 1030
N 61 94 0 
N 31 75 0 
N 79 76 0 
N 16 86 0 
N 90 75 0 
O 14 22 0 
6
Atoms. Timestep: 1031
N 60 94 0 
N 32 75 0 
N 80 76 0 
N 17 86 0 
N 91 75 0 
O 15 22 0 
6
Atoms. Timestep: 1032
N 60 95 0 
N 33 75 0 
N 80 77 0 
N 18 86 0 
N 92 75 0 
O 16 22 0 
6
Atoms. Timestep: 1033
N 60 94 0 
N 34 75 0 
N 81 77 0 
N 19 86 0 
N 93 75 0 
O 17 22 0 
6
Atoms. Timestep: 1034
N 59 94 0 
N 35 75 0 
N 82 77 0 
N 19 85 0 
N 94 75 0 
O 18 22 0 
6
Atoms. Timestep: 1035
N 60 94 0 
N 36 75 0 
N 83 77 0 
N 20 85 0 
N 95 75 0 
O 19 22 0 
6
Atoms. Timestep: 1036
N 60 95 0 
N 37 75 0 
N 84 77 0 
N 21 85 0 
N 96 75 0 
O 20 22 0 
6
Atoms. Timestep: 1037
N 59 95 0 
N 38 75 0 
N 85 77 0 
N 22 85 0 
N 97 75 0 
O 21 22 0 
6
Atoms. Timestep: 1038
N 59 94 0 
N 39 75 0 
N 86 77 0 
N 23 85 0 
N 96 75 0 
O 22 22 0 
6
Atoms. Timestep: 1039
N 59 95 0 
N 40 75 0 
N 87 77 0 
N 24 85 0 
N 97 75 0 
O 23 22 0 
6
Atoms. Timestep: 1040
N 60 95 0 
N 41 75 0 
N 88 77 0 
N 25 85 0 
N 98 75 0 
O 24 22 0 
6
Atoms. Timestep: 1041
N 61 95 0 
N 42 75 0 
N 89 77 0 
N 26 85 0 
N 99 75 0 
O 25 22 0 
6
Atoms. Timestep: 1042
N 62 95 0 
N 43 75 0 
N 90 77 0 
N 27 85 0 
N 0 75 0 
O 26 22 0 
6
Atoms. Timestep: 1043
N 61 95 0 
N 44 75 0 
N 91 77 0 
N 28 85 0 
N 1 75 0 
O 27 22 0 
6
Atoms. Timestep: 1044
N 61 94 0 
N 45 75 0 
N 92 77 0 
N 29 85 0 
N 2 75 0 
O 28 22 0 
6
Atoms. Timestep: 1045
N 62 94 0 
N 46 75 0 
N 93 77 0 
N 30 85 0 
N 3 75 0 
O 29 22 0 
6
Atoms. Timestep: 1046
N 61 94 0 
N 47 75 0 
N 94 77 0 
N 31 85 0 
N 4 75 0 
O 30 22 0 
6
Atoms. Timestep: 1047
N 61 95 0 
N 48 75 0 
N 95 77 0 
N 32 85 0 
N 3 75 0 
O 31 22 0 
6
Atoms. Timestep: 1048
N 61 94 0 
N 48 76 0 
N 96 77 0 
N 33 85 0 
N 4 75 0 
O 32 22 0 
6
Atoms. Timestep: 1049
N 62 94 0 
N 49 76 0 
N 97 77 0 
N 34 85 0 
N 5 75 0 
O 33 22 0 
6
Atoms. Timestep: 1050
N 61 94 0 
N 50 76 0 
N 98 77 0 
N 35 85 0 
N 6 75 0 
O 34 22 0 
6
Atoms. Timestep: 1051
N 61 93 0 
N 51 76 0 
N 99 77 0 
N 34 85 0 
N 7 75 0 
O 35 22 0 
6
Atoms. Timestep: 1052
N 62 93 0 
N 52 76 0 
N 0 77 0 
N 35 85 0 
N 8 75 0 
O 36 22 0 
6
Atoms. Timestep: 1053
N 61 93 0 
N 53 76 0 
N 1 77 0 
N 36 85 0 
N 9 75 0 
O 37 22 0 
6
Atoms. Timestep: 1054
N 61 92 0 
N 54 76 0 
N 2 77 0 
N 37 85 0 
N 10 75 0 
O 38 22 0 
6
Atoms. Timestep: 1055
N 61 93 0 
N 55 76 0 
N 3 77 0 
N 38 85 0 
N 11 75 0 
O 39 22 0 
6
Atoms. Timestep: 1056
N 61 94 0 
N 56 76 0 
N 4 77 0 
N 39 85 0 
N 12 75 0 
O 40 22 0 
6
Atoms. Timestep: 1057
N 62 94 0 
N 55 76 0 
N 5 77 0 
N 40 85 0 
N 13 75 0 
O 41 22 0 
6
Atoms. Timestep: 1058
N 61 94 0 
N 56 76 0 
N 6 77 0 
N 41 85 0 
N 14 75 0 
O 42 22 0 
6
Atoms. Timestep: 1059
N 61 95 0 
N 55 76 0 
N 7 77 0 
N 42 85 0 
N 15 75 0 
O 43 22 0 
6
Atoms. Timestep: 1060
N 62 95 0 
N 56 76 0 
N 8 77 0 
N 43 85 0 
N 16 75 0 
O 44 22 0 
6
Atoms. Timestep: 1061
N 61 95 0 
N 57 76 0 
N 9 77 0 
N 44 85 0 
N 17 75 0 
O 45 22 0 
6
Atoms. Timestep: 1062
N 60 95 0 
N 58 76 0 
N 10 77 0 
N 45 85 0 
N 18 75 0 
O 46 22 0 
6
Atoms. Timestep: 1063
N 59 95 0 
N 59 76 0 
N 11 77 0 
N 46 85 0 
N 19 75 0 
O 47 22 0 
6
Atoms. Timestep: 1064
N 59 96 0 
N 60 76 0 
N 12 77 0 
N 47 85 0 
N 20 75 0 
O 48 22 0 
6
Atoms. Timestep: 1065
N 60 96 0 
N 61 76 0 
N 13 77 0 
N 48 85 0 
N 21 75 0 
O 49 22 0 
6
Atoms. Timestep: 1066
N 60 97 0 
N 62 76 0 
N 14 77 0 
N 49 85 0 
N 22 75 0 
O 50 22 0 
6
Atoms. Timestep: 1067
N 60 96 0 
N 63 76 0 
N 15 77 0 
N 50 85 0 
N 23 75 0 
O 51 22 0 
6
Atoms. Timestep: 1068
N 61 96 0 
N 64 76 0 
N 16 77 0 
N 51 85 0 
N 24 75 0 
O 52 22 0 
6
Atoms. Timestep: 1069
N 60 96 0 
N 65 76 0 
N 17 77 0 
N 52 85 0 
N 25 75 0 
O 53 22 0 
6
Atoms. Timestep: 1070
N 60 95 0 
N 66 76 0 
N 16 77 0 
N 53 85 0 
N 26 75 0 
O 54 22 0 
6
Atoms. Timestep: 1071
N 59 95 0 
N 67 76 0 
N 17 77 0 
N 54 85 0 
N 27 75 0 
O 55 22 0 
6
Atoms. Timestep: 1072
N 58 95 0 
N 68 76 0 
N 18 77 0 
N 55 85 0 
N 28 75 0 
O 56 22 0 
6
Atoms. Timestep: 1073
N 58 96 0 
N 69 76 0 
N 19 77 0 
N 56 85 0 
N 29 75 0 
O 57 22 0 
6
Atoms. Timestep: 1074
N 59 96 0 
N 70 76 0 
N 20 77 0 
N 57 85 0 
N 30 75 0 
O 58 22 0 
6
Atoms. Timestep: 1075
N 59 97 0 
N 71 76 0 
N 21 77 0 
N 58 85 0 
N 31 75 0 
O 59 22 0 
6
Atoms. Timestep: 1076
N 59 96 0 
N 72 76 0 
N 22 77 0 
N 59 85 0 
N 32 75 0 
O 60 22 0 
6
Atoms. Timestep: 1077
N 59 97 0 
N 73 76 0 
N 23 77 0 
N 60 85 0 
N 33 75 0 
O 61 22 0 
6
Atoms. Timestep: 1078
N 58 97 0 
N 74 76 0 
N 24 77 0 
N 59 85 0 
N 34 75 0 
O 62 22 0 
6
Atoms. Timestep: 1079
N 58 96 0 
N 75 76 0 
N 25 77 0 
N 60 85 0 
N 35 75 0 
O 63 22 0 
6
Atoms. Timestep: 1080
N 58 97 0 
N 76 76 0 
N 26 77 0 
N 61 85 0 
N 36 75 0 
O 64 22 0 
6
Atoms. Timestep: 1081
N 57 97 0 
N 77 76 0 
N 27 77 0 
N 62 85 0 
N 37 75 0 
O 65 22 0 
6
Atoms. Timestep: 1082
N 58 97 0 
N 78 76 0 
N 28 77 0 
N 63 85 0 
N 38 75 0 
O 66 22 0 
6
Atoms. Timestep: 1083
N 58 96 0 
N 79 76 0 
N 29 77 0 
N 64 85 0 
N 39 75 0 
O 67 22 0 
6
Atoms. Timestep: 1084
N 58 95 0 
N 80 76 0 
N 30 77 0 
N 64 84 0 
N 40 75 0 
O 68 22 0 
6
Atoms. Timestep: 1085
N 59 95 0 
N 81 76 0 
N 31 77 0 
N 65 84 0 
N 41 75 0 
O 69 22 0 
6
Atoms. Timestep: 1086
N 60 95 0 
N 82 76 0 
N 32 77 0 
N 66 84 0 
N 42 75 0 
O 70 22 0 
6
Atoms. Timestep: 1087
N 61 95 0 
N 83 76 0 
N 33 77 0 
N 67 84 0 
N 43 75 0 
O 71 22 0 
6
Atoms. Timestep: 1088
N 62 95 0 
N 84 76 0 
N 33 78 0 
N 68 84 0 
N 44 75 0 
O 72 22 0 
6
Atoms. Timestep: 1089
N 63 95 0 
N 85 76 0 
N 34 78 0 
N 69 84 0 
N 45 75 0 
O 73 22 0 
6
Atoms. Timestep: 1090
N 64 95 0 
N 86 76 0 
N 35 78 0 
N 70 84 0 
N 46 75 0 
O 74 22 0 
6
Atoms. Timestep: 1091
N 63 95 0 
N 87 76 0 
N 36 78 0 
N 71 84 0 
N 47 75 0 
O 75 22 0 
6
Atoms. Timestep: 1092
N 62 95 0 
N 88 76 0 
N 37 78 0 
N 72 84 0 
N 48 75 0 
O 76 22 0 
6
Atoms. Timestep: 1093
N 61 95 0 
N 89 76 0 
N 38 78 0 
N 73 84 0 
N 49 75 0 
O 77 22 0 
6
Atoms. Timestep: 1094
N 60 95 0 
N 90 76 0 
N 39 78 0 
N 74 84 0 
N 50 75 0 
O 78 22 0 
6
Atoms. Timestep: 1095
N 61 95 0 
N 91 76 0 
N 40 78 0 
N 75 84 0 
N 51 75 0 
O 79 22 0 
6
Atoms. Timestep: 1096
N 62 95 0 
N 92 76 0 
N 41 78 0 
N 76 84 0 
N 52 75 0 
O 80 22 0 
6
Atoms. Timestep: 1097
N 61 95 0 
N 93 76 0 
N 42 78 0 
N 77 84 0 
N 53 75 0 
O 81 22 0 
6
Atoms. Timestep: 1098
N 61 96 0 
N 94 76 0 
N 43 78 0 
N 78 84 0 
N 54 75 0 
O 82 22 0 
6
Atoms. Timestep: 1099
N 61 97 0 
N 95 76 0 
N 44 78 0 
N 79 84 0 
N 55 75 0 
O 83 22 0 
6
Atoms. Timestep: 1100
N 62 97 0 
N 96 76 0 
N 45 78 0 
N 80 84 0 
N 56 75 0 
O 84 22 0 
6
Atoms. Timestep: 1101
N 62 98 0 
N 97 76 0 
N 45 79 0 
N 81 84 0 
N 57 75 0 
O 85 22 0 
6
Atoms. Timestep: 1102
N 62 99 0 
N 98 76 0 
N 46 79 0 
N 82 84 0 
N 58 75 0 
O 86 22 0 
6
Atoms. Timestep: 1103
N 61 99 0 
N 99 76 0 
N 47 79 0 
N 83 84 0 
N 59 75 0 
O 87 22 0 
6
Atoms. Timestep: 1104
N 61 0 0 
N 0 76 0 
N 48 79 0 
N 84 84 0 
N 60 75 0 
O 88 22 0 
6
Atoms. Timestep: 1105
N 61 99 0 
N 1 76 0 
N 48 78 0 
N 85 84 0 
N 61 75 0 
O 89 22 0 
6
Atoms. Timestep: 1106
N 60 99 0 
N 2 76 0 
N 49 78 0 
N 86 84 0 
N 62 75 0 
O 90 22 0 
6
Atoms. Timestep: 1107
N 60 0 0 
N 3 76 0 
N 50 78 0 
N 87 84 0 
N 63 75 0 
O 91 22 0 
6
Atoms. Timestep: 1108
N 61 0 0 
N 4 76 0 
N 51 78 0 
N 88 84 0 
N 64 75 0 
O 92 22 0 
6
Atoms. Timestep: 1109
N 61 99 0 
N 5 76 0 
N 52 78 0 
N 89 84 0 
N 65 75 0 
O 93 22 0 
6
Atoms. Timestep: 1110
N 61 0 0 
N 6 76 0 
N 53 78 0 
N 90 84 0 
N 66 75 0 
O 94 22 0 
6
Atoms. Timestep: 1111
N 62 0 0 
N 7 76 0 
N 54 78 0 
N 91 84 0 
N 65 75 0 
O 95 22 0 
6
Atoms. Timestep: 1112
N 61 0 0 
N 8 76 0 
N 55 78 0 
N 92 84 0 
N 66 75 0 
O 96 22 0 
6
Atoms. Timestep: 1113
N 61 1 0 
N 9 76 0 
N 54 78 0 
N 93 84 0 
N 67 75 0 
O 97 22 0 
6
Atoms. Timestep: 1114
N 60 1 0 
N 10 76 0 
N 55 78 0 
N 94 84 0 
N 68 75 0 
O 98 22 0 
6
Atoms. Timestep: 1115
N 60 0 0 
N 11 76 0 
N 56 78 0 
N 95 84 0 
N 69 75 0 
O 99 22 0 
6
Atoms. Timestep: 1116
N 60 1 0 
N 12 76 0 
N 57 78 0 
N 96 84 0 
N 69 76 0 
O 0 22 0 
6
Atoms. Timestep: 1117
N 60 2 0 
N 13 76 0 
N 58 78 0 
N 97 84 0 
N 70 76 0 
O 1 22 0 
6
Atoms. Timestep: 1118
N 59 2 0 
N 14 76 0 
N 59 78 0 
N 98 84 0 
N 71 76 0 
O 2 22 0 
6
Atoms. Timestep: 1119
N 59 3 0 
N 15 76 0 
N 58 78 0 
N 99 84 0 
N 72 76 0 
O 3 22 0 
6
Atoms. Timestep: 1120
N 60 3 0 
N 16 76 0 
N 58 77 0 
N 0 84 0 
N 73 76 0 
O 4 22 0 
6
Atoms. Timestep: 1121
N 59 3 0 
N 17 76 0 
N 58 76 0 
N 1 84 0 
N 74 76 0 
O 4 21 0 
6
Atoms. Timestep: 1122
N 58 3 0 
N 18 76 0 
N 58 75 0 
N 2 84 0 
N 74 77 0 
O 5 21 0 
6
Atoms. Timestep: 1123
N 58 4 0 
N 18 75 0 
N 58 74 0 
N 3 84 0 
N 75 77 0 
O 6 21 0 
6
Atoms. Timestep: 1124
N 58 3 0 
N 19 75 0 
N 58 73 0 
N 4 84 0 
N 76 77 0 
O 7 21 0 
6
Atoms. Timestep: 1125
N 58 4 0 
N 20 75 0 
N 58 72 0 
N 4 85 0 
N 77 77 0 
O 8 21 0 
6
Atoms. Timestep: 1126
N 57 4 0 
N 21 75 0 
N 58 71 0 
N 5 85 0 
N 78 77 0 
O 9 21 0 
6
Atoms. Timestep: 1127
N 58 4 0 
N 22 75 0 
N 59 71 0 
N 6 85 0 
N 79 77 0 
O 10 21 0 
6
Atoms. Timestep: 1128
N 57 4 0 
N 23 75 0 
N 59 72 0 
N 7 85 0 
N 80 77 0 
O 11 21 0 
6
Atoms. Timestep: 1129
N 57 5 0 
N 24 75 0 
N 60 72 0 
N 8 85 0 
N 81 77 0 
O 12 21 0 
6
Atoms. Timestep: 1130
N 58 5 0 
N 25 75 0 
N 61 72 0 
N 9 85 0 
N 82 77 0 
O 13 21 0 
6
Atoms. Timestep: 1131
N 58 6 0 
N 26 75 0 
N 62 72 0 
N 10 85 0 
N 83 77 0 
O 14 21 0 
6
Atoms. Timestep: 1132
N 58 5 0 
N 27 75 0 
N 63 72 0 
N 11 85 0 
N 84 77 0 
O 15 21 0 
6
Atoms. Timestep: 1133
N 58 6 0 
N 28 75 0 
N 64 72 0 
N 12 85 0 
N 85 77 0 
O 16 21 0 
6
Atoms. Timestep: 1134
N 59 6 0 
N 29 75 0 
N 63 72 0 
N 13 85 0 
N 86 77 0 
O 17 21 0 
6
Atoms. Timestep: 1135
N 58 6 0 
N 30 75 0 
N 64 72 0 
N 14 85 0 
N 87 77 0 
O 18 21 0 
6
Atoms. Timestep: 1136
N 57 6 0 
N 31 75 0 
N 65 72 0 
N 15 85 0 
N 88 77 0 
O 19 21 0 
6
Atoms. Timestep: 1137
N 58 6 0 
N 32 75 0 
N 66 72 0 
N 16 85 0 
N 89 77 0 
O 20 21 0 
6
Atoms. Timestep: 1138
N 57 6 0 
N 33 75 0 
N 67 72 0 
N 17 85 0 
N 90 77 0 
O 21 21 0 
6
Atoms. Timestep: 1139
N 57 5 0 
N 34 75 0 
N 68 72 0 
N 18 85 0 
N 91 77 0 
O 22 21 0 
6
Atoms. Timestep: 1140
N 58 5 0 
N 35 75 0 
N 69 72 0 
N 19 85 0 
N 92 77 0 
O 23 21 0 
6
Atoms. Timestep: 1141
N 58 6 0 
N 36 75 0 
N 70 72 0 
N 20 85 0 
N 93 77 0 
O 24 21 0 
6
Atoms. Timestep: 1142
N 58 7 0 
N 37 75 0 
N 71 72 0 
N 21 85 0 
N 94 77 0 
O 25 21 0 
6
Atoms. Timestep: 1143
N 59 7 0 
N 38 75 0 
N 72 72 0 
N 22 85 0 
N 95 77 0 
O 26 21 0 
6
Atoms. Timestep: 1144
N 60 7 0 
N 39 75 0 
N 73 72 0 
N 23 85 0 
N 96 77 0 
O 27 21 0 
6
Atoms. Timestep: 1145
N 59 7 0 
N 40 75 0 
N 74 72 0 
N 24 85 0 
N 97 77 0 
O 28 21 0 
6
Atoms. Timestep: 1146
N 59 8 0 
N 41 75 0 
N 75 72 0 
N 25 85 0 
N 97 76 0 
O 29 21 0 
6
Atoms. Timestep: 1147
N 59 9 0 
N 42 75 0 
N 76 72 0 
N 26 85 0 
N 98 76 0 
O 30 21 0 
6
Atoms. Timestep: 1148
N 59 10 0 
N 43 75 0 
N 77 72 0 
N 27 85 0 
N 99 76 0 
O 31 21 0 
6
Atoms. Timestep: 1149
N 59 11 0 
N 44 75 0 
N 78 72 0 
N 28 85 0 
N 0 76 0 
O 32 21 0 
6
Atoms. Timestep: 1150
N 60 11 0 
N 45 75 0 
N 79 72 0 
N 29 85 0 
N 1 76 0 
O 33 21 0 
6
Atoms. Timestep: 1151
N 61 11 0 
N 46 75 0 
N 80 72 0 
N 30 85 0 
N 2 76 0 
O 34 21 0 
6
Atoms. Timestep: 1152
N 61 10 0 
N 47 75 0 
N 81 72 0 
N 31 85 0 
N 3 76 0 
O 35 21 0 
6
Atoms. Timestep: 1153
N 61 9 0 
N 48 75 0 
N 82 72 0 
N 32 85 0 
N 4 76 0 
O 36 21 0 
6
Atoms. Timestep: 1154
N 60 9 0 
N 49 75 0 
N 83 72 0 
N 33 85 0 
N 5 76 0 
O 37 21 0 
6
Atoms. Timestep: 1155
N 59 9 0 
N 50 75 0 
N 84 72 0 
N 34 85 0 
N 6 76 0 
O 38 21 0 
6
Atoms. Timestep: 1156
N 60 9 0 
N 51 75 0 
N 85 72 0 
N 34 86 0 
N 6 75 0 
O 39 21 0 
6
Atoms. Timestep: 1157
N 60 8 0 
N 52 75 0 
N 86 72 0 
N 35 86 0 
N 7 75 0 
O 40 21 0 
6
Atoms. Timestep: 1158
N 59 8 0 
N 53 75 0 
N 87 72 0 
N 36 86 0 
N 8 75 0 
O 41 21 0 
6
Atoms. Timestep: 1159
N 59 9 0 
N 53 74 0 
N 87 71 0 
N 37 86 0 
N 9 75 0 
O 42 21 0 
6
Atoms. Timestep: 1160
N 60 9 0 
N 54 74 0 
N 88 71 0 
N 38 86 0 
N 10 75 0 
O 41 21 0 
6
Atoms. Timestep: 1161
N 59 9 0 
N 55 74 0 
N 88 72 0 
N 39 86 0 
N 11 75 0 
O 42 21 0 
6
Atoms. Timestep: 1162
N 60 9 0 
N 56 74 0 
N 89 72 0 
N 40 86 0 
N 12 75 0 
O 43 21 0 
6
Atoms. Timestep: 1163
N 60 8 0 
N 57 74 0 
N 90 72 0 
N 41 86 0 
N 13 75 0 
O 44 21 0 
6
Atoms. Timestep: 1164
N 60 9 0 
N 56 74 0 
N 91 72 0 
N 42 86 0 
N 14 75 0 
O 45 21 0 
6
Atoms. Timestep: 1165
N 60 10 0 
N 57 74 0 
N 92 72 0 
N 43 86 0 
N 15 75 0 
O 46 21 0 
6
Atoms. Timestep: 1166
N 60 9 0 
N 58 74 0 
N 93 72 0 
N 44 86 0 
N 16 75 0 
O 47 21 0 
6
Atoms. Timestep: 1167
N 60 8 0 
N 59 74 0 
N 94 72 0 
N 45 86 0 
N 17 75 0 
O 48 21 0 
6
Atoms. Timestep: 1168
N 60 9 0 
N 60 74 0 
N 95 72 0 
N 46 86 0 
N 18 75 0 
O 49 21 0 
6
Atoms. Timestep: 1169
N 61 9 0 
N 61 74 0 
N 96 72 0 
N 47 86 0 
N 19 75 0 
O 50 21 0 
6
Atoms. Timestep: 1170
N 61 10 0 
N 62 74 0 
N 97 72 0 
N 48 86 0 
N 20 75 0 
O 51 21 0 
6
Atoms. Timestep: 1171
N 61 9 0 
N 63 74 0 
N 96 72 0 
N 49 86 0 
N 21 75 0 
O 52 21 0 
6
Atoms. Timestep: 1172
N 62 9 0 
N 64 74 0 
N 97 72 0 
N 50 86 0 
N 22 75 0 
O 53 21 0 
6
Atoms. Timestep: 1173
N 62 8 0 
N 65 74 0 
N 98 72 0 
N 51 86 0 
N 23 75 0 
O 54 21 0 
6
Atoms. Timestep: 1174
N 61 8 0 
N 66 74 0 
N 99 72 0 
N 52 86 0 
N 24 75 0 
O 55 21 0 
6
Atoms. Timestep: 1175
N 60 8 0 
N 67 74 0 
N 0 72 0 
N 53 86 0 
N 25 75 0 
O 56 21 0 
6
Atoms. Timestep: 1176
N 61 8 0 
N 68 74 0 
N 1 72 0 
N 54 86 0 
N 26 75 0 
O 57 21 0 
6
Atoms. Timestep: 1177
N 62 8 0 
N 69 74 0 
N 2 72 0 
N 55 86 0 
N 27 75 0 
O 58 21 0 
6
Atoms. Timestep: 1178
N 63 8 0 
N 70 74 0 
N 3 72 0 
N 56 86 0 
N 28 75 0 
O 59 21 0 
6
Atoms. Timestep: 1179
N 62 8 0 
N 71 74 0 
N 4 72 0 
N 57 86 0 
N 29 75 0 
O 60 21 0 
6
Atoms. Timestep: 1180
N 62 9 0 
N 72 74 0 
N 5 72 0 
N 58 86 0 
N 30 75 0 
O 61 21 0 
6
Atoms. Timestep: 1181
N 63 9 0 
N 73 74 0 
N 6 72 0 
N 59 86 0 
N 31 75 0 
O 62 21 0 
6
Atoms. Timestep: 1182
N 62 9 0 
N 74 74 0 
N 7 72 0 
N 60 86 0 
N 32 75 0 
O 63 21 0 
6
Atoms. Timestep: 1183
N 62 8 0 
N 75 74 0 
N 8 72 0 
N 61 86 0 
N 33 75 0 
O 64 21 0 
6
Atoms. Timestep: 1184
N 62 7 0 
N 76 74 0 
N 9 72 0 
N 62 86 0 
N 34 75 0 
O 65 21 0 
6
Atoms. Timestep: 1185
N 63 7 0 
N 77 74 0 
N 10 72 0 
N 63 86 0 
N 35 75 0 
O 66 21 0 
6
Atoms. Timestep: 1186
N 63 8 0 
N 78 74 0 
N 11 72 0 
N 64 86 0 
N 36 75 0 
O 67 21 0 
6
Atoms. Timestep: 1187
N 62 8 0 
N 79 74 0 
N 12 72 0 
N 65 86 0 
N 37 75 0 
O 68 21 0 
6
Atoms. Timestep: 1188
N 62 7 0 
N 80 74 0 
N 13 72 0 
N 66 86 0 
N 38 75 0 
O 69 21 0 
6
Atoms. Timestep: 1189
N 62 6 0 
N 81 74 0 
N 14 72 0 
N 67 86 0 
N 39 75 0 
O 70 21 0 
6
Atoms. Timestep: 1190
N 63 6 0 
N 82 74 0 
N 15 72 0 
N 68 86 0 
N 40 75 0 
O 71 21 0 
6
Atoms. Timestep: 1191
N 64 6 0 
N 83 74 0 
N 16 72 0 
N 69 86 0 
N 41 75 0 
O 72 21 0 
6
Atoms. Timestep: 1192
N 63 6 0 
N 84 74 0 
N 17 72 0 
N 69 85 0 
N 42 75 0 
O 73 21 0 
6
Atoms. Timestep: 1193
N 62 6 0 
N 85 74 0 
N 18 72 0 
N 70 85 0 
N 43 75 0 
O 74 21 0 
6
Atoms. Timestep: 1194
N 61 6 0 
N 86 74 0 
N 19 72 0 
N 71 85 0 
N 44 75 0 
O 75 21 0 
6
Atoms. Timestep: 1195
N 60 6 0 
N 87 74 0 
N 20 72 0 
N 72 85 0 
N 45 75 0 
O 76 21 0 
6
Atoms. Timestep: 1196
N 60 5 0 
N 88 74 0 
N 21 72 0 
N 73 85 0 
N 46 75 0 
O 77 21 0 
6
Atoms. Timestep: 1197
N 60 4 0 
N 89 74 0 
N 22 72 0 
N 74 85 0 
N 47 75 0 
O 78 21 0 
6
Atoms. Timestep: 1198
N 59 4 0 
N 90 74 0 
N 23 72 0 
N 75 85 0 
N 48 75 0 
O 79 21 0 
6
Atoms. Timestep: 1199
N 59 5 0 
N 91 74 0 
N 24 72 0 
N 76 85 0 
N 49 75 0 
O 80 21 0 
6
Atoms. Timestep: 1200
N 59 6 0 
N 92 74 0 
N 25 72 0 
N 77 85 0 
N 50 75 0 
O 81 21 0 
6
Atoms. Timestep: 1201
N 59 7 0 
N 93 74 0 
N 26 72 0 
N 78 85 0 
N 51 75 0 
O 82 21 0 
6
Atoms. Timestep: 1202
N 60 7 0 
N 94 74 0 
N 27 72 0 
N 79 85 0 
N 51 76 0 
O 83 21 0 
6
Atoms. Timestep: 1203
N 60 6 0 
N 95 74 0 
N 28 72 0 
N 80 85 0 
N 52 76 0 
O 84 21 0 
6
Atoms. Timestep: 1204
N 61 6 0 
N 96 74 0 
N 29 72 0 
N 81 85 0 
N 53 76 0 
O 85 21 0 
6
Atoms. Timestep: 1205
N 61 7 0 
N 97 74 0 
N 30 72 0 
N 82 85 0 
N 54 76 0 
O 86 21 0 
6
Atoms. Timestep: 1206
N 62 7 0 
N 98 74 0 
N 31 72 0 
N 83 85 0 
N 55 76 0 
O 87 21 0 
6
Atoms. Timestep: 1207
N 62 6 0 
N 99 74 0 
N 32 72 0 
N 84 85 0 
N 56 76 0 
O 88 21 0 
6
Atoms. Timestep: 1208
N 62 5 0 
N 0 74 0 
N 33 72 0 
N 85 85 0 
N 55 76 0 
O 89 21 0 
6
Atoms. Timestep: 1209
N 61 5 0 
N 1 74 0 
N 34 72 0 
N 86 85 0 
N 56 76 0 
O 90 21 0 
6
Atoms. Timestep: 1210
N 61 6 0 
N 2 74 0 
N 35 72 0 
N 87 85 0 
N 57 76 0 
O 91 21 0 
6
Atoms. Timestep: 1211
N 61 5 0 
N 3 74 0 
N 36 72 0 
N 88 85 0 
N 58 76 0 
O 92 21 0 
6
Atoms. Timestep: 1212
N 61 6 0 
N 4 74 0 
N 37 72 0 
N 89 85 0 
N 59 76 0 
O 93 21 0 
6
Atoms. Timestep: 1213
N 60 6 0 
N 5 74 0 
N 38 72 0 
N 90 85 0 
N 60 76 0 
O 94 21 0 
6
Atoms. Timestep: 1214
N 60 5 0 
N 6 74 0 
N 39 72 0 
N 91 85 0 
N 61 76 0 
O 95 21 0 
6
Atoms. Timestep: 1215
N 60 4 0 
N 7 74 0 
N 40 72 0 
N 92 85 0 
N 62 76 0 
O 96 21 0 
6
Atoms. Timestep: 1216
N 60 5 0 
N 8 74 0 
N 41 72 0 
N 93 85 0 
N 63 76 0 
O 97 21 0 
6
Atoms. Timestep: 1217
N 60 4 0 
N 9 74 0 
N 42 72 0 
N 94 85 0 
N 63 77 0 
O 98 21 0 
6
Atoms. Timestep: 1218
N 59 4 0 
N 10 74 0 
N 43 72 0 
N 95 85 0 
N 64 77 0 
O 99 21 0 
6
Atoms. Timestep: 1219
N 59 5 0 
N 11 74 0 
N 44 72 0 
N 94 85 0 
N 65 77 0 
O 0 21 0 
6
Atoms. Timestep: 1220
N 59 6 0 
N 12 74 0 
N 45 72 0 
N 95 85 0 
N 66 77 0 
O 1 21 0 
6
Atoms. Timestep: 1221
N 58 6 0 
N 13 74 0 
N 45 73 0 
N 94 85 0 
N 67 77 0 
O 2 21 0 
6
Atoms. Timestep: 1222
N 57 6 0 
N 14 74 0 
N 46 73 0 
N 95 85 0 
N 68 77 0 
O 3 21 0 
6
Atoms. Timestep: 1223
N 57 7 0 
N 15 74 0 
N 47 73 0 
N 96 85 0 
N 69 77 0 
O 4 21 0 
6
Atoms. Timestep: 1224
N 58 7 0 
N 16 74 0 
N 48 73 0 
N 97 85 0 
N 70 77 0 
O 5 21 0 
6
Atoms. Timestep: 1225
N 57 7 0 
N 17 74 0 
N 49 73 0 
N 97 86 0 
N 71 77 0 
O 6 21 0 
6
Atoms. Timestep: 1226
N 58 7 0 
N 18 74 0 
N 50 73 0 
N 98 86 0 
N 72 77 0 
O 7 21 0 
6
Atoms. Timestep: 1227
N 58 6 0 
N 19 74 0 
N 51 73 0 
N 99 86 0 
N 73 77 0 
O 8 21 0 
6
Atoms. Timestep: 1228
N 57 6 0 
N 20 74 0 
N 52 73 0 
N 0 86 0 
N 74 77 0 
O 9 21 0 
6
Atoms. Timestep: 1229
N 57 7 0 
N 21 74 0 
N 53 73 0 
N 1 86 0 
N 75 77 0 
O 10 21 0 
6
Atoms. Timestep: 1230
N 57 8 0 
N 22 74 0 
N 54 73 0 
N 2 86 0 
N 76 77 0 
O 11 21 0 
6
Atoms. Timestep: 1231
N 57 9 0 
N 23 74 0 
N 55 73 0 
N 3 86 0 
N 77 77 0 
O 12 21 0 
6
Atoms. Timestep: 1232
N 56 9 0 
N 24 74 0 
N 56 73 0 
N 4 86 0 
N 78 77 0 
O 13 21 0 
6
Atoms. Timestep: 1233
N 56 8 0 
N 25 74 0 
N 57 73 0 
N 5 86 0 
N 79 77 0 
O 14 21 0 
6
Atoms. Timestep: 1234
N 57 8 0 
N 26 74 0 
N 58 73 0 
N 6 86 0 
N 80 77 0 
O 15 21 0 
6
Atoms. Timestep: 1235
N 57 9 0 
N 27 74 0 
N 59 73 0 
N 7 86 0 
N 81 77 0 
O 16 21 0 
6
Atoms. Timestep: 1236
N 57 10 0 
N 28 74 0 
N 60 73 0 
N 8 86 0 
N 82 77 0 
O 17 21 0 
6
Atoms. Timestep: 1237
N 57 9 0 
N 29 74 0 
N 61 73 0 
N 9 86 0 
N 83 77 0 
O 18 21 0 
6
Atoms. Timestep: 1238
N 57 10 0 
N 30 74 0 
N 62 73 0 
N 10 86 0 
N 84 77 0 
O 19 21 0 
6
Atoms. Timestep: 1239
N 58 10 0 
N 31 74 0 
N 63 73 0 
N 11 86 0 
N 85 77 0 
O 20 21 0 
6
Atoms. Timestep: 1240
N 59 10 0 
N 32 74 0 
N 64 73 0 
N 12 86 0 
N 86 77 0 
O 21 21 0 
6
Atoms. Timestep: 1241
N 60 10 0 
N 33 74 0 
N 65 73 0 
N 13 86 0 
N 87 77 0 
O 22 21 0 
6
Atoms. Timestep: 1242
N 60 9 0 
N 34 74 0 
N 66 73 0 
N 14 86 0 
N 88 77 0 
O 23 21 0 
6
Atoms. Timestep: 1243
N 60 8 0 
N 35 74 0 
N 67 73 0 
N 15 86 0 
N 89 77 0 
O 24 21 0 
6
Atoms. Timestep: 1244
N 59 8 0 
N 36 74 0 
N 68 73 0 
N 16 86 0 
N 90 77 0 
O 25 21 0 
6
Atoms. Timestep: 1245
N 59 9 0 
N 37 74 0 
N 69 73 0 
N 17 86 0 
N 91 77 0 
O 26 21 0 
6
Atoms. Timestep: 1246
N 59 10 0 
N 38 74 0 
N 70 73 0 
N 18 86 0 
N 92 77 0 
O 27 21 0 
6
Atoms. Timestep: 1247
N 58 10 0 
N 39 74 0 
N 71 73 0 
N 19 86 0 
N 93 77 0 
O 28 21 0 
6
Atoms. Timestep: 1248
N 59 10 0 
N 40 74 0 
N 72 73 0 
N 20 86 0 
N 94 77 0 
O 29 21 0 
6
Atoms. Timestep: 1249
N 59 9 0 
N 41 74 0 
N 73 73 0 
N 21 86 0 
N 95 77 0 
O 30 21 0 
6
Atoms. Timestep: 1250
N 59 10 0 
N 42 74 0 
N 74 73 0 
N 22 86 0 
N 96 77 0 
O 31 21 0 
6
Atoms. Timestep: 1251
N 58 10 0 
N 41 74 0 
N 75 73 0 
N 23 86 0 
N 97 77 0 
O 32 21 0 
6
Atoms. Timestep: 1252
N 58 11 0 
N 42 74 0 
N 76 73 0 
N 24 86 0 
N 98 77 0 
O 33 21 0 
6
Atoms. Timestep: 1253
N 59 11 0 
N 43 74 0 
N 77 73 0 
N 25 86 0 
N 99 77 0 
O 34 21 0 
6
Atoms. Timestep: 1254
N 60 11 0 
N 44 74 0 
N 78 73 0 
N 26 86 0 
N 0 77 0 
O 35 21 0 
6
Atoms. Timestep: 1255
N 60 12 0 
N 45 74 0 
N 79 73 0 
N 27 86 0 
N 0 78 0 
O 36 21 0 
6
Atoms. Timestep: 1256
N 61 12 0 
N 46 74 0 
N 79 72 0 
N 28 86 0 
N 1 78 0 
O 37 21 0 
6
Atoms. Timestep: 1257
N 60 12 0 
N 47 74 0 
N 80 72 0 
N 29 86 0 
N 2 78 0 
O 38 21 0 
6
Atoms. Timestep: 1258
N 61 12 0 
N 48 74 0 
N 81 72 0 
N 30 86 0 
N 3 78 0 
O 39 21 0 
6
Atoms. Timestep: 1259
N 60 12 0 
N 49 74 0 
N 82 72 0 
N 31 86 0 
N 4 78 0 
O 40 21 0 
6
Atoms. Timestep: 1260
N 60 13 0 
N 50 74 0 
N 83 72 0 
N 32 86 0 
N 5 78 0 
O 41 21 0 
6
Atoms. Timestep: 1261
N 60 12 0 
N 51 74 0 
N 84 72 0 
N 33 86 0 
N 6 78 0 
O 42 21 0 
6
Atoms. Timestep: 1262
N 59 12 0 
N 52 74 0 
N 85 72 0 
N 34 86 0 
N 7 78 0 
O 43 21 0 
6
Atoms. Timestep: 1263
N 59 11 0 
N 53 74 0 
N 86 72 0 
N 35 86 0 
N 8 78 0 
O 44 21 0 
6
Atoms. Timestep: 1264
N 59 10 0 
N 54 74 0 
N 85 72 0 
N 36 86 0 
N 9 78 0 
O 45 21 0 
6
Atoms. Timestep: 1265
N 59 11 0 
N 55 74 0 
N 86 72 0 
N 37 86 0 
N 10 78 0 
O 46 21 0 
6
Atoms. Timestep: 1266
N 59 10 0 
N 56 74 0 
N 87 72 0 
N 38 86 0 
N 11 78 0 
O 47 21 0 
6
Atoms. Timestep: 1267
N 59 11 0 
N 57 74 0 
N 88 72 0 
N 39 86 0 
N 12 78 0 
O 48 21 0 
6
Atoms. Timestep: 1268
N 60 11 0 
N 58 74 0 
N 89 72 0 
N 40 86 0 
N 13 78 0 
O 49 21 0 
6
Atoms. Timestep: 1269
N 59 11 0 
N 59 74 0 
N 90 72 0 
N 41 86 0 
N 14 78 0 
O 50 21 0 
6
Atoms. Timestep: 1270
N 58 11 0 
N 60 74 0 
N 91 72 0 
N 42 86 0 
N 15 78 0 
O 51 21 0 
6
Atoms. Timestep: 1271
N 59 11 0 
N 61 74 0 
N 92 72 0 
N 43 86 0 
N 16 78 0 
O 52 21 0 
6
Atoms. Timestep: 1272
N 60 11 0 
N 62 74 0 
N 93 72 0 
N 44 86 0 
N 17 78 0 
O 53 21 0 
6
Atoms. Timestep: 1273
N 61 11 0 
N 63 74 0 
N 94 72 0 
N 45 86 0 
N 18 78 0 
O 54 21 0 
6
Atoms. Timestep: 1274
N 61 12 0 
N 64 74 0 
N 95 72 0 
N 44 86 0 
N 19 78 0 
O 55 21 0 
6
Atoms. Timestep: 1275
N 61 13 0 
N 65 74 0 
N 96 72 0 
N 45 86 0 
N 20 78 0 
O 56 21 0 
6
Atoms. Timestep: 1276
N 61 14 0 
N 66 74 0 
N 97 72 0 
N 46 86 0 
N 21 78 0 
O 57 21 0 
6
Atoms. Timestep: 1277
N 61 13 0 
N 67 74 0 
N 98 72 0 
N 47 86 0 
N 22 78 0 
O 58 21 0 
6
Atoms. Timestep: 1278
N 62 13 0 
N 68 74 0 
N 99 72 0 
N 48 86 0 
N 23 78 0 
O 59 21 0 
6
Atoms. Timestep: 1279
N 62 14 0 
N 69 74 0 
N 0 72 0 
N 49 86 0 
N 24 78 0 
O 60 21 0 
6
Atoms. Timestep: 1280
N 61 14 0 
N 70 74 0 
N 1 72 0 
N 50 86 0 
N 25 78 0 
O 61 21 0 
6
Atoms. Timestep: 1281
N 62 14 0 
N 71 74 0 
N 2 72 0 
N 51 86 0 
N 26 78 0 
O 62 21 0 
6
Atoms. Timestep: 1282
N 63 14 0 
N 72 74 0 
N 3 72 0 
N 52 86 0 
N 27 78 0 
O 63 21 0 
6
Atoms. Timestep: 1283
N 64 14 0 
N 73 74 0 
N 4 72 0 
N 53 86 0 
N 28 78 0 
O 64 21 0 
6
Atoms. Timestep: 1284
N 64 13 0 
N 74 74 0 
N 5 72 0 
N 54 86 0 
N 29 78 0 
O 65 21 0 
6
Atoms. Timestep: 1285
N 63 13 0 
N 75 74 0 
N 6 72 0 
N 55 86 0 
N 30 78 0 
O 66 21 0 
6
Atoms. Timestep: 1286
N 63 14 0 
N 76 74 0 
N 7 72 0 
N 56 86 0 
N 31 78 0 
O 67 21 0 
6
Atoms. Timestep: 1287
N 64 14 0 
N 77 74 0 
N 8 72 0 
N 57 86 0 
N 32 78 0 
O 68 21 0 
6
Atoms. Timestep: 1288
N 64 13 0 
N 78 74 0 
N 9 72 0 
N 58 86 0 
N 33 78 0 
O 69 21 0 
6
Atoms. Timestep: 1289
N 63 13 0 
N 79 74 0 
N 10 72 0 
N 59 86 0 
N 34 78 0 
O 70 21 0 
6
Atoms. Timestep: 1290
N 62 13 0 
N 78 74 0 
N 11 72 0 
N 60 86 0 
N 35 78 0 
O 71 21 0 
6
Atoms. Timestep: 1291
N 62 12 0 
N 79 74 0 
N 12 72 0 
N 61 86 0 
N 36 78 0 
O 72 21 0 
6
Atoms. Timestep: 1292
N 61 12 0 
N 80 74 0 
N 13 72 0 
N 62 86 0 
N 37 78 0 
O 73 21 0 
6
Atoms. Timestep: 1293
N 61 11 0 
N 81 74 0 
N 14 72 0 
N 63 86 0 
N 38 78 0 
O 74 21 0 
6
Atoms. Timestep: 1294
N 60 11 0 
N 82 74 0 
N 15 72 0 
N 64 86 0 
N 39 78 0 
O 75 21 0 
6
Atoms. Timestep: 1295
N 59 11 0 
N 83 74 0 
N 16 72 0 
N 65 86 0 
N 40 78 0 
O 76 21 0 
6
Atoms. Timestep: 1296
N 59 10 0 
N 84 74 0 
N 17 72 0 
N 66 86 0 
N 41 78 0 
O 77 21 0 
6
Atoms. Timestep: 1297
N 58 10 0 
N 85 74 0 
N 18 72 0 
N 67 86 0 
N 42 78 0 
O 78 21 0 
6
Atoms. Timestep: 1298
N 58 11 0 
N 86 74 0 
N 19 72 0 
N 68 86 0 
N 43 78 0 
O 79 21 0 
6
Atoms. Timestep: 1299
N 57 11 0 
N 87 74 0 
N 20 72 0 
N 69 86 0 
N 44 78 0 
O 80 21 0 
6
Atoms. Timestep: 1300
N 57 12 0 
N 88 74 0 
N 21 72 0 
N 70 86 0 
N 45 78 0 
O 81 21 0 
6
Atoms. Timestep: 1301
N 57 13 0 
N 89 74 0 
N 22 72 0 
N 71 86 0 
N 46 78 0 
O 82 21 0 
6
Atoms. Timestep: 1302
N 58 13 0 
N 90 74 0 
N 23 72 0 
N 72 86 0 
N 47 78 0 
O 83 21 0 
6
Atoms. Timestep: 1303
N 58 14 0 
N 91 74 0 
N 24 72 0 
N 73 86 0 
N 48 78 0 
O 84 21 0 
6
Atoms. Timestep: 1304
N 58 13 0 
N 92 74 0 
N 25 72 0 
N 74 86 0 
N 49 78 0 
O 85 21 0 
6
Atoms. Timestep: 1305
N 59 13 0 
N 93 74 0 
N 26 72 0 
N 75 86 0 
N 48 78 0 
O 86 21 0 
6
Atoms. Timestep: 1306
N 59 12 0 
N 94 74 0 
N 27 72 0 
N 76 86 0 
N 49 78 0 
O 87 21 0 
6
Atoms. Timestep: 1307
N 59 13 0 
N 95 74 0 
N 28 72 0 
N 77 86 0 
N 50 78 0 
O 88 21 0 
6
Atoms. Timestep: 1308
N 58 13 0 
N 96 74 0 
N 29 72 0 
N 78 86 0 
N 51 78 0 
O 89 21 0 
6
Atoms. Timestep: 1309
N 57 13 0 
N 97 74 0 
N 30 72 0 
N 79 86 0 
N 52 78 0 
O 90 21 0 
6
Atoms. Timestep: 1310
N 56 13 0 
N 98 74 0 
N 31 72 0 
N 80 86 0 
N 53 78 0 
O 91 21 0 
6
Atoms. Timestep: 1311
N 57 13 0 
N 99 74 0 
N 32 72 0 
N 81 86 0 
N 54 78 0 
O 92 21 0 
6
Atoms. Timestep: 1312
N 58 13 0 
N 0 74 0 
N 33 72 0 
N 82 86 0 
N 55 78 0 
O 93 21 0 
6
Atoms. Timestep: 1313
N 59 13 0 
N 1 74 0 
N 34 72 0 
N 83 86 0 
N 56 78 0 
O 94 21 0 
6
Atoms. Timestep: 1314
N 60 13 0 
N 2 74 0 
N 35 72 0 
N 84 86 0 
N 57 78 0 
O 95 21 0 
6
Atoms. Timestep: 1315
N 60 14 0 
N 3 74 0 
N 36 72 0 
N 85 86 0 
N 58 78 0 
O 96 21 0 
6
Atoms. Timestep: 1316
N 59 14 0 
N 4 74 0 
N 37 72 0 
N 86 86 0 
N 59 78 0 
O 97 21 0 
6
Atoms. Timestep: 1317
N 59 13 0 
N 5 74 0 
N 38 72 0 
N 87 86 0 
N 60 78 0 
O 98 21 0 
6
Atoms. Timestep: 1318
N 59 14 0 
N 6 74 0 
N 39 72 0 
N 86 86 0 
N 61 78 0 
O 99 21 0 
6
Atoms. Timestep: 1319
N 58 14 0 
N 7 74 0 
N 40 72 0 
N 87 86 0 
N 62 78 0 
O 0 21 0 
6
Atoms. Timestep: 1320
N 58 15 0 
N 8 74 0 
N 41 72 0 
N 88 86 0 
N 63 78 0 
O 1 21 0 
6
Atoms. Timestep: 1321
N 58 14 0 
N 9 74 0 
N 42 72 0 
N 89 86 0 
N 64 78 0 
O 2 21 0 
6
Atoms. Timestep: 1322
N 57 14 0 
N 10 74 0 
N 43 72 0 
N 90 86 0 
N 65 78 0 
O 3 21 0 
6
Atoms. Timestep: 1323
N 57 13 0 
N 10 73 0 
N 44 72 0 
N 91 86 0 
N 66 78 0 
O 4 21 0 
6
Atoms. Timestep: 1324
N 57 14 0 
N 11 73 0 
N 45 72 0 
N 92 86 0 
N 67 78 0 
O 5 21 0 
6
Atoms. Timestep: 1325
N 58 14 0 
N 12 73 0 
N 46 72 0 
N 93 86 0 
N 68 78 0 
O 6 21 0 
6
Atoms. Timestep: 1326
N 57 14 0 
N 13 73 0 
N 47 72 0 
N 94 86 0 
N 69 78 0 
O 7 21 0 
6
Atoms. Timestep: 1327
N 57 15 0 
N 14 73 0 
N 46 72 0 
N 95 86 0 
N 70 78 0 
O 8 21 0 
6
Atoms. Timestep: 1328
N 57 14 0 
N 15 73 0 
N 47 72 0 
N 96 86 0 
N 69 78 0 
O 9 21 0 
6
Atoms. Timestep: 1329
N 56 14 0 
N 16 73 0 
N 48 72 0 
N 97 86 0 
N 70 78 0 
O 10 21 0 
6
Atoms. Timestep: 1330
N 55 14 0 
N 17 73 0 
N 49 72 0 
N 98 86 0 
N 71 78 0 
O 11 21 0 
6
Atoms. Timestep: 1331
N 55 13 0 
N 18 73 0 
N 50 72 0 
N 99 86 0 
N 72 78 0 
O 12 21 0 
6
Atoms. Timestep: 1332
N 54 13 0 
N 19 73 0 
N 51 72 0 
N 0 86 0 
N 73 78 0 
O 13 21 0 
6
Atoms. Timestep: 1333
N 54 12 0 
N 20 73 0 
N 52 72 0 
N 1 86 0 
N 74 78 0 
O 14 21 0 
6
Atoms. Timestep: 1334
N 54 11 0 
N 21 73 0 
N 53 72 0 
N 2 86 0 
N 75 78 0 
O 15 21 0 
6
Atoms. Timestep: 1335
N 55 11 0 
N 22 73 0 
N 54 72 0 
N 3 86 0 
N 76 78 0 
O 16 21 0 
6
Atoms. Timestep: 1336
N 55 10 0 
N 23 73 0 
N 55 72 0 
N 4 86 0 
N 77 78 0 
O 17 21 0 
6
Atoms. Timestep: 1337
N 55 11 0 
N 24 73 0 
N 56 72 0 
N 5 86 0 
N 78 78 0 
O 18 21 0 
6
Atoms. Timestep: 1338
N 54 11 0 
N 24 72 0 
N 57 72 0 
N 6 86 0 
N 79 78 0 
O 19 21 0 
6
Atoms. Timestep: 1339
N 53 11 0 
N 25 72 0 
N 58 72 0 
N 7 86 0 
N 79 77 0 
O 20 21 0 
6
Atoms. Timestep: 1340
N 53 12 0 
N 26 72 0 
N 59 72 0 
N 8 86 0 
N 80 77 0 
O 21 21 0 
6
Atoms. Timestep: 1341
N 53 11 0 
N 27 72 0 
N 59 73 0 
N 9 86 0 
N 81 77 0 
O 22 21 0 
6
Atoms. Timestep: 1342
N 52 11 0 
N 28 72 0 
N 58 73 0 
N 10 86 0 
N 82 77 0 
O 23 21 0 
6
Atoms. Timestep: 1343
N 52 12 0 
N 29 72 0 
N 59 73 0 
N 11 86 0 
N 83 77 0 
O 24 21 0 
6
Atoms. Timestep: 1344
N 52 11 0 
N 30 72 0 
N 60 73 0 
N 12 86 0 
N 84 77 0 
O 25 21 0 
6
Atoms. Timestep: 1345
N 52 12 0 
N 31 72 0 
N 61 73 0 
N 12 87 0 
N 85 77 0 
O 26 21 0 
6
Atoms. Timestep: 1346
N 52 13 0 
N 32 72 0 
N 62 73 0 
N 13 87 0 
N 86 77 0 
O 27 21 0 
6
Atoms. Timestep: 1347
N 52 14 0 
N 33 72 0 
N 63 73 0 
N 14 87 0 
N 87 77 0 
O 28 21 0 
6
Atoms. Timestep: 1348
N 52 15 0 
N 34 72 0 
N 64 73 0 
N 15 87 0 
N 88 77 0 
O 29 21 0 
6
Atoms. Timestep: 1349
N 52 16 0 
N 35 72 0 
N 65 73 0 
N 16 87 0 
N 89 77 0 
O 30 21 0 
6
Atoms. Timestep: 1350
N 51 16 0 
N 36 72 0 
N 66 73 0 
N 17 87 0 
N 90 77 0 
O 31 21 0 
6
Atoms. Timestep: 1351
N 51 15 0 
N 37 72 0 
N 67 73 0 
N 18 87 0 
N 91 77 0 
O 32 21 0 
6
Atoms. Timestep: 1352
N 50 15 0 
N 38 72 0 
N 67 72 0 
N 17 87 0 
N 92 77 0 
O 33 21 0 
6
Atoms. Timestep: 1353
N 49 15 0 
N 39 72 0 
N 68 72 0 
N 16 87 0 
N 93 77 0 
O 34 21 0 
6
Atoms. Timestep: 1354
N 49 14 0 
N 39 73 0 
N 69 72 0 
N 17 87 0 
N 94 77 0 
O 35 21 0 
6
Atoms. Timestep: 1355
N 49 15 0 
N 40 73 0 
N 70 72 0 
N 18 87 0 
N 95 77 0 
O 36 21 0 
6
Atoms. Timestep: 1356
N 49 16 0 
N 41 73 0 
N 71 72 0 
N 19 87 0 
N 96 77 0 
O 37 21 0 
6
Atoms. Timestep: 1357
N 50 16 0 
N 42 73 0 
N 72 72 0 
N 20 87 0 
N 97 77 0 
O 38 21 0 
6
Atoms. Timestep: 1358
N 51 16 0 
N 43 73 0 
N 73 72 0 
N 21 87 0 
N 98 77 0 
O 39 21 0 
6
Atoms. Timestep: 1359
N 52 16 0 
N 44 73 0 
N 74 72 0 
N 22 87 0 
N 99 77 0 
O 40 21 0 
6
Atoms. Timestep: 1360
N 51 16 0 
N 45 73 0 
N 75 72 0 
N 23 87 0 
N 0 77 0 
O 41 21 0 
6
Atoms. Timestep: 1361
N 52 16 0 
N 46 73 0 
N 76 72 0 
N 23 86 0 
N 1 77 0 
O 42 21 0 
6
Atoms. Timestep: 1362
N 51 16 0 
N 47 73 0 
N 77 72 0 
N 24 86 0 
N 2 77 0 
O 43 21 0 
6
Atoms. Timestep: 1363
N 52 16 0 
N 48 73 0 
N 78 72 0 
N 25 86 0 
N 3 77 0 
O 44 21 0 
6
Atoms. Timestep: 1364
N 52 15 0 
N 49 73 0 
N 79 72 0 
N 26 86 0 
N 4 77 0 
O 45 21 0 
6
Atoms. Timestep: 1365
N 51 15 0 
N 50 73 0 
N 80 72 0 
N 27 86 0 
N 5 77 0 
O 46 21 0 
6
Atoms. Timestep: 1366
N 52 15 0 
N 51 73 0 
N 81 72 0 
N 28 86 0 
N 6 77 0 
O 47 21 0 
6
Atoms. Timestep: 1367
N 53 15 0 
N 52 73 0 
N 82 72 0 
N 29 86 0 
N 7 77 0 
O 48 21 0 
6
Atoms. Timestep: 1368
N 53 16 0 
N 53 73 0 
N 83 72 0 
N 30 86 0 
N 8 77 0 
O 49 21 0 
6
Atoms. Timestep: 1369
N 54 16 0 
N 53 72 0 
N 84 72 0 
N 31 86 0 
N 9 77 0 
O 50 21 0 
6
Atoms. Timestep: 1370
N 54 17 0 
N 54 72 0 
N 85 72 0 
N 32 86 0 
N 10 77 0 
O 51 21 0 
6
Atoms. Timestep: 1371
N 54 16 0 
N 55 72 0 
N 86 72 0 
N 32 87 0 
N 11 77 0 
O 52 21 0 
6
Atoms. Timestep: 1372
N 54 17 0 
N 56 72 0 
N 87 72 0 
N 33 87 0 
N 12 77 0 
O 53 21 0 
6
Atoms. Timestep: 1373
N 55 17 0 
N 57 72 0 
N 88 72 0 
N 34 87 0 
N 13 77 0 
O 54 21 0 
6
Atoms. Timestep: 1374
N 54 17 0 
N 58 72 0 
N 89 72 0 
N 35 87 0 
N 14 77 0 
O 55 21 0 
6
Atoms. Timestep: 1375
N 55 17 0 
N 59 72 0 
N 90 72 0 
N 36 87 0 
N 15 77 0 
O 56 21 0 
6
Atoms. Timestep: 1376
N 54 17 0 
N 60 72 0 
N 91 72 0 
N 37 87 0 
N 16 77 0 
O 57 21 0 
6
Atoms. Timestep: 1377
N 55 17 0 
N 61 72 0 
N 92 72 0 
N 38 87 0 
N 17 77 0 
O 58 21 0 
6
Atoms. Timestep: 1378
N 55 16 0 
N 62 72 0 
N 93 72 0 
N 39 87 0 
N 18 77 0 
O 59 21 0 
6
Atoms. Timestep: 1379
N 55 15 0 
N 63 72 0 
N 94 72 0 
N 40 87 0 
N 19 77 0 
O 60 21 0 
6
Atoms. Timestep: 1380
N 54 15 0 
N 64 72 0 
N 93 72 0 
N 41 87 0 
N 20 77 0 
O 61 21 0 
6
Atoms. Timestep: 1381
N 53 15 0 
N 65 72 0 
N 94 72 0 
N 42 87 0 
N 21 77 0 
O 62 21 0 
6
Atoms. Timestep: 1382
N 52 15 0 
N 66 72 0 
N 95 72 0 
N 43 87 0 
N 22 77 0 
O 63 21 0 
6
Atoms. Timestep: 1383
N 52 16 0 
N 67 72 0 
N 96 72 0 
N 44 87 0 
N 23 77 0 
O 64 21 0 
6
Atoms. Timestep: 1384
N 51 16 0 
N 68 72 0 
N 97 72 0 
N 45 87 0 
N 24 77 0 
O 65 21 0 
6
Atoms. Timestep: 1385
N 51 17 0 
N 69 72 0 
N 98 72 0 
N 46 87 0 
N 25 77 0 
O 66 21 0 
6
Atoms. Timestep: 1386
N 52 17 0 
N 70 72 0 
N 99 72 0 
N 47 87 0 
N 26 77 0 
O 67 21 0 
6
Atoms. Timestep: 1387
N 52 16 0 
N 71 72 0 
N 0 72 0 
N 48 87 0 
N 27 77 0 
O 68 21 0 
6
Atoms. Timestep: 1388
N 52 17 0 
N 72 72 0 
N 1 72 0 
N 49 87 0 
N 28 77 0 
O 69 21 0 
6
Atoms. Timestep: 1389
N 53 17 0 
N 73 72 0 
N 2 72 0 
N 49 86 0 
N 29 77 0 
O 70 21 0 
6
Atoms. Timestep: 1390
N 52 17 0 
N 74 72 0 
N 3 72 0 
N 50 86 0 
N 30 77 0 
O 71 21 0 
6
Atoms. Timestep: 1391
N 52 16 0 
N 75 72 0 
N 4 72 0 
N 51 86 0 
N 31 77 0 
O 72 21 0 
6
Atoms. Timestep: 1392
N 52 17 0 
N 76 72 0 
N 5 72 0 
N 52 86 0 
N 32 77 0 
O 73 21 0 
6
Atoms. Timestep: 1393
N 51 17 0 
N 77 72 0 
N 6 72 0 
N 53 86 0 
N 32 78 0 
O 74 21 0 
6
Atoms. Timestep: 1394
N 51 18 0 
N 78 72 0 
N 7 72 0 
N 54 86 0 
N 33 78 0 
O 75 21 0 
6
Atoms. Timestep: 1395
N 51 17 0 
N 79 72 0 
N 8 72 0 
N 55 86 0 
N 34 78 0 
O 76 21 0 
6
Atoms. Timestep: 1396
N 52 17 0 
N 80 72 0 
N 9 72 0 
N 56 86 0 
N 35 78 0 
O 77 21 0 
6
Atoms. Timestep: 1397
N 53 17 0 
N 81 72 0 
N 10 72 0 
N 57 86 0 
N 36 78 0 
O 78 21 0 
6
Atoms. Timestep: 1398
N 52 17 0 
N 82 72 0 
N 11 72 0 
N 58 86 0 
N 37 78 0 
O 79 21 0 
6
Atoms. Timestep: 1399
N 51 17 0 
N 83 72 0 
N 12 72 0 
N 59 86 0 
N 38 78 0 
O 80 21 0 
6
Atoms. Timestep: 1400
N 51 18 0 
N 84 72 0 
N 13 72 0 
N 60 86 0 
N 39 78 0 
O 81 21 0 
6
Atoms. Timestep: 1401
N 50 18 0 
N 85 72 0 
N 14 72 0 
N 61 86 0 
N 40 78 0 
O 82 21 0 
6
Atoms. Timestep: 1402
N 49 18 0 
N 86 72 0 
N 15 72 0 
N 62 86 0 
N 41 78 0 
O 83 21 0 
6
Atoms. Timestep: 1403
N 49 17 0 
N 87 72 0 
N 16 72 0 
N 63 86 0 
N 42 78 0 
O 84 21 0 
6
Atoms. Timestep: 1404
N 50 17 0 
N 88 72 0 
N 17 72 0 
N 64 86 0 
N 43 78 0 
O 85 21 0 
6
Atoms. Timestep: 1405
N 50 18 0 
N 89 72 0 
N 18 72 0 
N 65 86 0 
N 44 78 0 
O 86 21 0 
6
Atoms. Timestep: 1406
N 51 18 0 
N 90 72 0 
N 19 72 0 
N 66 86 0 
N 45 78 0 
O 87 21 0 
6
Atoms. Timestep: 1407
N 51 19 0 
N 91 72 0 
N 20 72 0 
N 67 86 0 
N 46 78 0 
O 88 21 0 
6
Atoms. Timestep: 1408
N 52 19 0 
N 92 72 0 
N 21 72 0 
N 68 86 0 
N 47 78 0 
O 89 21 0 
6
Atoms. Timestep: 1409
N 52 20 0 
N 93 72 0 
N 22 72 0 
N 69 86 0 
N 48 78 0 
O 90 21 0 
6
Atoms. Timestep: 1410
N 51 20 0 
N 94 72 0 
N 23 72 0 
N 70 86 0 
N 49 78 0 
O 91 21 0 
6
Atoms. Timestep: 1411
N 51 19 0 
N 95 72 0 
N 22 72 0 
N 71 86 0 
N 50 78 0 
O 92 21 0 
6
Atoms. Timestep: 1412
N 51 20 0 
N 96 72 0 
N 23 72 0 
N 72 86 0 
N 51 78 0 
O 93 21 0 
6
Atoms. Timestep: 1413
N 51 21 0 
N 97 72 0 
N 24 72 0 
N 73 86 0 
N 52 78 0 
O 94 21 0 
6
Atoms. Timestep: 1414
N 51 20 0 
N 98 72 0 
N 25 72 0 
N 74 86 0 
N 52 79 0 
O 95 21 0 
6
Atoms. Timestep: 1415
N 52 20 0 
N 99 72 0 
N 26 72 0 
N 75 86 0 
N 52 78 0 
O 96 21 0 
6
Atoms. Timestep: 1416
N 51 20 0 
N 0 72 0 
N 27 72 0 
N 76 86 0 
N 52 77 0 
O 97 21 0 
6
Atoms. Timestep: 1417
N 50 20 0 
N 1 72 0 
N 28 72 0 
N 77 86 0 
N 52 76 0 
O 98 21 0 
6
Atoms. Timestep: 1418
N 50 19 0 
N 2 72 0 
N 29 72 0 
N 78 86 0 
N 52 75 0 
O 99 21 0 
6
Atoms. Timestep: 1419
N 49 19 0 
N 3 72 0 
N 30 72 0 
N 78 85 0 
N 52 74 0 
O 0 21 0 
6
Atoms. Timestep: 1420
N 49 20 0 
N 4 72 0 
N 31 72 0 
N 79 85 0 
N 52 73 0 
O 1 21 0 
6
Atoms. Timestep: 1421
N 49 19 0 
N 5 72 0 
N 32 72 0 
N 80 85 0 
N 52 72 0 
O 2 21 0 
6
Atoms. Timestep: 1422
N 49 20 0 
N 6 72 0 
N 33 72 0 
N 81 85 0 
N 52 71 0 
O 3 21 0 
6
Atoms. Timestep: 1423
N 48 20 0 
N 7 72 0 
N 34 72 0 
N 82 85 0 
N 52 72 0 
O 4 21 0 
6
Atoms. Timestep: 1424
N 49 20 0 
N 8 72 0 
N 35 72 0 
N 83 85 0 
N 53 72 0 
O 5 21 0 
6
Atoms. Timestep: 1425
N 48 20 0 
N 9 72 0 
N 36 72 0 
N 84 85 0 
N 54 72 0 
O 6 21 0 
6
Atoms. Timestep: 1426
N 48 19 0 
N 10 72 0 
N 36 71 0 
N 85 85 0 
N 55 72 0 
O 7 21 0 
6
Atoms. Timestep: 1427
N 49 19 0 
N 11 72 0 
N 36 72 0 
N 86 85 0 
N 56 72 0 
O 6 21 0 
6
Atoms. Timestep: 1428
N 49 18 0 
N 12 72 0 
N 37 72 0 
N 87 85 0 
N 55 72 0 
O 7 21 0 
6
Atoms. Timestep: 1429
N 49 19 0 
N 13 72 0 
N 38 72 0 
N 88 85 0 
N 56 72 0 
O 8 21 0 
6
Atoms. Timestep: 1430
N 49 20 0 
N 14 72 0 
N 39 72 0 
N 89 85 0 
N 57 72 0 
O 9 21 0 
6
Atoms. Timestep: 1431
N 49 19 0 
N 15 72 0 
N 40 72 0 
N 90 85 0 
N 58 72 0 
O 10 21 0 
6
Atoms. Timestep: 1432
N 48 19 0 
N 16 72 0 
N 41 72 0 
N 91 85 0 
N 59 72 0 
O 11 21 0 
6
Atoms. Timestep: 1433
N 48 18 0 
N 15 72 0 
N 42 72 0 
N 92 85 0 
N 60 72 0 
O 12 21 0 
6
Atoms. Timestep: 1434
N 48 17 0 
N 16 72 0 
N 43 72 0 
N 93 85 0 
N 61 72 0 
O 13 21 0 
6
Atoms. Timestep: 1435
N 48 18 0 
N 17 72 0 
N 44 72 0 
N 94 85 0 
N 61 71 0 
O 12 21 0 
6
Atoms. Timestep: 1436
N 48 17 0 
N 18 72 0 
N 45 72 0 
N 95 85 0 
N 62 71 0 
O 13 21 0 
6
Atoms. Timestep: 1437
N 49 17 0 
N 19 72 0 
N 46 72 0 
N 96 85 0 
N 63 71 0 
O 13 20 0 
6
Atoms. Timestep: 1438
N 49 18 0 
N 20 72 0 
N 47 72 0 
N 97 85 0 
N 62 71 0 
O 14 20 0 
6
Atoms. Timestep: 1439
N 50 18 0 
N 21 72 0 
N 48 72 0 
N 98 85 0 
N 63 71 0 
O 15 20 0 
6
Atoms. Timestep: 1440
N 50 17 0 
N 22 72 0 
N 49 72 0 
N 99 85 0 
N 64 71 0 
O 16 20 0 
6
Atoms. Timestep: 1441
N 51 17 0 
N 21 72 0 
N 50 72 0 
N 0 85 0 
N 65 71 0 
O 15 20 0 
6
Atoms. Timestep: 1442
N 50 17 0 
N 22 72 0 
N 51 72 0 
N 1 85 0 
N 65 70 0 
O 16 20 0 
6
Atoms. Timestep: 1443
N 50 18 0 
N 23 72 0 
N 52 72 0 
N 2 85 0 
N 66 70 0 
O 17 20 0 
6
Atoms. Timestep: 1444
N 51 18 0 
N 24 72 0 
N 53 72 0 
N 3 85 0 
N 67 70 0 
O 16 20 0 
6
Atoms. Timestep: 1445
N 50 18 0 
N 25 72 0 
N 54 72 0 
N 4 85 0 
N 68 70 0 
O 16 19 0 
6
Atoms. Timestep: 1446
N 51 18 0 
N 26 72 0 
N 55 72 0 
N 5 85 0 
N 69 70 0 
O 17 19 0 
6
Atoms. Timestep: 1447
N 51 17 0 
N 27 72 0 
N 56 72 0 
N 6 85 0 
N 70 70 0 
O 18 19 0 
6
Atoms. Timestep: 1448
N 51 18 0 
N 28 72 0 
N 57 72 0 
N 7 85 0 
N 71 70 0 
O 19 19 0 
6
Atoms. Timestep: 1449
N 51 19 0 
N 29 72 0 
N 58 72 0 
N 8 85 0 
N 72 70 0 
O 20 19 0 
6
Atoms. Timestep: 1450
N 50 19 0 
N 30 72 0 
N 59 72 0 
N 9 85 0 
N 73 70 0 
O 21 19 0 
6
Atoms. Timestep: 1451
N 50 20 0 
N 31 72 0 
N 60 72 0 
N 10 85 0 
N 74 70 0 
O 22 19 0 
6
Atoms. Timestep: 1452
N 51 20 0 
N 32 72 0 
N 61 72 0 
N 11 85 0 
N 75 70 0 
O 23 19 0 
6
Atoms. Timestep: 1453
N 51 19 0 
N 33 72 0 
N 62 72 0 
N 12 85 0 
N 76 70 0 
O 24 19 0 
6
Atoms. Timestep: 1454
N 52 19 0 
N 34 72 0 
N 63 72 0 
N 13 85 0 
N 77 70 0 
O 25 19 0 
6
Atoms. Timestep: 1455
N 52 18 0 
N 35 72 0 
N 64 72 0 
N 14 85 0 
N 78 70 0 
O 26 19 0 
6
Atoms. Timestep: 1456
N 52 17 0 
N 36 72 0 
N 65 72 0 
N 15 85 0 
N 79 70 0 
O 27 19 0 
6
Atoms. Timestep: 1457
N 52 16 0 
N 37 72 0 
N 66 72 0 
N 16 85 0 
N 80 70 0 
O 28 19 0 
6
Atoms. Timestep: 1458
N 51 16 0 
N 38 72 0 
N 67 72 0 
N 15 85 0 
N 81 70 0 
O 29 19 0 
6
Atoms. Timestep: 1459
N 51 17 0 
N 39 72 0 
N 68 72 0 
N 16 85 0 
N 82 70 0 
O 30 19 0 
6
Atoms. Timestep: 1460
N 51 18 0 
N 40 72 0 
N 69 72 0 
N 17 85 0 
N 83 70 0 
O 31 19 0 
6
Atoms. Timestep: 1461
N 52 18 0 
N 41 72 0 
N 70 72 0 
N 18 85 0 
N 84 70 0 
O 32 19 0 
6
Atoms. Timestep: 1462
N 52 17 0 
N 42 72 0 
N 71 72 0 
N 19 85 0 
N 85 70 0 
O 33 19 0 
6
Atoms. Timestep: 1463
N 52 18 0 
N 43 72 0 
N 72 72 0 
N 20 85 0 
N 86 70 0 
O 34 19 0 
6
Atoms. Timestep: 1464
N 51 18 0 
N 44 72 0 
N 73 72 0 
N 21 85 0 
N 87 70 0 
O 35 19 0 
6
Atoms. Timestep: 1465
N 52 18 0 
N 44 73 0 
N 74 72 0 
N 22 85 0 
N 88 70 0 
O 36 19 0 
6
Atoms. Timestep: 1466
N 52 17 0 
N 45 73 0 
N 75 72 0 
N 23 85 0 
N 89 70 0 
O 37 19 0 
6
Atoms. Timestep: 1467
N 52 18 0 
N 46 73 0 
N 74 72 0 
N 24 85 0 
N 90 70 0 
O 38 19 0 
6
Atoms. Timestep: 1468
N 53 18 0 
N 47 73 0 
N 75 72 0 
N 25 85 0 
N 91 70 0 
O 39 19 0 
6
Atoms. Timestep: 1469
N 52 18 0 
N 48 73 0 
N 76 72 0 
N 26 85 0 
N 92 70 0 
O 40 19 0 
6
Atoms. Timestep: 1470
N 51 18 0 
N 49 73 0 
N 77 72 0 
N 27 85 0 
N 93 70 0 
O 41 19 0 
6
Atoms. Timestep: 1471
N 50 18 0 
N 50 73 0 
N 78 72 0 
N 28 85 0 
N 94 70 0 
O 42 19 0 
6
Atoms. Timestep: 1472
N 50 19 0 
N 51 73 0 
N 79 72 0 
N 28 86 0 
N 95 70 0 
O 43 19 0 
6
Atoms. Timestep: 1473
N 50 20 0 
N 52 73 0 
N 80 72 0 
N 29 86 0 
N 96 70 0 
O 44 19 0 
6
Atoms. Timestep: 1474
N 51 20 0 
N 53 73 0 
N 81 72 0 
N 30 86 0 
N 97 70 0 
O 45 19 0 
6
Atoms. Timestep: 1475
N 51 19 0 
N 54 73 0 
N 82 72 0 
N 31 86 0 
N 98 70 0 
O 46 19 0 
6
Atoms. Timestep: 1476
N 50 19 0 
N 55 73 0 
N 83 72 0 
N 32 86 0 
N 99 70 0 
O 47 19 0 
6
Atoms. Timestep: 1477
N 49 19 0 
N 56 73 0 
N 84 72 0 
N 33 86 0 
N 0 70 0 
O 48 19 0 
6
Atoms. Timestep: 1478
N 49 18 0 
N 57 73 0 
N 85 72 0 
N 34 86 0 
N 1 70 0 
O 49 19 0 
6
Atoms. Timestep: 1479
N 49 17 0 
N 58 73 0 
N 86 72 0 
N 35 86 0 
N 2 70 0 
O 50 19 0 
6
Atoms. Timestep: 1480
N 49 16 0 
N 59 73 0 
N 87 72 0 
N 36 86 0 
N 3 70 0 
O 51 19 0 
6
Atoms. Timestep: 1481
N 50 16 0 
N 60 73 0 
N 88 72 0 
N 37 86 0 
N 4 70 0 
O 52 19 0 
6
Atoms. Timestep: 1482
N 49 16 0 
N 61 73 0 
N 89 72 0 
N 38 86 0 
N 5 70 0 
O 53 19 0 
6
Atoms. Timestep: 1483
N 49 17 0 
N 62 73 0 
N 89 71 0 
N 39 86 0 
N 6 70 0 
O 54 19 0 
6
Atoms. Timestep: 1484
N 50 17 0 
N 63 73 0 
N 90 71 0 
N 40 86 0 
N 7 70 0 
O 55 19 0 
6
Atoms. Timestep: 1485
N 49 17 0 
N 64 73 0 
N 90 72 0 
N 41 86 0 
N 8 70 0 
O 56 19 0 
6
Atoms. Timestep: 1486
N 48 17 0 
N 65 73 0 
N 91 72 0 
N 40 86 0 
N 9 70 0 
O 57 19 0 
6
Atoms. Timestep: 1487
N 49 17 0 
N 66 73 0 
N 92 72 0 
N 41 86 0 
N 10 70 0 
O 58 19 0 
6
Atoms. Timestep: 1488
N 49 16 0 
N 67 73 0 
N 91 72 0 
N 42 86 0 
N 11 70 0 
O 59 19 0 
6
Atoms. Timestep: 1489
N 50 16 0 
N 68 73 0 
N 92 72 0 
N 42 87 0 
N 12 70 0 
O 60 19 0 
6
Atoms. Timestep: 1490
N 50 17 0 
N 69 73 0 
N 93 72 0 
N 43 87 0 
N 13 70 0 
O 61 19 0 
6
Atoms. Timestep: 1491
N 49 17 0 
N 70 73 0 
N 94 72 0 
N 44 87 0 
N 14 70 0 
O 62 19 0 
6
Atoms. Timestep: 1492
N 49 16 0 
N 71 73 0 
N 95 72 0 
N 45 87 0 
N 15 70 0 
O 63 19 0 
6
Atoms. Timestep: 1493
N 49 17 0 
N 72 73 0 
N 96 72 0 
N 46 87 0 
N 16 70 0 
O 64 19 0 
6
Atoms. Timestep: 1494
N 48 17 0 
N 73 73 0 
N 97 72 0 
N 47 87 0 
N 17 70 0 
O 65 19 0 
6
Atoms. Timestep: 1495
N 47 17 0 
N 74 73 0 
N 98 72 0 
N 48 87 0 
N 18 70 0 
O 66 19 0 
6
Atoms. Timestep: 1496
N 46 17 0 
N 75 73 0 
N 99 72 0 
N 49 87 0 
N 19 70 0 
O 67 19 0 
6
Atoms. Timestep: 1497
N 46 18 0 
N 76 73 0 
N 0 72 0 
N 50 87 0 
N 20 70 0 
O 68 19 0 
6
Atoms. Timestep: 1498
N 47 18 0 
N 77 73 0 
N 1 72 0 
N 51 87 0 
N 21 70 0 
O 69 19 0 
6
Atoms. Timestep: 1499
N 48 18 0 
N 78 73 0 
N 2 72 0 
N 52 87 0 
N 22 70 0 
O 70 19 0 
6
Atoms. Timestep: 1500
N 49 18 0 
N 79 73 0 
N 3 72 0 
N 53 87 0 
N 23 70 0 
O 71 19 0 
6
Atoms. Timestep: 1501
N 48 18 0 
N 80 73 0 
N 4 72 0 
N 54 87 0 
N 24 70 0 
O 72 19 0 
6
Atoms. Timestep: 1502
N 48 19 0 
N 81 73 0 
N 5 72 0 
N 55 87 0 
N 25 70 0 
O 73 19 0 
6
Atoms. Timestep: 1503
N 49 19 0 
N 82 73 0 
N 6 72 0 
N 56 87 0 
N 26 70 0 
O 74 19 0 
6
Atoms. Timestep: 1504
N 49 20 0 
N 83 73 0 
N 5 72 0 
N 57 87 0 
N 27 70 0 
O 75 19 0 
6
Atoms. Timestep: 1505
N 49 21 0 
N 84 73 0 
N 6 72 0 
N 58 87 0 
N 28 70 0 
O 76 19 0 
6
Atoms. Timestep: 1506
N 50 21 0 
N 85 73 0 
N 7 72 0 
N 59 87 0 
N 29 70 0 
O 77 19 0 
6
Atoms. Timestep: 1507
N 51 21 0 
N 86 73 0 
N 8 72 0 
N 60 87 0 
N 30 70 0 
O 78 19 0 
6
Atoms. Timestep: 1508
N 51 22 0 
N 87 73 0 
N 9 72 0 
N 61 87 0 
N 31 70 0 
O 79 19 0 
6
Atoms. Timestep: 1509
N 51 23 0 
N 88 73 0 
N 10 72 0 
N 62 87 0 
N 32 70 0 
O 80 19 0 
6
Atoms. Timestep: 1510
N 51 22 0 
N 89 73 0 
N 11 72 0 
N 63 87 0 
N 33 70 0 
O 81 19 0 
6
Atoms. Timestep: 1511
N 52 22 0 
N 90 73 0 
N 12 72 0 
N 64 87 0 
N 34 70 0 
O 82 19 0 
6
Atoms. Timestep: 1512
N 51 22 0 
N 91 73 0 
N 13 72 0 
N 65 87 0 
N 35 70 0 
O 83 19 0 
6
Atoms. Timestep: 1513
N 50 22 0 
N 92 73 0 
N 14 72 0 
N 66 87 0 
N 36 70 0 
O 84 19 0 
6
Atoms. Timestep: 1514
N 50 21 0 
N 93 73 0 
N 15 72 0 
N 67 87 0 
N 37 70 0 
O 85 19 0 
6
Atoms. Timestep: 1515
N 50 22 0 
N 94 73 0 
N 16 72 0 
N 68 87 0 
N 38 70 0 
O 86 19 0 
6
Atoms. Timestep: 1516
N 50 23 0 
N 95 73 0 
N 16 73 0 
N 69 87 0 
N 39 70 0 
O 87 19 0 
6
Atoms. Timestep: 1517
N 51 23 0 
N 96 73 0 
N 17 73 0 
N 70 87 0 
N 40 70 0 
O 88 19 0 
6
Atoms. Timestep: 1518
N 51 24 0 
N 97 73 0 
N 18 73 0 
N 71 87 0 
N 41 70 0 
O 89 19 0 
6
Atoms. Timestep: 1519
N 50 24 0 
N 98 73 0 
N 19 73 0 
N 72 87 0 
N 42 70 0 
O 90 19 0 
6
Atoms. Timestep: 1520
N 51 24 0 
N 99 73 0 
N 20 73 0 
N 73 87 0 
N 43 70 0 
O 91 19 0 
6
Atoms. Timestep: 1521
N 51 23 0 
N 0 73 0 
N 21 73 0 
N 74 87 0 
N 44 70 0 
O 92 19 0 
6
Atoms. Timestep: 1522
N 50 23 0 
N 1 73 0 
N 22 73 0 
N 75 87 0 
N 45 70 0 
O 93 19 0 
6
Atoms. Timestep: 1523
N 49 23 0 
N 2 73 0 
N 23 73 0 
N 76 87 0 
N 46 70 0 
O 94 19 0 
6
Atoms. Timestep: 1524
N 49 22 0 
N 3 73 0 
N 24 73 0 
N 77 87 0 
N 47 70 0 
O 95 19 0 
6
Atoms. Timestep: 1525
N 48 22 0 
N 4 73 0 
N 24 74 0 
N 78 87 0 
N 48 70 0 
O 96 19 0 
6
Atoms. Timestep: 1526
N 47 22 0 
N 3 73 0 
N 25 74 0 
N 79 87 0 
N 49 70 0 
O 97 19 0 
6
Atoms. Timestep: 1527
N 48 22 0 
N 4 73 0 
N 26 74 0 
N 79 86 0 
N 50 70 0 
O 98 19 0 
6
Atoms. Timestep: 1528
N 47 22 0 
N 5 73 0 
N 27 74 0 
N 80 86 0 
N 51 70 0 
O 99 19 0 
6
Atoms. Timestep: 1529
N 46 22 0 
N 6 73 0 
N 28 74 0 
N 81 86 0 
N 52 70 0 
O 0 19 0 
6
Atoms. Timestep: 1530
N 45 22 0 
N 7 73 0 
N 29 74 0 
N 82 86 0 
N 53 70 0 
O 1 19 0 
6
Atoms. Timestep: 1531
N 46 22 0 
N 8 73 0 
N 30 74 0 
N 83 86 0 
N 54 70 0 
O 2 19 0 
6
Atoms. Timestep: 1532
N 45 22 0 
N 9 73 0 
N 31 74 0 
N 84 86 0 
N 55 70 0 
O 3 19 0 
6
Atoms. Timestep: 1533
N 45 23 0 
N 10 73 0 
N 32 74 0 
N 85 86 0 
N 56 70 0 
O 4 19 0 
6
Atoms. Timestep: 1534
N 46 23 0 
N 11 73 0 
N 33 74 0 
N 86 86 0 
N 57 70 0 
O 5 19 0 
6
Atoms. Timestep: 1535
N 45 23 0 
N 12 73 0 
N 34 74 0 
N 87 86 0 
N 58 70 0 
O 6 19 0 
6
Atoms. Timestep: 1536
N 44 23 0 
N 13 73 0 
N 35 74 0 
N 88 86 0 
N 59 70 0 
O 7 19 0 
6
Atoms. Timestep: 1537
N 43 23 0 
N 14 73 0 
N 36 74 0 
N 89 86 0 
N 60 70 0 
O 8 19 0 
6
Atoms. Timestep: 1538
N 43 22 0 
N 15 73 0 
N 37 74 0 
N 90 86 0 
N 61 70 0 
O 9 19 0 
6
Atoms. Timestep: 1539
N 42 22 0 
N 16 73 0 
N 38 74 0 
N 91 86 0 
N 62 70 0 
O 10 19 0 
6
Atoms. Timestep: 1540
N 42 23 0 
N 17 73 0 
N 39 74 0 
N 92 86 0 
N 63 70 0 
O 11 19 0 
6
Atoms. Timestep: 1541
N 42 22 0 
N 18 73 0 
N 40 74 0 
N 93 86 0 
N 64 70 0 
O 12 19 0 
6
Atoms. Timestep: 1542
N 42 21 0 
N 19 73 0 
N 41 74 0 
N 94 86 0 
N 65 70 0 
O 13 19 0 
6
Atoms. Timestep: 1543
N 42 20 0 
N 20 73 0 
N 42 74 0 
N 95 86 0 
N 66 70 0 
O 14 19 0 
6
Atoms. Timestep: 1544
N 41 20 0 
N 21 73 0 
N 43 74 0 
N 96 86 0 
N 67 70 0 
O 15 19 0 
6
Atoms. Timestep: 1545
N 42 20 0 
N 22 73 0 
N 44 74 0 
N 97 86 0 
N 68 70 0 
O 16 19 0 
6
Atoms. Timestep: 1546
N 43 20 0 
N 23 73 0 
N 45 74 0 
N 98 86 0 
N 69 70 0 
O 17 19 0 
6
Atoms. Timestep: 1547
N 42 20 0 
N 24 73 0 
N 46 74 0 
N 99 86 0 
N 70 70 0 
O 18 19 0 
6
Atoms. Timestep: 1548
N 41 20 0 
N 25 73 0 
N 47 74 0 
N 0 86 0 
N 71 70 0 
O 19 19 0 
6
Atoms. Timestep: 1549
N 41 19 0 
N 26 73 0 
N 48 74 0 
N 1 86 0 
N 70 70 0 
O 20 19 0 
6
Atoms. Timestep: 1550
N 41 18 0 
N 27 73 0 
N 49 74 0 
N 2 86 0 
N 70 71 0 
O 21 19 0 
6
Atoms. Timestep: 1551
N 41 17 0 
N 28 73 0 
N 50 74 0 
N 2 87 0 
N 69 71 0 
O 22 19 0 
6
Atoms. Timestep: 1552
N 40 17 0 
N 29 73 0 
N 51 74 0 
N 3 87 0 
N 70 71 0 
O 23 19 0 
6
Atoms. Timestep: 1553
N 40 16 0 
N 29 74 0 
N 52 74 0 
N 4 87 0 
N 71 71 0 
O 24 19 0 
6
Atoms. Timestep: 1554
N 39 16 0 
N 30 74 0 
N 53 74 0 
N 5 87 0 
N 72 71 0 
O 25 19 0 
6
Atoms. Timestep: 1555
N 39 17 0 
N 31 74 0 
N 54 74 0 
N 6 87 0 
N 73 71 0 
O 26 19 0 
6
Atoms. Timestep: 1556
N 39 16 0 
N 32 74 0 
N 55 74 0 
N 7 87 0 
N 74 71 0 
O 27 19 0 
6
Atoms. Timestep: 1557
N 40 16 0 
N 33 74 0 
N 56 74 0 
N 8 87 0 
N 75 71 0 
O 28 19 0 
6
Atoms. Timestep: 1558
N 40 17 0 
N 34 74 0 
N 57 74 0 
N 9 87 0 
N 76 71 0 
O 27 19 0 
6
Atoms. Timestep: 1559
N 39 17 0 
N 35 74 0 
N 58 74 0 
N 10 87 0 
N 75 71 0 
O 26 19 0 
6
Atoms. Timestep: 1560
N 39 18 0 
N 36 74 0 
N 59 74 0 
N 11 87 0 
N 74 71 0 
O 27 19 0 
6
Atoms. Timestep: 1561
N 39 19 0 
N 37 74 0 
N 60 74 0 
N 12 87 0 
N 75 71 0 
O 28 19 0 
6
Atoms. Timestep: 1562
N 39 20 0 
N 38 74 0 
N 61 74 0 
N 13 87 0 
N 76 71 0 
O 29 19 0 
6
Atoms. Timestep: 1563
N 39 21 0 
N 39 74 0 
N 62 74 0 
N 14 87 0 
N 77 71 0 
O 30 19 0 
6
Atoms. Timestep: 1564
N 40 21 0 
N 39 75 0 
N 63 74 0 
N 15 87 0 
N 78 71 0 
O 31 19 0 
6
Atoms. Timestep: 1565
N 41 21 0 
N 40 75 0 
N 64 74 0 
N 16 87 0 
N 79 71 0 
O 32 19 0 
6
Atoms. Timestep: 1566
N 42 21 0 
N 41 75 0 
N 65 74 0 
N 17 87 0 
N 80 71 0 
O 33 19 0 
6
Atoms. Timestep: 1567
N 41 21 0 
N 42 75 0 
N 66 74 0 
N 18 87 0 
N 81 71 0 
O 34 19 0 
6
Atoms. Timestep: 1568
N 40 21 0 
N 43 75 0 
N 67 74 0 
N 19 87 0 
N 82 71 0 
O 35 19 0 
6
Atoms. Timestep: 1569
N 39 21 0 
N 44 75 0 
N 68 74 0 
N 20 87 0 
N 83 71 0 
O 36 19 0 
6
Atoms. Timestep: 1570
N 39 22 0 
N 45 75 0 
N 69 74 0 
N 21 87 0 
N 84 71 0 
O 37 19 0 
6
Atoms. Timestep: 1571
N 40 22 0 
N 46 75 0 
N 70 74 0 
N 22 87 0 
N 85 71 0 
O 38 19 0 
6
Atoms. Timestep: 1572
N 40 23 0 
N 47 75 0 
N 71 74 0 
N 23 87 0 
N 86 71 0 
O 39 19 0 
6
Atoms. Timestep: 1573
N 41 23 0 
N 48 75 0 
N 72 74 0 
N 24 87 0 
N 87 71 0 
O 40 19 0 
6
Atoms. Timestep: 1574
N 41 22 0 
N 49 75 0 
N 73 74 0 
N 25 87 0 
N 88 71 0 
O 39 19 0 
6
Atoms. Timestep: 1575
N 41 23 0 
N 50 75 0 
N 74 74 0 
N 26 87 0 
N 87 71 0 
O 40 19 0 
6
Atoms. Timestep: 1576
N 41 24 0 
N 51 75 0 
N 75 74 0 
N 27 87 0 
N 88 71 0 
O 41 19 0 
6
Atoms. Timestep: 1577
N 42 24 0 
N 52 75 0 
N 76 74 0 
N 28 87 0 
N 89 71 0 
O 42 19 0 
6
Atoms. Timestep: 1578
N 41 24 0 
N 53 75 0 
N 77 74 0 
N 29 87 0 
N 90 71 0 
O 41 19 0 
6
Atoms. Timestep: 1579
N 41 23 0 
N 54 75 0 
N 78 74 0 
N 30 87 0 
N 89 71 0 
O 42 19 0 
6
Atoms. Timestep: 1580
N 42 23 0 
N 55 75 0 
N 79 74 0 
N 31 87 0 
N 90 71 0 
O 43 19 0 
6
Atoms. Timestep: 1581
N 43 23 0 
N 56 75 0 
N 80 74 0 
N 32 87 0 
N 91 71 0 
O 44 19 0 
6
Atoms. Timestep: 1582
N 42 23 0 
N 57 75 0 
N 81 74 0 
N 33 87 0 
N 92 71 0 
O 45 19 0 
6
Atoms. Timestep: 1583
N 42 22 0 
N 58 75 0 
N 82 74 0 
N 34 87 0 
N 92 72 0 
O 46 19 0 
6
Atoms. Timestep: 1584
N 43 22 0 
N 59 75 0 
N 83 74 0 
N 35 87 0 
N 93 72 0 
O 47 19 0 
6
Atoms. Timestep: 1585
N 42 22 0 
N 60 75 0 
N 84 74 0 
N 36 87 0 
N 94 72 0 
O 48 19 0 
6
Atoms. Timestep: 1586
N 42 23 0 
N 61 75 0 
N 85 74 0 
N 37 87 0 
N 95 72 0 
O 47 19 0 
6
Atoms. Timestep: 1587
N 42 24 0 
N 62 75 0 
N 86 74 0 
N 38 87 0 
N 94 72 0 
O 48 19 0 
6
Atoms. Timestep: 1588
N 42 23 0 
N 63 75 0 
N 87 74 0 
N 39 87 0 
N 95 72 0 
O 47 19 0 
6
Atoms. Timestep: 1589
N 42 22 0 
N 64 75 0 
N 88 74 0 
N 40 87 0 
N 94 72 0 
O 48 19 0 
6
Atoms. Timestep: 1590
N 41 22 0 
N 65 75 0 
N 89 74 0 
N 40 88 0 
N 95 72 0 
O 49 19 0 
6
Atoms. Timestep: 1591
N 42 22 0 
N 66 75 0 
N 90 74 0 
N 41 88 0 
N 96 72 0 
O 50 19 0 
6
Atoms. Timestep: 1592
N 41 22 0 
N 67 75 0 
N 91 74 0 
N 42 88 0 
N 97 72 0 
O 51 19 0 
6
Atoms. Timestep: 1593
N 40 22 0 
N 68 75 0 
N 92 74 0 
N 43 88 0 
N 98 72 0 
O 50 19 0 
6
Atoms. Timestep: 1594
N 41 22 0 
N 69 75 0 
N 93 74 0 
N 44 88 0 
N 97 72 0 
O 51 19 0 
6
Atoms. Timestep: 1595
N 40 22 0 
N 70 75 0 
N 94 74 0 
N 45 88 0 
N 98 72 0 
O 52 19 0 
6
Atoms. Timestep: 1596
N 40 21 0 
N 71 75 0 
N 95 74 0 
N 46 88 0 
N 99 72 0 
O 53 19 0 
6
Atoms. Timestep: 1597
N 40 20 0 
N 72 75 0 
N 96 74 0 
N 47 88 0 
N 0 72 0 
O 54 19 0 
6
Atoms. Timestep: 1598
N 41 20 0 
N 73 75 0 
N 97 74 0 
N 48 88 0 
N 1 72 0 
O 55 19 0 
6
Atoms. Timestep: 1599
N 41 21 0 
N 74 75 0 
N 98 74 0 
N 49 88 0 
N 2 72 0 
O 56 19 0 
6
Atoms. Timestep: 1600
N 40 21 0 
N 75 75 0 
N 99 74 0 
N 50 88 0 
N 2 73 0 
O 57 19 0 
6
Atoms. Timestep: 1601
N 40 20 0 
N 76 75 0 
N 0 74 0 
N 51 88 0 
N 3 73 0 
O 58 19 0 
6
Atoms. Timestep: 1602
N 41 20 0 
N 77 75 0 
N 1 74 0 
N 52 88 0 
N 4 73 0 
O 59 19 0 
6
Atoms. Timestep: 1603
N 40 20 0 
N 78 75 0 
N 2 74 0 
N 52 89 0 
N 5 73 0 
O 60 19 0 
6
Atoms. Timestep: 1604
N 40 21 0 
N 79 75 0 
N 3 74 0 
N 53 89 0 
N 6 73 0 
O 61 19 0 
6
Atoms. Timestep: 1605
N 41 21 0 
N 80 75 0 
N 4 74 0 
N 54 89 0 
N 7 73 0 
O 60 19 0 
6
Atoms. Timestep: 1606
N 42 21 0 
N 81 75 0 
N 5 74 0 
N 55 89 0 
N 6 73 0 
O 59 19 0 
6
Atoms. Timestep: 1607
N 42 20 0 
N 82 75 0 
N 4 74 0 
N 56 89 0 
N 5 73 0 
O 60 19 0 
6
Atoms. Timestep: 1608
N 42 19 0 
N 83 75 0 
N 5 74 0 
N 57 89 0 
N 6 73 0 
O 61 19 0 
6
Atoms. Timestep: 1609
N 42 20 0 
N 84 75 0 
N 6 74 0 
N 58 89 0 
N 7 73 0 
O 60 19 0 
6
Atoms. Timestep: 1610
N 42 19 0 
N 85 75 0 
N 5 74 0 
N 59 89 0 
N 6 73 0 
O 61 19 0 
6
Atoms. Timestep: 1611
N 42 18 0 
N 86 75 0 
N 6 74 0 
N 60 89 0 
N 7 73 0 
O 62 19 0 
6
Atoms. Timestep: 1612
N 43 18 0 
N 87 75 0 
N 7 74 0 
N 61 89 0 
N 8 73 0 
O 61 19 0 
6
Atoms. Timestep: 1613
N 43 17 0 
N 88 75 0 
N 6 74 0 
N 62 89 0 
N 7 73 0 
O 62 19 0 
6
Atoms. Timestep: 1614
N 43 16 0 
N 89 75 0 
N 7 74 0 
N 63 89 0 
N 8 73 0 
O 63 19 0 
6
Atoms. Timestep: 1615
N 43 15 0 
N 90 75 0 
N 6 74 0 
N 64 89 0 
N 9 73 0 
O 64 19 0 
6
Atoms. Timestep: 1616
N 43 14 0 
N 91 75 0 
N 7 74 0 
N 65 89 0 
N 10 73 0 
O 65 19 0 
6
Atoms. Timestep: 1617
N 42 14 0 
N 92 75 0 
N 8 74 0 
N 66 89 0 
N 11 73 0 
O 66 19 0 
6
Atoms. Timestep: 1618
N 41 14 0 
N 93 75 0 
N 9 74 0 
N 67 89 0 
N 12 73 0 
O 65 19 0 
6
Atoms. Timestep: 1619
N 40 14 0 
N 94 75 0 
N 10 74 0 
N 68 89 0 
N 11 73 0 
O 66 19 0 
6
Atoms. Timestep: 1620
N 41 14 0 
N 95 75 0 
N 11 74 0 
N 69 89 0 
N 12 73 0 
O 67 19 0 
6
Atoms. Timestep: 1621
N 41 13 0 
N 96 75 0 
N 12 74 0 
N 70 89 0 
N 13 73 0 
O 68 19 0 
6
Atoms. Timestep: 1622
N 42 13 0 
N 97 75 0 
N 13 74 0 
N 71 89 0 
N 14 73 0 
O 67 19 0 
6
Atoms. Timestep: 1623
N 43 13 0 
N 98 75 0 
N 12 74 0 
N 72 89 0 
N 13 73 0 
O 66 19 0 
6
Atoms. Timestep: 1624
N 42 13 0 
N 99 75 0 
N 11 74 0 
N 73 89 0 
N 12 73 0 
O 65 19 0 
6
Atoms. Timestep: 1625
N 43 13 0 
N 0 75 0 
N 10 74 0 
N 73 90 0 
N 11 73 0 
O 64 19 0 
6
Atoms. Timestep: 1626
N 42 13 0 
N 1 75 0 
N 9 74 0 
N 74 90 0 
N 10 73 0 
O 65 19 0 
6
Atoms. Timestep: 1627
N 42 12 0 
N 2 75 0 
N 10 74 0 
N 75 90 0 
N 11 73 0 
O 66 19 0 
6
Atoms. Timestep: 1628
N 43 12 0 
N 3 75 0 
N 11 74 0 
N 76 90 0 
N 12 73 0 
O 67 19 0 
6
Atoms. Timestep: 1629
N 43 13 0 
N 4 75 0 
N 12 74 0 
N 77 90 0 
N 13 73 0 
O 66 19 0 
6
Atoms. Timestep: 1630
N 43 12 0 
N 5 75 0 
N 11 74 0 
N 78 90 0 
N 12 73 0 
O 67 19 0 
6
Atoms. Timestep: 1631
N 43 11 0 
N 6 75 0 
N 12 74 0 
N 79 90 0 
N 13 73 0 
O 68 19 0 
6
Atoms. Timestep: 1632
N 44 11 0 
N 7 75 0 
N 13 74 0 
N 80 90 0 
N 14 73 0 
O 67 19 0 
6
Atoms. Timestep: 1633
N 45 11 0 
N 8 75 0 
N 12 74 0 
N 81 90 0 
N 13 73 0 
O 68 19 0 
6
Atoms. Timestep: 1634
N 45 12 0 
N 9 75 0 
N 13 74 0 
N 82 90 0 
N 14 73 0 
O 69 19 0 
6
Atoms. Timestep: 1635
N 46 12 0 
N 8 75 0 
N 14 74 0 
N 83 90 0 
N 15 73 0 
O 70 19 0 
6
Atoms. Timestep: 1636
N 46 11 0 
N 9 75 0 
N 13 74 0 
N 84 90 0 
N 16 73 0 
O 69 19 0 
6
Atoms. Timestep: 1637
N 46 12 0 
N 10 75 0 
N 14 74 0 
N 85 90 0 
N 15 73 0 
O 70 19 0 
6
Atoms. Timestep: 1638
N 46 13 0 
N 11 75 0 
N 15 74 0 
N 86 90 0 
N 16 73 0 
O 71 19 0 
6
Atoms. Timestep: 1639
N 46 14 0 
N 12 75 0 
N 16 74 0 
N 87 90 0 
N 17 73 0 
O 72 19 0 
6
Atoms. Timestep: 1640
N 46 13 0 
N 13 75 0 
N 17 74 0 
N 88 90 0 
N 18 73 0 
O 73 19 0 
6
Atoms. Timestep: 1641
N 45 13 0 
N 14 75 0 
N 18 74 0 
N 89 90 0 
N 19 73 0 
O 74 19 0 
6
Atoms. Timestep: 1642
N 45 12 0 
N 15 75 0 
N 19 74 0 
N 90 90 0 
N 20 73 0 
O 73 19 0 
6
Atoms. Timestep: 1643
N 46 12 0 
N 16 75 0 
N 18 74 0 
N 91 90 0 
N 19 73 0 
O 72 19 0 
6
Atoms. Timestep: 1644
N 46 13 0 
N 15 75 0 
N 17 74 0 
N 91 89 0 
N 18 73 0 
O 71 19 0 
6
Atoms. Timestep: 1645
N 47 13 0 
N 16 75 0 
N 16 74 0 
N 92 89 0 
N 17 73 0 
O 72 19 0 
6
Atoms. Timestep: 1646
N 46 13 0 
N 17 75 0 
N 17 74 0 
N 93 89 0 
N 18 73 0 
O 73 19 0 
6
Atoms. Timestep: 1647
N 46 12 0 
N 16 75 0 
N 18 74 0 
N 94 89 0 
N 19 73 0 
O 74 19 0 
6
Atoms. Timestep: 1648
N 45 12 0 
N 16 76 0 
N 19 74 0 
N 95 89 0 
N 20 73 0 
O 73 19 0 
6
Atoms. Timestep: 1649
N 44 12 0 
N 15 76 0 
N 18 74 0 
N 96 89 0 
N 19 73 0 
O 74 19 0 
6
Atoms. Timestep: 1650
N 44 11 0 
N 16 76 0 
N 19 74 0 
N 97 89 0 
N 20 73 0 
O 73 19 0 
6
Atoms. Timestep: 1651
N 44 12 0 
N 16 77 0 
N 18 74 0 
N 98 89 0 
N 19 73 0 
O 72 19 0 
6
Atoms. Timestep: 1652
N 44 13 0 
N 15 77 0 
N 17 74 0 
N 99 89 0 
N 18 73 0 
O 73 19 0 
6
Atoms. Timestep: 1653
N 44 12 0 
N 14 77 0 
N 18 74 0 
N 0 89 0 
N 19 73 0 
O 72 19 0 
6
Atoms. Timestep: 1654
N 43 12 0 
N 15 77 0 
N 17 74 0 
N 1 89 0 
N 18 73 0 
O 71 19 0 
6
Atoms. Timestep: 1655
N 43 11 0 
N 14 77 0 
N 16 74 0 
N 2 89 0 
N 17 73 0 
O 72 19 0 
6
Atoms. Timestep: 1656
N 43 12 0 
N 15 77 0 
N 17 74 0 
N 3 89 0 
N 18 73 0 
O 73 19 0 
6
Atoms. Timestep: 1657
N 44 12 0 
N 14 77 0 
N 18 74 0 
N 2 89 0 
N 19 73 0 
O 72 19 0 
6
Atoms. Timestep: 1658
N 44 13 0 
N 13 77 0 
N 17 74 0 
N 3 89 0 
N 18 73 0 
O 71 19 0 
6
Atoms. Timestep: 1659
N 44 12 0 
N 12 77 0 
N 16 74 0 
N 2 89 0 
N 17 73 0 
O 72 19 0 
6
Atoms. Timestep: 1660
N 44 13 0 
N 13 77 0 
N 17 74 0 
N 1 89 0 
N 18 73 0 
O 73 19 0 
6
Atoms. Timestep: 1661
N 44 14 0 
N 14 77 0 
N 18 74 0 
N 2 89 0 
N 19 73 0 
O 74 19 0 
6
Atoms. Timestep: 1662
N 44 15 0 
N 15 77 0 
N 19 74 0 
N 3 89 0 
N 20 73 0 
O 75 19 0 
6
Atoms. Timestep: 1663
N 43 15 0 
N 16 77 0 
N 20 74 0 
N 4 89 0 
N 21 73 0 
O 74 19 0 
6
Atoms. Timestep: 1664
N 44 15 0 
N 17 77 0 
N 19 74 0 
N 5 89 0 
N 20 73 0 
O 73 19 0 
6
Atoms. Timestep: 1665
N 45 15 0 
N 16 77 0 
N 18 74 0 
N 4 89 0 
N 19 73 0 
O 72 19 0 
6
Atoms. Timestep: 1666
N 44 15 0 
N 15 77 0 
N 17 74 0 
N 3 89 0 
N 18 73 0 
O 71 19 0 
6
Atoms. Timestep: 1667
N 43 15 0 
N 14 77 0 
N 16 74 0 
N 2 89 0 
N 17 73 0 
O 70 19 0 
6
Atoms. Timestep: 1668
N 44 15 0 
N 13 77 0 
N 15 74 0 
N 1 89 0 
N 16 73 0 
O 71 19 0 
6
Atoms. Timestep: 1669
N 43 15 0 
N 14 77 0 
N 16 74 0 
N 2 89 0 
N 17 73 0 
O 70 19 0 
6
Atoms. Timestep: 1670
N 42 15 0 
N 13 77 0 
N 15 74 0 
N 1 89 0 
N 16 73 0 
O 69 19 0 
6
Atoms. Timestep: 1671
N 41 15 0 
N 12 77 0 
N 14 74 0 
N 0 89 0 
N 15 73 0 
O 68 19 0 
6
Atoms. Timestep: 1672
N 42 15 0 
N 11 77 0 
N 13 74 0 
N 99 89 0 
N 14 73 0 
O 67 19 0 
6
Atoms. Timestep: 1673
N 42 16 0 
N 10 77 0 
N 12 74 0 
N 98 89 0 
N 13 73 0 
O 68 19 0 
6
Atoms. Timestep: 1674
N 43 16 0 
N 11 77 0 
N 13 74 0 
N 99 89 0 
N 14 73 0 
O 67 19 0 
6
Atoms. Timestep: 1675
N 42 16 0 
N 10 77 0 
N 12 74 0 
N 98 89 0 
N 13 73 0 
O 66 19 0 
6
Atoms. Timestep: 1676
N 42 17 0 
N 9 77 0 
N 11 74 0 
N 97 89 0 
N 12 73 0 
O 65 19 0 
6
Atoms. Timestep: 1677
N 42 16 0 
N 8 77 0 
N 10 74 0 
N 96 89 0 
N 11 73 0 
O 64 19 0 
6
Atoms. Timestep: 1678
N 42 15 0 
N 7 77 0 
N 9 74 0 
N 95 89 0 
N 10 73 0 
O 63 19 0 
6
Atoms. Timestep: 1679
N 41 15 0 
N 6 77 0 
N 8 74 0 
N 94 89 0 
N 9 73 0 
O 64 19 0 
6
Atoms. Timestep: 1680
N 41 16 0 
N 5 77 0 
N 9 74 0 
N 95 89 0 
N 10 73 0 
O 65 19 0 
6
Atoms. Timestep: 1681
N 41 17 0 
N 6 77 0 
N 10 74 0 
N 94 89 0 
N 11 73 0 
O 66 19 0 
6
Atoms. Timestep: 1682
N 41 16 0 
N 7 77 0 
N 11 74 0 
N 95 89 0 
N 12 73 0 
O 67 19 0 
6
Atoms. Timestep: 1683
N 41 15 0 
N 8 77 0 
N 12 74 0 
N 96 89 0 
N 13 73 0 
O 68 19 0 
6
Atoms. Timestep: 1684
N 40 15 0 
N 8 78 0 
N 13 74 0 
N 97 89 0 
N 14 73 0 
O 69 19 0 
6
Atoms. Timestep: 1685
N 41 15 0 
N 9 78 0 
N 14 74 0 
N 98 89 0 
N 15 73 0 
O 70 19 0 
6
Atoms. Timestep: 1686
N 40 15 0 
N 10 78 0 
N 15 74 0 
N 99 89 0 
N 16 73 0 
O 71 19 0 
6
Atoms. Timestep: 1687
N 40 16 0 
N 11 78 0 
N 16 74 0 
N 0 89 0 
N 17 73 0 
O 72 19 0 
6
Atoms. Timestep: 1688
N 40 15 0 
N 12 78 0 
N 17 74 0 
N 1 89 0 
N 18 73 0 
O 71 19 0 
6
Atoms. Timestep: 1689
N 39 15 0 
N 11 78 0 
N 16 74 0 
N 0 89 0 
N 17 73 0 
O 70 19 0 
6
Atoms. Timestep: 1690
N 39 14 0 
N 10 78 0 
N 15 74 0 
N 99 89 0 
N 16 73 0 
O 71 19 0 
6
Atoms. Timestep: 1691
N 40 14 0 
N 11 78 0 
N 16 74 0 
N 0 89 0 
N 17 73 0 
O 72 19 0 
6
Atoms. Timestep: 1692
N 41 14 0 
N 12 78 0 
N 17 74 0 
N 1 89 0 
N 18 73 0 
O 73 19 0 
6
Atoms. Timestep: 1693
N 40 14 0 
N 13 78 0 
N 18 74 0 
N 2 89 0 
N 18 72 0 
O 74 19 0 
6
Atoms. Timestep: 1694
N 41 14 0 
N 14 78 0 
N 19 74 0 
N 3 89 0 
N 19 72 0 
O 73 19 0 
6
Atoms. Timestep: 1695
N 41 13 0 
N 14 79 0 
N 18 74 0 
N 4 89 0 
N 20 72 0 
O 72 19 0 
6
Atoms. Timestep: 1696
N 41 12 0 
N 13 79 0 
N 17 74 0 
N 3 89 0 
N 19 72 0 
O 71 19 0 
6
Atoms. Timestep: 1697
N 42 12 0 
N 12 79 0 
N 16 74 0 
N 2 89 0 
N 18 72 0 
O 70 19 0 
6
Atoms. Timestep: 1698
N 42 11 0 
N 11 79 0 
N 15 74 0 
N 1 89 0 
N 17 72 0 
O 71 19 0 
6
Atoms. Timestep: 1699
N 42 12 0 
N 10 79 0 
N 16 74 0 
N 0 89 0 
N 18 72 0 
O 72 19 0 
6
Atoms. Timestep: 1700
N 42 13 0 
N 11 79 0 
N 17 74 0 
N 1 89 0 
N 19 72 0 
O 73 19 0 
6
Atoms. Timestep: 1701
N 42 12 0 
N 12 79 0 
N 18 74 0 
N 1 88 0 
N 20 72 0 
O 74 19 0 
6
Atoms. Timestep: 1702
N 42 13 0 
N 13 79 0 
N 17 74 0 
N 2 88 0 
N 21 72 0 
O 75 19 0 
6
Atoms. Timestep: 1703
N 42 14 0 
N 14 79 0 
N 18 74 0 
N 3 88 0 
N 22 72 0 
O 74 19 0 
6
Atoms. Timestep: 1704
N 42 15 0 
N 15 79 0 
N 19 74 0 
N 4 88 0 
N 21 72 0 
O 75 19 0 
6
Atoms. Timestep: 1705
N 41 15 0 
N 14 79 0 
N 20 74 0 
N 5 88 0 
N 22 72 0 
O 76 19 0 
6
Atoms. Timestep: 1706
N 41 14 0 
N 15 79 0 
N 21 74 0 
N 6 88 0 
N 23 72 0 
O 77 19 0 
6
Atoms. Timestep: 1707
N 41 15 0 
N 16 79 0 
N 22 74 0 
N 7 88 0 
N 24 72 0 
O 78 19 0 
6
Atoms. Timestep: 1708
N 40 15 0 
N 17 79 0 
N 23 74 0 
N 8 88 0 
N 25 72 0 
O 79 19 0 
6
Atoms. Timestep: 1709
N 41 15 0 
N 18 79 0 
N 24 74 0 
N 9 88 0 
N 26 72 0 
O 80 19 0 
6
Atoms. Timestep: 1710
N 40 15 0 
N 19 79 0 
N 25 74 0 
N 10 88 0 
N 27 72 0 
O 79 19 0 
6
Atoms. Timestep: 1711
N 41 15 0 
N 20 79 0 
N 24 74 0 
N 9 88 0 
N 26 72 0 
O 78 19 0 
6
Atoms. Timestep: 1712
N 42 15 0 
N 19 79 0 
N 23 74 0 
N 10 88 0 
N 25 72 0 
O 77 19 0 
6
Atoms. Timestep: 1713
N 43 15 0 
N 18 79 0 
N 22 74 0 
N 9 88 0 
N 24 72 0 
O 76 19 0 
6
Atoms. Timestep: 1714
N 44 15 0 
N 17 79 0 
N 21 74 0 
N 8 88 0 
N 23 72 0 
O 75 19 0 
6
Atoms. Timestep: 1715
N 44 16 0 
N 16 79 0 
N 21 75 0 
N 7 88 0 
N 22 72 0 
O 74 19 0 
6
Atoms. Timestep: 1716
N 43 16 0 
N 15 79 0 
N 20 75 0 
N 6 88 0 
N 21 72 0 
O 73 19 0 
6
Atoms. Timestep: 1717
N 42 16 0 
N 14 79 0 
N 19 75 0 
N 5 88 0 
N 20 72 0 
O 72 19 0 
6
Atoms. Timestep: 1718
N 43 16 0 
N 13 79 0 
N 18 75 0 
N 4 88 0 
N 19 72 0 
O 73 19 0 
6
Atoms. Timestep: 1719
N 42 16 0 
N 12 79 0 
N 17 75 0 
N 3 88 0 
N 20 72 0 
O 74 19 0 
6
Atoms. Timestep: 1720
N 42 17 0 
N 11 79 0 
N 18 75 0 
N 4 88 0 
N 21 72 0 
O 75 19 0 
6
Atoms. Timestep: 1721
N 43 17 0 
N 12 79 0 
N 19 75 0 
N 5 88 0 
N 22 72 0 
O 76 19 0 
6
Atoms. Timestep: 1722
N 43 18 0 
N 13 79 0 
N 18 75 0 
N 6 88 0 
N 23 72 0 
O 77 19 0 
6
Atoms. Timestep: 1723
N 43 17 0 
N 14 79 0 
N 19 75 0 
N 7 88 0 
N 24 72 0 
O 76 19 0 
6
Atoms. Timestep: 1724
N 44 17 0 
N 15 79 0 
N 20 75 0 
N 8 88 0 
N 23 72 0 
O 77 19 0 
6
Atoms. Timestep: 1725
N 45 17 0 
N 15 80 0 
N 21 75 0 
N 7 88 0 
N 24 72 0 
O 76 19 0 
6
Atoms. Timestep: 1726
N 46 17 0 
N 16 80 0 
N 20 75 0 
N 6 88 0 
N 23 72 0 
O 77 19 0 
6
Atoms. Timestep: 1727
N 46 18 0 
N 15 80 0 
N 21 75 0 
N 7 88 0 
N 24 72 0 
O 76 19 0 
6
Atoms. Timestep: 1728
N 46 17 0 
N 14 80 0 
N 20 75 0 
N 6 88 0 
N 23 72 0 
O 77 19 0 
6
Atoms. Timestep: 1729
N 45 17 0 
N 15 80 0 
N 21 75 0 
N 7 88 0 
N 24 72 0 
O 78 19 0 
6
Atoms. Timestep: 1730
N 45 16 0 
N 16 80 0 
N 22 75 0 
N 8 88 0 
N 25 72 0 
O 79 19 0 
6
Atoms. Timestep: 1731
N 45 15 0 
N 17 80 0 
N 23 75 0 
N 9 88 0 
N 26 72 0 
O 78 19 0 
6
Atoms. Timestep: 1732
N 44 15 0 
N 16 80 0 
N 22 75 0 
N 8 88 0 
N 25 72 0 
O 77 19 0 
6
Atoms. Timestep: 1733
N 45 15 0 
N 15 80 0 
N 21 75 0 
N 7 88 0 
N 24 72 0 
O 78 19 0 
6
Atoms. Timestep: 1734
N 45 14 0 
N 16 80 0 
N 22 75 0 
N 8 88 0 
N 25 72 0 
O 79 19 0 
6
Atoms. Timestep: 1735
N 46 14 0 
N 17 80 0 
N 22 76 0 
N 9 88 0 
N 26 72 0 
O 80 19 0 
6
Atoms. Timestep: 1736
N 46 13 0 
N 18 80 0 
N 23 76 0 
N 10 88 0 
N 27 72 0 
O 81 19 0 
6
Atoms. Timestep: 1737
N 46 12 0 
N 19 80 0 
N 24 76 0 
N 11 88 0 
N 28 72 0 
O 82 19 0 
6
Atoms. Timestep: 1738
N 46 13 0 
N 20 80 0 
N 25 76 0 
N 11 89 0 
N 29 72 0 
O 83 19 0 
6
Atoms. Timestep: 1739
N 47 13 0 
N 21 80 0 
N 26 76 0 
N 12 89 0 
N 30 72 0 
O 84 19 0 
6
Atoms. Timestep: 1740
N 47 14 0 
N 22 80 0 
N 25 76 0 
N 13 89 0 
N 31 72 0 
O 85 19 0 
6
Atoms. Timestep: 1741
N 46 14 0 
N 23 80 0 
N 26 76 0 
N 14 89 0 
N 32 72 0 
O 86 19 0 
6
Atoms. Timestep: 1742
N 45 14 0 
N 24 80 0 
N 27 76 0 
N 15 89 0 
N 33 72 0 
O 85 19 0 
6
Atoms. Timestep: 1743
N 45 13 0 
N 25 80 0 
N 28 76 0 
N 16 89 0 
N 32 72 0 
O 84 19 0 
6
Atoms. Timestep: 1744
N 45 12 0 
N 24 80 0 
N 27 76 0 
N 15 89 0 
N 33 72 0 
O 83 19 0 
6
Atoms. Timestep: 1745
N 45 13 0 
N 23 80 0 
N 26 76 0 
N 14 89 0 
N 32 72 0 
O 84 19 0 
6
Atoms. Timestep: 1746
N 46 13 0 
N 24 80 0 
N 27 76 0 
N 13 89 0 
N 31 72 0 
O 85 19 0 
6
Atoms. Timestep: 1747
N 45 13 0 
N 23 80 0 
N 28 76 0 
N 14 89 0 
N 32 72 0 
O 84 19 0 
6
Atoms. Timestep: 1748
N 45 14 0 
N 22 80 0 
N 27 76 0 
N 13 89 0 
N 31 72 0 
O 85 19 0 
6
Atoms. Timestep: 1749
N 45 15 0 
N 23 80 0 
N 28 76 0 
N 14 89 0 
N 32 72 0 
O 84 19 0 
6
Atoms. Timestep: 1750
N 45 16 0 
N 22 80 0 
N 27 76 0 
N 15 89 0 
N 31 72 0 
O 83 19 0 
6
Atoms. Timestep: 1751
N 44 16 0 
N 21 80 0 
N 26 76 0 
N 14 89 0 
N 30 72 0 
O 82 19 0 
6
Atoms. Timestep: 1752
N 44 17 0 
N 22 80 0 
N 25 76 0 
N 13 89 0 
N 29 72 0 
O 81 19 0 
6
Atoms. Timestep: 1753
N 43 17 0 
N 21 80 0 
N 24 76 0 
N 12 89 0 
N 28 72 0 
O 82 19 0 
6
Atoms. Timestep: 1754
N 44 17 0 
N 22 80 0 
N 25 76 0 
N 13 89 0 
N 29 72 0 
O 83 19 0 
6
Atoms. Timestep: 1755
N 44 16 0 
N 23 80 0 
N 26 76 0 
N 12 89 0 
N 30 72 0 
O 84 19 0 
6
Atoms. Timestep: 1756
N 44 15 0 
N 24 80 0 
N 27 76 0 
N 13 89 0 
N 31 72 0 
O 83 19 0 
6
Atoms. Timestep: 1757
N 43 15 0 
N 23 80 0 
N 26 76 0 
N 14 89 0 
N 30 72 0 
O 84 19 0 
6
Atoms. Timestep: 1758
N 43 16 0 
N 24 80 0 
N 27 76 0 
N 15 89 0 
N 31 72 0 
O 83 19 0 
6
Atoms. Timestep: 1759
N 42 16 0 
N 23 80 0 
N 26 76 0 
N 14 89 0 
N 30 72 0 
O 82 19 0 
6
Atoms. Timestep: 1760
N 41 16 0 
N 22 80 0 
N 25 76 0 
N 13 89 0 
N 29 72 0 
O 81 19 0 
6
Atoms. Timestep: 1761
N 41 17 0 
N 21 80 0 
N 24 76 0 
N 12 89 0 
N 28 72 0 
O 80 19 0 
6
Atoms. Timestep: 1762
N 40 17 0 
N 20 80 0 
N 23 76 0 
N 11 89 0 
N 27 72 0 
O 79 19 0 
6
Atoms. Timestep: 1763
N 39 17 0 
N 19 80 0 
N 22 76 0 
N 10 89 0 
N 26 72 0 
O 78 19 0 
6
Atoms. Timestep: 1764
N 40 17 0 
N 18 80 0 
N 21 76 0 
N 9 89 0 
N 25 72 0 
O 77 19 0 
6
Atoms. Timestep: 1765
N 41 17 0 
N 17 80 0 
N 20 76 0 
N 8 89 0 
N 24 72 0 
O 76 19 0 
6
Atoms. Timestep: 1766
N 42 17 0 
N 16 80 0 
N 19 76 0 
N 7 89 0 
N 23 72 0 
O 75 19 0 
6
Atoms. Timestep: 1767
N 42 16 0 
N 15 80 0 
N 18 76 0 
N 8 89 0 
N 22 72 0 
O 74 19 0 
6
Atoms. Timestep: 1768
N 43 16 0 
N 14 80 0 
N 17 76 0 
N 7 89 0 
N 21 72 0 
O 75 19 0 
6
Atoms. Timestep: 1769
N 43 17 0 
N 15 80 0 
N 18 76 0 
N 6 89 0 
N 22 72 0 
O 74 19 0 
6
Atoms. Timestep: 1770
N 44 17 0 
N 14 80 0 
N 17 76 0 
N 5 89 0 
N 21 72 0 
O 73 19 0 
6
Atoms. Timestep: 1771
N 44 18 0 
N 13 80 0 
N 16 76 0 
N 4 89 0 
N 20 72 0 
O 72 19 0 
6
Atoms. Timestep: 1772
N 44 17 0 
N 12 80 0 
N 15 76 0 
N 3 89 0 
N 19 72 0 
O 73 19 0 
6
Atoms. Timestep: 1773
N 43 17 0 
N 11 80 0 
N 16 76 0 
N 2 89 0 
N 20 72 0 
O 74 19 0 
6
Atoms. Timestep: 1774
N 42 17 0 
N 12 80 0 
N 17 76 0 
N 3 89 0 
N 21 72 0 
O 75 19 0 
6
Atoms. Timestep: 1775
N 43 17 0 
N 13 80 0 
N 18 76 0 
N 4 89 0 
N 22 72 0 
O 74 19 0 
6
Atoms. Timestep: 1776
N 43 16 0 
N 12 80 0 
N 17 76 0 
N 5 89 0 
N 21 72 0 
O 75 19 0 
6
Atoms. Timestep: 1777
N 43 15 0 
N 13 80 0 
N 18 76 0 
N 6 89 0 
N 22 72 0 
O 76 19 0 
6
Atoms. Timestep: 1778
N 44 15 0 
N 14 80 0 
N 19 76 0 
N 5 89 0 
N 23 72 0 
O 77 19 0 
6
Atoms. Timestep: 1779
N 45 15 0 
N 15 80 0 
N 20 76 0 
N 6 89 0 
N 24 72 0 
O 78 19 0 
6
Atoms. Timestep: 1780
N 44 15 0 
N 16 80 0 
N 21 76 0 
N 7 89 0 
N 25 72 0 
O 79 19 0 
6
Atoms. Timestep: 1781
N 45 15 0 
N 17 80 0 
N 22 76 0 
N 8 89 0 
N 26 72 0 
O 80 19 0 
6
Atoms. Timestep: 1782
N 44 15 0 
N 18 80 0 
N 23 76 0 
N 9 89 0 
N 27 72 0 
O 81 19 0 
6
Atoms. Timestep: 1783
N 43 15 0 
N 19 80 0 
N 24 76 0 
N 10 89 0 
N 28 72 0 
O 82 19 0 
6
Atoms. Timestep: 1784
N 43 14 0 
N 20 80 0 
N 25 76 0 
N 11 89 0 
N 29 72 0 
O 81 19 0 
6
Atoms. Timestep: 1785
N 43 15 0 
N 19 80 0 
N 24 76 0 
N 12 89 0 
N 28 72 0 
O 80 19 0 
6
Atoms. Timestep: 1786
N 43 14 0 
N 19 81 0 
N 23 76 0 
N 11 89 0 
N 27 72 0 
O 79 19 0 
6
Atoms. Timestep: 1787
N 42 14 0 
N 18 81 0 
N 22 76 0 
N 10 89 0 
N 26 72 0 
O 78 19 0 
6
Atoms. Timestep: 1788
N 43 14 0 
N 17 81 0 
N 21 76 0 
N 9 89 0 
N 25 72 0 
O 77 19 0 
6
Atoms. Timestep: 1789
N 43 15 0 
N 16 81 0 
N 20 76 0 
N 8 89 0 
N 24 72 0 
O 76 19 0 
6
Atoms. Timestep: 1790
N 43 14 0 
N 15 81 0 
N 20 75 0 
N 7 89 0 
N 23 72 0 
O 75 19 0 
6
Atoms. Timestep: 1791
N 43 15 0 
N 14 81 0 
N 19 75 0 
N 6 89 0 
N 22 72 0 
O 74 19 0 
6
Atoms. Timestep: 1792
N 43 14 0 
N 13 81 0 
N 18 75 0 
N 5 89 0 
N 21 72 0 
O 73 19 0 
6
Atoms. Timestep: 1793
N 43 13 0 
N 12 81 0 
N 17 75 0 
N 4 89 0 
N 20 72 0 
O 72 19 0 
6
Atoms. Timestep: 1794
N 44 13 0 
N 12 80 0 
N 16 75 0 
N 3 89 0 
N 19 72 0 
O 71 19 0 
6
Atoms. Timestep: 1795
N 44 14 0 
N 11 80 0 
N 15 75 0 
N 2 89 0 
N 18 72 0 
O 70 19 0 
6
Atoms. Timestep: 1796
N 44 15 0 
N 10 80 0 
N 14 75 0 
N 1 89 0 
N 17 72 0 
O 69 19 0 
6
Atoms. Timestep: 1797
N 43 15 0 
N 9 80 0 
N 13 75 0 
N 0 89 0 
N 16 72 0 
O 68 19 0 
6
Atoms. Timestep: 1798
N 43 14 0 
N 8 80 0 
N 12 75 0 
N 99 89 0 
N 15 72 0 
O 67 19 0 
6
Atoms. Timestep: 1799
N 44 14 0 
N 7 80 0 
N 11 75 0 
N 98 89 0 
N 14 72 0 
O 68 19 0 
6
Atoms. Timestep: 1800
N 45 14 0 
N 8 80 0 
N 12 75 0 
N 97 89 0 
N 15 72 0 
O 69 19 0 
6
Atoms. Timestep: 1801
N 45 15 0 
N 9 80 0 
N 13 75 0 
N 98 89 0 
N 16 72 0 
O 70 19 0 
6
Atoms. Timestep: 1802
N 45 14 0 
N 10 80 0 
N 14 75 0 
N 99 89 0 
N 17 72 0 
O 69 19 0 
6
Atoms. Timestep: 1803
N 46 14 0 
N 9 80 0 
N 13 75 0 
N 98 89 0 
N 16 72 0 
O 68 19 0 
6
Atoms. Timestep: 1804
N 47 14 0 
N 8 80 0 
N 12 75 0 
N 97 89 0 
N 15 72 0 
O 67 19 0 
6
Atoms. Timestep: 1805
N 46 14 0 
N 7 80 0 
N 11 75 0 
N 98 89 0 
N 14 72 0 
O 66 19 0 
6
Atoms. Timestep: 1806
N 46 13 0 
N 6 80 0 
N 10 75 0 
N 97 89 0 
N 13 72 0 
O 65 19 0 
6
Atoms. Timestep: 1807
N 47 13 0 
N 5 80 0 
N 9 75 0 
N 96 89 0 
N 12 72 0 
O 64 19 0 
6
Atoms. Timestep: 1808
N 48 13 0 
N 4 80 0 
N 9 76 0 
N 95 89 0 
N 11 72 0 
O 63 19 0 
6
Atoms. Timestep: 1809
N 48 12 0 
N 3 80 0 
N 8 76 0 
N 94 89 0 
N 10 72 0 
O 62 19 0 
6
Atoms. Timestep: 1810
N 48 11 0 
N 2 80 0 
N 7 76 0 
N 93 89 0 
N 9 72 0 
O 61 19 0 
6
Atoms. Timestep: 1811
N 48 10 0 
N 1 80 0 
N 6 76 0 
N 92 89 0 
N 8 72 0 
O 60 19 0 
6
Atoms. Timestep: 1812
N 48 9 0 
N 0 80 0 
N 5 76 0 
N 91 89 0 
N 9 72 0 
O 59 19 0 
6
Atoms. Timestep: 1813
N 48 10 0 
N 99 80 0 
N 4 76 0 
N 90 89 0 
N 9 71 0 
O 60 19 0 
6
Atoms. Timestep: 1814
N 48 11 0 
N 98 80 0 
N 3 76 0 
N 91 89 0 
N 8 71 0 
O 59 19 0 
6
Atoms. Timestep: 1815
N 48 10 0 
N 97 80 0 
N 2 76 0 
N 90 89 0 
N 7 71 0 
O 60 19 0 
6
Atoms. Timestep: 1816
N 47 10 0 
N 98 80 0 
N 1 76 0 
N 91 89 0 
N 8 71 0 
O 59 19 0 
6
Atoms. Timestep: 1817
N 46 10 0 
N 99 80 0 
N 2 76 0 
N 90 89 0 
N 7 71 0 
O 58 19 0 
6
Atoms. Timestep: 1818
N 46 11 0 
N 98 80 0 
N 1 76 0 
N 89 89 0 
N 6 71 0 
O 59 19 0 
6
Atoms. Timestep: 1819
N 46 10 0 
N 99 80 0 
N 2 76 0 
N 88 89 0 
N 7 71 0 
O 58 19 0 
6
Atoms. Timestep: 1820
N 46 9 0 
N 98 80 0 
N 1 76 0 
N 87 89 0 
N 6 71 0 
O 59 19 0 
6
Atoms. Timestep: 1821
N 45 9 0 
N 97 80 0 
N 2 76 0 
N 87 88 0 
N 7 71 0 
O 58 19 0 
6
Atoms. Timestep: 1822
N 45 8 0 
N 98 80 0 
N 1 76 0 
N 88 88 0 
N 6 71 0 
O 57 19 0 
6
Atoms. Timestep: 1823
N 45 7 0 
N 97 80 0 
N 0 76 0 
N 89 88 0 
N 5 71 0 
O 56 19 0 
6
Atoms. Timestep: 1824
N 46 7 0 
N 96 80 0 
N 99 76 0 
N 88 88 0 
N 4 71 0 
O 57 19 0 
6
Atoms. Timestep: 1825
N 45 7 0 
N 95 80 0 
N 0 76 0 
N 89 88 0 
N 5 71 0 
O 58 19 0 
6
Atoms. Timestep: 1826
N 44 7 0 
N 96 80 0 
N 1 76 0 
N 88 88 0 
N 6 71 0 
O 57 19 0 
6
Atoms. Timestep: 1827
N 44 8 0 
N 95 80 0 
N 0 76 0 
N 87 88 0 
N 5 71 0 
O 58 19 0 
6
Atoms. Timestep: 1828
N 44 7 0 
N 96 80 0 
N 1 76 0 
N 88 88 0 
N 6 71 0 
O 59 19 0 
6
Atoms. Timestep: 1829
N 44 8 0 
N 97 80 0 
N 2 76 0 
N 89 88 0 
N 7 71 0 
O 60 19 0 
6
Atoms. Timestep: 1830
N 44 9 0 
N 98 80 0 
N 3 76 0 
N 90 88 0 
N 8 71 0 
O 61 19 0 
6
Atoms. Timestep: 1831
N 44 8 0 
N 99 80 0 
N 2 76 0 
N 91 88 0 
N 9 71 0 
O 62 19 0 
6
Atoms. Timestep: 1832
N 45 8 0 
N 0 80 0 
N 3 76 0 
N 92 88 0 
N 10 71 0 
O 61 19 0 
6
Atoms. Timestep: 1833
N 44 8 0 
N 1 80 0 
N 4 76 0 
N 91 88 0 
N 9 71 0 
O 62 19 0 
6
Atoms. Timestep: 1834
N 44 7 0 
N 2 80 0 
N 5 76 0 
N 92 88 0 
N 10 71 0 
O 63 19 0 
6
Atoms. Timestep: 1835
N 44 6 0 
N 3 80 0 
N 6 76 0 
N 93 88 0 
N 11 71 0 
O 62 19 0 
6
Atoms. Timestep: 1836
N 45 6 0 
N 2 80 0 
N 5 76 0 
N 92 88 0 
N 10 71 0 
O 63 19 0 
6
Atoms. Timestep: 1837
N 45 7 0 
N 1 80 0 
N 6 76 0 
N 93 88 0 
N 11 71 0 
O 64 19 0 
6
Atoms. Timestep: 1838
N 45 6 0 
N 2 80 0 
N 7 76 0 
N 94 88 0 
N 12 71 0 
O 65 19 0 
6
Atoms. Timestep: 1839
N 46 6 0 
N 3 80 0 
N 8 76 0 
N 95 88 0 
N 13 71 0 
O 66 19 0 
6
Atoms. Timestep: 1840
N 45 6 0 
N 4 80 0 
N 9 76 0 
N 96 88 0 
N 14 71 0 
O 67 19 0 
6
Atoms. Timestep: 1841
N 45 5 0 
N 5 80 0 
N 10 76 0 
N 97 88 0 
N 15 71 0 
O 68 19 0 
6
Atoms. Timestep: 1842
N 45 4 0 
N 6 80 0 
N 11 76 0 
N 98 88 0 
N 16 71 0 
O 69 19 0 
6
Atoms. Timestep: 1843
N 46 4 0 
N 7 80 0 
N 12 76 0 
N 99 88 0 
N 17 71 0 
O 70 19 0 
6
Atoms. Timestep: 1844
N 47 4 0 
N 8 80 0 
N 13 76 0 
N 0 88 0 
N 17 70 0 
O 71 19 0 
6
Atoms. Timestep: 1845
N 47 3 0 
N 9 80 0 
N 14 76 0 
N 1 88 0 
N 18 70 0 
O 72 19 0 
6
Atoms. Timestep: 1846
N 46 3 0 
N 10 80 0 
N 15 76 0 
N 2 88 0 
N 19 70 0 
O 73 19 0 
6
Atoms. Timestep: 1847
N 45 3 0 
N 11 80 0 
N 16 76 0 
N 3 88 0 
N 20 70 0 
O 74 19 0 
6
Atoms. Timestep: 1848
N 44 3 0 
N 12 80 0 
N 17 76 0 
N 4 88 0 
N 21 70 0 
O 75 19 0 
6
Atoms. Timestep: 1849
N 44 2 0 
N 13 80 0 
N 18 76 0 
N 5 88 0 
N 22 70 0 
O 76 19 0 
6
Atoms. Timestep: 1850
N 45 2 0 
N 14 80 0 
N 19 76 0 
N 6 88 0 
N 23 70 0 
O 75 19 0 
6
Atoms. Timestep: 1851
N 46 2 0 
N 13 80 0 
N 18 76 0 
N 5 88 0 
N 24 70 0 
O 74 19 0 
6
Atoms. Timestep: 1852
N 47 2 0 
N 14 80 0 
N 17 76 0 
N 6 88 0 
N 24 69 0 
O 73 19 0 
6
Atoms. Timestep: 1853
N 47 3 0 
N 13 80 0 
N 16 76 0 
N 5 88 0 
N 25 69 0 
O 73 18 0 
6
Atoms. Timestep: 1854
N 47 2 0 
N 12 80 0 
N 15 76 0 
N 4 88 0 
N 25 68 0 
O 73 17 0 
6
Atoms. Timestep: 1855
N 48 2 0 
N 11 80 0 
N 14 76 0 
N 3 88 0 
N 26 68 0 
O 72 17 0 
6
Atoms. Timestep: 1856
N 48 1 0 
N 10 80 0 
N 13 76 0 
N 2 88 0 
N 27 68 0 
O 73 17 0 
6
Atoms. Timestep: 1857
N 48 0 0 
N 11 80 0 
N 13 75 0 
N 1 88 0 
N 28 68 0 
O 74 17 0 
6
Atoms. Timestep: 1858
N 48 99 0 
N 10 80 0 
N 14 75 0 
N 2 88 0 
N 29 68 0 
O 75 17 0 
6
Atoms. Timestep: 1859
N 48 0 0 
N 11 80 0 
N 15 75 0 
N 3 88 0 
N 30 68 0 
O 76 17 0 
6
Atoms. Timestep: 1860
N 48 1 0 
N 12 80 0 
N 16 75 0 
N 4 88 0 
N 31 68 0 
O 77 17 0 
6
Atoms. Timestep: 1861
N 47 1 0 
N 11 80 0 
N 17 75 0 
N 5 88 0 
N 32 68 0 
O 78 17 0 
6
Atoms. Timestep: 1862
N 47 2 0 
N 12 80 0 
N 18 75 0 
N 6 88 0 
N 33 68 0 
O 79 17 0 
6
Atoms. Timestep: 1863
N 46 2 0 
N 13 80 0 
N 19 75 0 
N 7 88 0 
N 34 68 0 
O 80 17 0 
6
Atoms. Timestep: 1864
N 47 2 0 
N 14 80 0 
N 20 75 0 
N 8 88 0 
N 35 68 0 
O 81 17 0 
6
Atoms. Timestep: 1865
N 46 2 0 
N 15 80 0 
N 21 75 0 
N 9 88 0 
N 36 68 0 
O 82 17 0 
6
Atoms. Timestep: 1866
N 47 2 0 
N 16 80 0 
N 22 75 0 
N 10 88 0 
N 37 68 0 
O 83 17 0 
6
Atoms. Timestep: 1867
N 47 1 0 
N 17 80 0 
N 23 75 0 
N 11 88 0 
N 38 68 0 
O 84 17 0 
6
Atoms. Timestep: 1868
N 48 1 0 
N 18 80 0 
N 24 75 0 
N 12 88 0 
N 39 68 0 
O 85 17 0 
6
Atoms. Timestep: 1869
N 48 2 0 
N 19 80 0 
N 25 75 0 
N 13 88 0 
N 40 68 0 
O 86 17 0 
6
Atoms. Timestep: 1870
N 47 2 0 
N 20 80 0 
N 26 75 0 
N 14 88 0 
N 41 68 0 
O 87 17 0 
6
Atoms. Timestep: 1871
N 47 3 0 
N 21 80 0 
N 26 76 0 
N 15 88 0 
N 42 68 0 
O 88 17 0 
6
Atoms. Timestep: 1872
N 46 3 0 
N 22 80 0 
N 27 76 0 
N 16 88 0 
N 43 68 0 
O 89 17 0 
6
Atoms. Timestep: 1873
N 45 3 0 
N 23 80 0 
N 28 76 0 
N 17 88 0 
N 44 68 0 
O 90 17 0 
6
Atoms. Timestep: 1874
N 46 3 0 
N 24 80 0 
N 29 76 0 
N 18 88 0 
N 45 68 0 
O 91 17 0 
6
Atoms. Timestep: 1875
N 45 3 0 
N 25 80 0 
N 30 76 0 
N 19 88 0 
N 46 68 0 
O 92 17 0 
6
Atoms. Timestep: 1876
N 45 2 0 
N 26 80 0 
N 31 76 0 
N 20 88 0 
N 47 68 0 
O 93 17 0 
6
Atoms. Timestep: 1877
N 45 1 0 
N 27 80 0 
N 32 76 0 
N 21 88 0 
N 48 68 0 
O 94 17 0 
6
Atoms. Timestep: 1878
N 46 1 0 
N 28 80 0 
N 33 76 0 
N 22 88 0 
N 49 68 0 
O 95 17 0 
6
Atoms. Timestep: 1879
N 47 1 0 
N 27 80 0 
N 34 76 0 
N 23 88 0 
N 50 68 0 
O 96 17 0 
6
Atoms. Timestep: 1880
N 46 1 0 
N 28 80 0 
N 35 76 0 
N 24 88 0 
N 51 68 0 
O 97 17 0 
6
Atoms. Timestep: 1881
N 46 0 0 
N 29 80 0 
N 36 76 0 
N 25 88 0 
N 52 68 0 
O 98 17 0 
6
Atoms. Timestep: 1882
N 45 0 0 
N 30 80 0 
N 37 76 0 
N 26 88 0 
N 53 68 0 
O 99 17 0 
6
Atoms. Timestep: 1883
N 45 1 0 
N 31 80 0 
N 38 76 0 
N 27 88 0 
N 54 68 0 
O 0 17 0 
6
Atoms. Timestep: 1884
N 45 0 0 
N 32 80 0 
N 39 76 0 
N 28 88 0 
N 55 68 0 
O 1 17 0 
6
Atoms. Timestep: 1885
N 45 99 0 
N 33 80 0 
N 40 76 0 
N 29 88 0 
N 56 68 0 
O 2 17 0 
6
Atoms. Timestep: 1886
N 45 0 0 
N 34 80 0 
N 41 76 0 
N 30 88 0 
N 57 68 0 
O 3 17 0 
6
Atoms. Timestep: 1887
N 44 0 0 
N 35 80 0 
N 42 76 0 
N 31 88 0 
N 58 68 0 
O 4 17 0 
6
Atoms. Timestep: 1888
N 44 99 0 
N 36 80 0 
N 43 76 0 
N 32 88 0 
N 59 68 0 
O 5 17 0 
6
Atoms. Timestep: 1889
N 45 99 0 
N 37 80 0 
N 44 76 0 
N 33 88 0 
N 60 68 0 
O 6 17 0 
6
Atoms. Timestep: 1890
N 45 0 0 
N 38 80 0 
N 44 75 0 
N 34 88 0 
N 61 68 0 
O 7 17 0 
6
Atoms. Timestep: 1891
N 45 1 0 
N 39 80 0 
N 45 75 0 
N 35 88 0 
N 62 68 0 
O 8 17 0 
6
Atoms. Timestep: 1892
N 44 1 0 
N 40 80 0 
N 46 75 0 
N 36 88 0 
N 63 68 0 
O 9 17 0 
6
Atoms. Timestep: 1893
N 44 0 0 
N 41 80 0 
N 47 75 0 
N 37 88 0 
N 64 68 0 
O 10 17 0 
6
Atoms. Timestep: 1894
N 43 0 0 
N 42 80 0 
N 48 75 0 
N 38 88 0 
N 64 69 0 
O 11 17 0 
6
Atoms. Timestep: 1895
N 42 0 0 
N 43 80 0 
N 49 75 0 
N 39 88 0 
N 65 69 0 
O 12 17 0 
6
Atoms. Timestep: 1896
N 43 0 0 
N 44 80 0 
N 50 75 0 
N 40 88 0 
N 66 69 0 
O 13 17 0 
6
Atoms. Timestep: 1897
N 43 99 0 
N 45 80 0 
N 51 75 0 
N 41 88 0 
N 67 69 0 
O 14 17 0 
6
Atoms. Timestep: 1898
N 43 0 0 
N 46 80 0 
N 52 75 0 
N 42 88 0 
N 68 69 0 
O 15 17 0 
6
Atoms. Timestep: 1899
N 43 99 0 
N 47 80 0 
N 53 75 0 
N 43 88 0 
N 69 69 0 
O 16 17 0 
6
Atoms. Timestep: 1900
N 44 99 0 
N 48 80 0 
N 54 75 0 
N 44 88 0 
N 70 69 0 
O 17 17 0 
6
Atoms. Timestep: 1901
N 45 99 0 
N 49 80 0 
N 55 75 0 
N 45 88 0 
N 71 69 0 
O 18 17 0 
6
Atoms. Timestep: 1902
N 45 0 0 
N 50 80 0 
N 56 75 0 
N 46 88 0 
N 72 69 0 
O 19 17 0 
6
Atoms. Timestep: 1903
N 45 1 0 
N 51 80 0 
N 57 75 0 
N 47 88 0 
N 73 69 0 
O 20 17 0 
6
Atoms. Timestep: 1904
N 44 1 0 
N 52 80 0 
N 58 75 0 
N 48 88 0 
N 74 69 0 
O 21 17 0 
6
Atoms. Timestep: 1905
N 45 1 0 
N 53 80 0 
N 59 75 0 
N 49 88 0 
N 75 69 0 
O 22 17 0 
6
Atoms. Timestep: 1906
N 46 1 0 
N 54 80 0 
N 60 75 0 
N 50 88 0 
N 76 69 0 
O 23 17 0 
6
Atoms. Timestep: 1907
N 45 1 0 
N 55 80 0 
N 61 75 0 
N 51 88 0 
N 77 69 0 
O 24 17 0 
6
Atoms. Timestep: 1908
N 45 0 0 
N 56 80 0 
N 62 75 0 
N 52 88 0 
N 78 69 0 
O 25 17 0 
6
Atoms. Timestep: 1909
N 45 1 0 
N 57 80 0 
N 63 75 0 
N 53 88 0 
N 79 69 0 
O 26 17 0 
6
Atoms. Timestep: 1910
N 44 1 0 
N 56 80 0 
N 64 75 0 
N 54 88 0 
N 80 69 0 
O 27 17 0 
6
Atoms. Timestep: 1911
N 44 2 0 
N 56 79 0 
N 65 75 0 
N 55 88 0 
N 81 69 0 
O 28 17 0 
6
Atoms. Timestep: 1912
N 44 3 0 
N 57 79 0 
N 66 75 0 
N 56 88 0 
N 82 69 0 
O 29 17 0 
6
Atoms. Timestep: 1913
N 44 2 0 
N 58 79 0 
N 67 75 0 
N 57 88 0 
N 83 69 0 
O 30 17 0 
6
Atoms. Timestep: 1914
N 43 2 0 
N 59 79 0 
N 68 75 0 
N 58 88 0 
N 84 69 0 
O 31 17 0 
6
Atoms. Timestep: 1915
N 44 2 0 
N 60 79 0 
N 69 75 0 
N 59 88 0 
N 85 69 0 
O 32 17 0 
6
Atoms. Timestep: 1916
N 44 1 0 
N 61 79 0 
N 68 75 0 
N 60 88 0 
N 86 69 0 
O 33 17 0 
6
Atoms. Timestep: 1917
N 44 2 0 
N 62 79 0 
N 69 75 0 
N 61 88 0 
N 87 69 0 
O 34 17 0 
6
Atoms. Timestep: 1918
N 43 2 0 
N 63 79 0 
N 70 75 0 
N 62 88 0 
N 88 69 0 
O 35 17 0 
6
Atoms. Timestep: 1919
N 43 3 0 
N 64 79 0 
N 71 75 0 
N 63 88 0 
N 89 69 0 
O 36 17 0 
6
Atoms. Timestep: 1920
N 44 3 0 
N 65 79 0 
N 72 75 0 
N 64 88 0 
N 90 69 0 
O 37 17 0 
6
Atoms. Timestep: 1921
N 44 2 0 
N 66 79 0 
N 73 75 0 
N 65 88 0 
N 91 69 0 
O 38 17 0 
6
Atoms. Timestep: 1922
N 45 2 0 
N 66 78 0 
N 74 75 0 
N 66 88 0 
N 92 69 0 
O 39 17 0 
6
Atoms. Timestep: 1923
N 45 3 0 
N 67 78 0 
N 75 75 0 
N 67 88 0 
N 93 69 0 
O 40 17 0 
6
Atoms. Timestep: 1924
N 46 3 0 
N 68 78 0 
N 76 75 0 
N 68 88 0 
N 94 69 0 
O 41 17 0 
6
Atoms. Timestep: 1925
N 46 4 0 
N 69 78 0 
N 77 75 0 
N 69 88 0 
N 95 69 0 
O 42 17 0 
6
Atoms. Timestep: 1926
N 46 3 0 
N 70 78 0 
N 78 75 0 
N 70 88 0 
N 96 69 0 
O 43 17 0 
6
Atoms. Timestep: 1927
N 45 3 0 
N 71 78 0 
N 79 75 0 
N 71 88 0 
N 97 69 0 
O 44 17 0 
6
Atoms. Timestep: 1928
N 44 3 0 
N 72 78 0 
N 80 75 0 
N 72 88 0 
N 98 69 0 
O 45 17 0 
6
Atoms. Timestep: 1929
N 43 3 0 
N 73 78 0 
N 81 75 0 
N 73 88 0 
N 99 69 0 
O 46 17 0 
6
Atoms. Timestep: 1930
N 44 3 0 
N 74 78 0 
N 82 75 0 
N 74 88 0 
N 0 69 0 
O 47 17 0 
6
Atoms. Timestep: 1931
N 43 3 0 
N 73 78 0 
N 83 75 0 
N 75 88 0 
N 1 69 0 
O 48 17 0 
6
Atoms. Timestep: 1932
N 44 3 0 
N 74 78 0 
N 84 75 0 
N 76 88 0 
N 2 69 0 
O 49 17 0 
6
Atoms. Timestep: 1933
N 43 3 0 
N 75 78 0 
N 85 75 0 
N 77 88 0 
N 3 69 0 
O 50 17 0 
6
Atoms. Timestep: 1934
N 44 3 0 
N 76 78 0 
N 86 75 0 
N 78 88 0 
N 2 69 0 
O 51 17 0 
6
Atoms. Timestep: 1935
N 45 3 0 
N 77 78 0 
N 87 75 0 
N 79 88 0 
N 2 68 0 
O 52 17 0 
6
Atoms. Timestep: 1936
N 45 2 0 
N 78 78 0 
N 88 75 0 
N 80 88 0 
N 1 68 0 
O 51 17 0 
6
Atoms. Timestep: 1937
N 45 1 0 
N 79 78 0 
N 89 75 0 
N 81 88 0 
N 1 67 0 
O 50 17 0 
6
Atoms. Timestep: 1938
N 46 1 0 
N 80 78 0 
N 90 75 0 
N 80 88 0 
N 1 68 0 
O 49 17 0 
6
Atoms. Timestep: 1939
N 45 1 0 
N 81 78 0 
N 91 75 0 
N 79 88 0 
N 2 68 0 
O 50 17 0 
6
Atoms. Timestep: 1940
N 44 1 0 
N 82 78 0 
N 92 75 0 
N 80 88 0 
N 3 68 0 
O 49 17 0 
6
Atoms. Timestep: 1941
N 45 1 0 
N 83 78 0 
N 91 75 0 
N 79 88 0 
N 4 68 0 
O 48 17 0 
6
Atoms. Timestep: 1942
N 45 2 0 
N 84 78 0 
N 90 75 0 
N 78 88 0 
N 5 68 0 
O 49 17 0 
6
Atoms. Timestep: 1943
N 45 1 0 
N 85 78 0 
N 91 75 0 
N 78 87 0 
N 6 68 0 
O 48 17 0 
6
Atoms. Timestep: 1944
N 45 2 0 
N 86 78 0 
N 90 75 0 
N 79 87 0 
N 7 68 0 
O 47 17 0 
6
Atoms. Timestep: 1945
N 45 3 0 
N 87 78 0 
N 89 75 0 
N 78 87 0 
N 8 68 0 
O 46 17 0 
6
Atoms. Timestep: 1946
N 44 3 0 
N 86 78 0 
N 88 75 0 
N 77 87 0 
N 9 68 0 
O 47 17 0 
6
Atoms. Timestep: 1947
N 43 3 0 
N 85 78 0 
N 89 75 0 
N 76 87 0 
N 10 68 0 
O 48 17 0 
6
Atoms. Timestep: 1948
N 43 4 0 
N 86 78 0 
N 90 75 0 
N 77 87 0 
N 11 68 0 
O 49 17 0 
6
Atoms. Timestep: 1949
N 43 5 0 
N 87 78 0 
N 91 75 0 
N 78 87 0 
N 12 68 0 
O 50 17 0 
6
Atoms. Timestep: 1950
N 43 6 0 
N 86 78 0 
N 92 75 0 
N 79 87 0 
N 13 68 0 
O 51 17 0 
6
Atoms. Timestep: 1951
N 43 7 0 
N 87 78 0 
N 93 75 0 
N 80 87 0 
N 14 68 0 
O 52 17 0 
6
Atoms. Timestep: 1952
N 43 8 0 
N 88 78 0 
N 94 75 0 
N 81 87 0 
N 15 68 0 
O 53 17 0 
6
Atoms. Timestep: 1953
N 42 8 0 
N 89 78 0 
N 95 75 0 
N 82 87 0 
N 16 68 0 
O 54 17 0 
6
Atoms. Timestep: 1954
N 42 9 0 
N 90 78 0 
N 96 75 0 
N 82 88 0 
N 17 68 0 
O 55 17 0 
6
Atoms. Timestep: 1955
N 42 8 0 
N 91 78 0 
N 97 75 0 
N 83 88 0 
N 18 68 0 
O 54 17 0 
6
Atoms. Timestep: 1956
N 41 8 0 
N 92 78 0 
N 96 75 0 
N 82 88 0 
N 19 68 0 
O 55 17 0 
6
Atoms. Timestep: 1957
N 41 7 0 
N 93 78 0 
N 97 75 0 
N 83 88 0 
N 20 68 0 
O 56 17 0 
6
Atoms. Timestep: 1958
N 41 6 0 
N 94 78 0 
N 98 75 0 
N 84 88 0 
N 21 68 0 
O 57 17 0 
6
Atoms. Timestep: 1959
N 41 5 0 
N 95 78 0 
N 99 75 0 
N 85 88 0 
N 22 68 0 
O 58 17 0 
6
Atoms. Timestep: 1960
N 41 4 0 
N 96 78 0 
N 0 75 0 
N 86 88 0 
N 23 68 0 
O 59 17 0 
6
Atoms. Timestep: 1961
N 42 4 0 
N 97 78 0 
N 1 75 0 
N 87 88 0 
N 24 68 0 
O 60 17 0 
6
Atoms. Timestep: 1962
N 41 4 0 
N 98 78 0 
N 2 75 0 
N 88 88 0 
N 25 68 0 
O 61 17 0 
6
Atoms. Timestep: 1963
N 41 5 0 
N 99 78 0 
N 3 75 0 
N 89 88 0 
N 26 68 0 
O 62 17 0 
6
Atoms. Timestep: 1964
N 41 4 0 
N 0 78 0 
N 4 75 0 
N 90 88 0 
N 27 68 0 
O 63 17 0 
6
Atoms. Timestep: 1965
N 40 4 0 
N 1 78 0 
N 5 75 0 
N 91 88 0 
N 28 68 0 
O 64 17 0 
6
Atoms. Timestep: 1966
N 40 3 0 
N 2 78 0 
N 6 75 0 
N 92 88 0 
N 29 68 0 
O 65 17 0 
6
Atoms. Timestep: 1967
N 40 2 0 
N 3 78 0 
N 7 75 0 
N 93 88 0 
N 30 68 0 
O 66 17 0 
6
Atoms. Timestep: 1968
N 41 2 0 
N 4 78 0 
N 8 75 0 
N 94 88 0 
N 31 68 0 
O 67 17 0 
6
Atoms. Timestep: 1969
N 40 2 0 
N 5 78 0 
N 9 75 0 
N 95 88 0 
N 32 68 0 
O 68 17 0 
6
Atoms. Timestep: 1970
N 40 3 0 
N 6 78 0 
N 10 75 0 
N 96 88 0 
N 33 68 0 
O 69 17 0 
6
Atoms. Timestep: 1971
N 40 2 0 
N 7 78 0 
N 11 75 0 
N 97 88 0 
N 34 68 0 
O 70 17 0 
6
Atoms. Timestep: 1972
N 39 2 0 
N 8 78 0 
N 12 75 0 
N 98 88 0 
N 35 68 0 
O 71 17 0 
6
Atoms. Timestep: 1973
N 39 1 0 
N 9 78 0 
N 13 75 0 
N 99 88 0 
N 35 67 0 
O 70 17 0 
6
Atoms. Timestep: 1974
N 39 0 0 
N 8 78 0 
N 12 75 0 
N 0 88 0 
N 36 67 0 
O 70 16 0 
6
Atoms. Timestep: 1975
N 40 0 0 
N 7 78 0 
N 11 75 0 
N 99 88 0 
N 37 67 0 
O 71 16 0 
6
Atoms. Timestep: 1976
N 39 0 0 
N 8 78 0 
N 12 75 0 
N 0 88 0 
N 38 67 0 
O 72 16 0 
6
Atoms. Timestep: 1977
N 39 99 0 
N 9 78 0 
N 13 75 0 
N 1 88 0 
N 39 67 0 
O 73 16 0 
6
Atoms. Timestep: 1978
N 40 99 0 
N 10 78 0 
N 12 75 0 
N 2 88 0 
N 40 67 0 
O 72 16 0 
6
Atoms. Timestep: 1979
N 40 0 0 
N 9 78 0 
N 13 75 0 
N 1 88 0 
N 41 67 0 
O 73 16 0 
6
Atoms. Timestep: 1980
N 40 99 0 
N 10 78 0 
N 14 75 0 
N 2 88 0 
N 42 67 0 
O 72 16 0 
6
Atoms. Timestep: 1981
N 40 98 0 
N 11 78 0 
N 13 75 0 
N 1 88 0 
N 43 67 0 
O 71 16 0 
6
Atoms. Timestep: 1982
N 40 97 0 
N 10 78 0 
N 12 75 0 
N 0 88 0 
N 44 67 0 
O 70 16 0 
6
Atoms. Timestep: 1983
N 40 98 0 
N 9 78 0 
N 11 75 0 
N 99 88 0 
N 45 67 0 
O 71 16 0 
6
Atoms. Timestep: 1984
N 39 98 0 
N 8 78 0 
N 12 75 0 
N 0 88 0 
N 46 67 0 
O 72 16 0 
6
Atoms. Timestep: 1985
N 40 98 0 
N 9 78 0 
N 13 75 0 
N 1 88 0 
N 47 67 0 
O 71 16 0 
6
Atoms. Timestep: 1986
N 39 98 0 
N 8 78 0 
N 12 75 0 
N 0 88 0 
N 48 67 0 
O 72 16 0 
6
Atoms. Timestep: 1987
N 39 99 0 
N 9 78 0 
N 13 75 0 
N 1 88 0 
N 49 67 0 
O 71 16 0 
6
Atoms. Timestep: 1988
N 39 98 0 
N 10 78 0 
N 12 75 0 
N 0 88 0 
N 50 67 0 
O 72 16 0 
6
Atoms. Timestep: 1989
N 40 98 0 
N 9 78 0 
N 13 75 0 
N 99 88 0 
N 51 67 0 
O 73 16 0 
6
Atoms. Timestep: 1990
N 40 99 0 
N 10 78 0 
N 14 75 0 
N 0 88 0 
N 52 67 0 
O 74 16 0 
6
Atoms. Timestep: 1991
N 39 99 0 
N 11 78 0 
N 15 75 0 
N 1 88 0 
N 53 67 0 
O 75 16 0 
6
Atoms. Timestep: 1992
N 38 99 0 
N 12 78 0 
N 16 75 0 
N 2 88 0 
N 54 67 0 
O 76 16 0 
6
Atoms. Timestep: 1993
N 38 98 0 
N 13 78 0 
N 17 75 0 
N 2 89 0 
N 55 67 0 
O 77 16 0 
6
Atoms. Timestep: 1994
N 37 98 0 
N 14 78 0 
N 18 75 0 
N 3 89 0 
N 56 67 0 
O 78 16 0 
6
Atoms. Timestep: 1995
N 37 97 0 
N 15 78 0 
N 19 75 0 
N 4 89 0 
N 57 67 0 
O 79 16 0 
6
Atoms. Timestep: 1996
N 37 96 0 
N 16 78 0 
N 20 75 0 
N 5 89 0 
N 58 67 0 
O 80 16 0 
6
Atoms. Timestep: 1997
N 37 95 0 
N 17 78 0 
N 21 75 0 
N 6 89 0 
N 59 67 0 
O 81 16 0 
6
Atoms. Timestep: 1998
N 36 95 0 
N 18 78 0 
N 22 75 0 
N 7 89 0 
N 60 67 0 
O 82 16 0 
6
Atoms. Timestep: 1999
N 36 94 0 
N 19 78 0 
N 23 75 0 
N 8 89 0 
N 61 67 0 
O 83 16 0 
6
Atoms. Timestep: 2000
N 35 94 0 
N 20 78 0 
N 24 75 0 
N 9 89 0 
N 62 67 0 
O 84 16 0 
6
Atoms. Timestep: 2001
N 36 94 0 
N 21 78 0 
N 25 75 0 
N 10 89 0 
N 63 67 0 
O 83 16 0 
6
Atoms. Timestep: 2002
N 36 93 0 
N 22 78 0 
N 24 75 0 
N 11 89 0 
N 64 67 0 
O 84 16 0 
6
Atoms. Timestep: 2003
N 35 93 0 
N 21 78 0 
N 25 75 0 
N 12 89 0 
N 65 67 0 
O 83 16 0 
6
Atoms. Timestep: 2004
N 36 93 0 
N 22 78 0 
N 24 75 0 
N 11 89 0 
N 66 67 0 
O 82 16 0 
6
Atoms. Timestep: 2005
N 36 94 0 
N 22 79 0 
N 23 75 0 
N 10 89 0 
N 67 67 0 
O 81 16 0 
6
Atoms. Timestep: 2006
N 35 94 0 
N 21 79 0 
N 22 75 0 
N 9 89 0 
N 68 67 0 
O 80 16 0 
6
Atoms. Timestep: 2007
N 36 94 0 
N 20 79 0 
N 21 75 0 
N 8 89 0 
N 69 67 0 
O 79 16 0 
6
Atoms. Timestep: 2008
N 36 93 0 
N 19 79 0 
N 20 75 0 
N 7 89 0 
N 70 67 0 
O 80 16 0 
6
Atoms. Timestep: 2009
N 36 94 0 
N 18 79 0 
N 21 75 0 
N 8 89 0 
N 70 68 0 
O 81 16 0 
6
Atoms. Timestep: 2010
N 37 94 0 
N 17 79 0 
N 22 75 0 
N 7 89 0 
N 71 68 0 
O 82 16 0 
6
Atoms. Timestep: 2011
N 36 94 0 
N 18 79 0 
N 23 75 0 
N 8 89 0 
N 72 68 0 
O 81 16 0 
6
Atoms. Timestep: 2012
N 36 95 0 
N 17 79 0 
N 22 75 0 
N 9 89 0 
N 73 68 0 
O 80 16 0 
6
Atoms. Timestep: 2013
N 37 95 0 
N 16 79 0 
N 21 75 0 
N 8 89 0 
N 74 68 0 
O 79 16 0 
6
Atoms. Timestep: 2014
N 38 95 0 
N 15 79 0 
N 20 75 0 
N 7 89 0 
N 75 68 0 
O 78 16 0 
6
Atoms. Timestep: 2015
N 38 96 0 
N 16 79 0 
N 19 75 0 
N 6 89 0 
N 76 68 0 
O 77 16 0 
6
Atoms. Timestep: 2016
N 39 96 0 
N 15 79 0 
N 18 75 0 
N 5 89 0 
N 77 68 0 
O 76 16 0 
6
Atoms. Timestep: 2017
N 39 97 0 
N 14 79 0 
N 17 75 0 
N 4 89 0 
N 78 68 0 
O 77 16 0 
6
Atoms. Timestep: 2018
N 39 98 0 
N 15 79 0 
N 18 75 0 
N 3 89 0 
N 78 67 0 
O 76 16 0 
6
Atoms. Timestep: 2019
N 39 99 0 
N 14 79 0 
N 17 75 0 
N 2 89 0 
N 79 67 0 
O 77 16 0 
6
Atoms. Timestep: 2020
N 40 99 0 
N 15 79 0 
N 18 75 0 
N 3 89 0 
N 80 67 0 
O 76 16 0 
6
Atoms. Timestep: 2021
N 39 99 0 
N 14 79 0 
N 17 75 0 
N 2 89 0 
N 81 67 0 
O 75 16 0 
6
Atoms. Timestep: 2022
N 39 98 0 
N 13 79 0 
N 16 75 0 
N 1 89 0 
N 82 67 0 
O 76 16 0 
6
Atoms. Timestep: 2023
N 38 98 0 
N 14 79 0 
N 17 75 0 
N 2 89 0 
N 83 67 0 
O 77 16 0 
6
Atoms. Timestep: 2024
N 38 97 0 
N 15 79 0 
N 18 75 0 
N 3 89 0 
N 84 67 0 
O 78 16 0 
6
Atoms. Timestep: 2025
N 37 97 0 
N 14 79 0 
N 19 75 0 
N 3 88 0 
N 85 67 0 
O 79 16 0 
6
Atoms. Timestep: 2026
N 38 97 0 
N 15 79 0 
N 20 75 0 
N 4 88 0 
N 86 67 0 
O 80 16 0 
6
Atoms. Timestep: 2027
N 37 97 0 
N 16 79 0 
N 21 75 0 
N 3 88 0 
N 87 67 0 
O 81 16 0 
6
Atoms. Timestep: 2028
N 38 97 0 
N 16 80 0 
N 22 75 0 
N 4 88 0 
N 88 67 0 
O 80 16 0 
6
Atoms. Timestep: 2029
N 38 96 0 
N 17 80 0 
N 21 75 0 
N 5 88 0 
N 89 67 0 
O 79 16 0 
6
Atoms. Timestep: 2030
N 38 95 0 
N 16 80 0 
N 20 75 0 
N 6 88 0 
N 90 67 0 
O 80 16 0 
6
Atoms. Timestep: 2031
N 37 95 0 
N 17 80 0 
N 21 75 0 
N 7 88 0 
N 91 67 0 
O 81 16 0 
6
Atoms. Timestep: 2032
N 36 95 0 
N 18 80 0 
N 22 75 0 
N 8 88 0 
N 92 67 0 
O 82 16 0 
6
Atoms. Timestep: 2033
N 36 96 0 
N 17 80 0 
N 23 75 0 
N 9 88 0 
N 93 67 0 
O 83 16 0 
6
Atoms. Timestep: 2034
N 37 96 0 
N 18 80 0 
N 24 75 0 
N 10 88 0 
N 94 67 0 
O 84 16 0 
6
Atoms. Timestep: 2035
N 37 95 0 
N 19 80 0 
N 25 75 0 
N 11 88 0 
N 95 67 0 
O 85 16 0 
6
Atoms. Timestep: 2036
N 36 95 0 
N 20 80 0 
N 26 75 0 
N 12 88 0 
N 96 67 0 
O 86 16 0 
6
Atoms. Timestep: 2037
N 37 95 0 
N 21 80 0 
N 27 75 0 
N 13 88 0 
N 97 67 0 
O 87 16 0 
6
Atoms. Timestep: 2038
N 37 94 0 
N 22 80 0 
N 28 75 0 
N 13 89 0 
N 98 67 0 
O 88 16 0 
6
Atoms. Timestep: 2039
N 37 95 0 
N 23 80 0 
N 29 75 0 
N 14 89 0 
N 99 67 0 
O 87 16 0 
6
Atoms. Timestep: 2040
N 37 94 0 
N 24 80 0 
N 28 75 0 
N 13 89 0 
N 0 67 0 
O 88 16 0 
6
Atoms. Timestep: 2041
N 36 94 0 
N 23 80 0 
N 29 75 0 
N 14 89 0 
N 1 67 0 
O 89 16 0 
6
Atoms. Timestep: 2042
N 35 94 0 
N 24 80 0 
N 30 75 0 
N 14 88 0 
N 2 67 0 
O 90 16 0 
6
Atoms. Timestep: 2043
N 35 95 0 
N 25 80 0 
N 31 75 0 
N 15 88 0 
N 3 67 0 
O 91 16 0 
6
Atoms. Timestep: 2044
N 34 95 0 
N 26 80 0 
N 32 75 0 
N 16 88 0 
N 4 67 0 
O 92 16 0 
6
Atoms. Timestep: 2045
N 35 95 0 
N 27 80 0 
N 33 75 0 
N 17 88 0 
N 5 67 0 
O 93 16 0 
6
Atoms. Timestep: 2046
N 35 96 0 
N 28 80 0 
N 34 75 0 
N 18 88 0 
N 6 67 0 
O 92 16 0 
6
Atoms. Timestep: 2047
N 34 96 0 
N 27 80 0 
N 34 74 0 
N 19 88 0 
N 7 67 0 
O 93 16 0 
6
Atoms. Timestep: 2048
N 34 97 0 
N 28 80 0 
N 35 74 0 
N 20 88 0 
N 8 67 0 
O 94 16 0 
6
Atoms. Timestep: 2049
N 35 97 0 
N 29 80 0 
N 36 74 0 
N 20 87 0 
N 9 67 0 
O 95 16 0 
6
Atoms. Timestep: 2050
N 34 97 0 
N 30 80 0 
N 37 74 0 
N 21 87 0 
N 10 67 0 
O 96 16 0 
6
Atoms. Timestep: 2051
N 35 97 0 
N 31 80 0 
N 38 74 0 
N 22 87 0 
N 10 66 0 
O 97 16 0 
6
Atoms. Timestep: 2052
N 35 98 0 
N 32 80 0 
N 39 74 0 
N 23 87 0 
N 11 66 0 
O 96 16 0 
6
Atoms. Timestep: 2053
N 35 97 0 
N 33 80 0 
N 38 74 0 
N 24 87 0 
N 12 66 0 
O 97 16 0 
6
Atoms. Timestep: 2054
N 35 96 0 
N 33 81 0 
N 39 74 0 
N 25 87 0 
N 12 67 0 
O 98 16 0 
6
Atoms. Timestep: 2055
N 34 96 0 
N 32 81 0 
N 40 74 0 
N 26 87 0 
N 13 67 0 
O 99 16 0 
6
Atoms. Timestep: 2056
N 34 95 0 
N 33 81 0 
N 41 74 0 
N 27 87 0 
N 14 67 0 
O 0 16 0 
6
Atoms. Timestep: 2057
N 35 95 0 
N 34 81 0 
N 42 74 0 
N 28 87 0 
N 15 67 0 
O 1 16 0 
6
Atoms. Timestep: 2058
N 34 95 0 
N 35 81 0 
N 43 74 0 
N 29 87 0 
N 16 67 0 
O 2 16 0 
6
Atoms. Timestep: 2059
N 34 96 0 
N 36 81 0 
N 44 74 0 
N 30 87 0 
N 17 67 0 
O 3 16 0 
6
Atoms. Timestep: 2060
N 34 95 0 
N 37 81 0 
N 45 74 0 
N 31 87 0 
N 18 67 0 
O 4 16 0 
6
Atoms. Timestep: 2061
N 35 95 0 
N 38 81 0 
N 46 74 0 
N 32 87 0 
N 19 67 0 
O 5 16 0 
6
Atoms. Timestep: 2062
N 35 96 0 
N 39 81 0 
N 47 74 0 
N 33 87 0 
N 20 67 0 
O 6 16 0 
6
Atoms. Timestep: 2063
N 34 96 0 
N 40 81 0 
N 48 74 0 
N 34 87 0 
N 21 67 0 
O 7 16 0 
6
Atoms. Timestep: 2064
N 34 95 0 
N 41 81 0 
N 49 74 0 
N 35 87 0 
N 22 67 0 
O 8 16 0 
6
Atoms. Timestep: 2065
N 34 96 0 
N 42 81 0 
N 50 74 0 
N 36 87 0 
N 23 67 0 
O 9 16 0 
6
Atoms. Timestep: 2066
N 34 97 0 
N 43 81 0 
N 51 74 0 
N 37 87 0 
N 24 67 0 
O 10 16 0 
6
Atoms. Timestep: 2067
N 34 96 0 
N 44 81 0 
N 52 74 0 
N 38 87 0 
N 25 67 0 
O 11 16 0 
6
Atoms. Timestep: 2068
N 34 97 0 
N 45 81 0 
N 53 74 0 
N 39 87 0 
N 26 67 0 
O 12 16 0 
6
Atoms. Timestep: 2069
N 34 98 0 
N 46 81 0 
N 54 74 0 
N 40 87 0 
N 27 67 0 
O 13 16 0 
6
Atoms. Timestep: 2070
N 34 97 0 
N 47 81 0 
N 55 74 0 
N 41 87 0 
N 28 67 0 
O 12 16 0 
6
Atoms. Timestep: 2071
N 34 96 0 
N 48 81 0 
N 54 74 0 
N 40 87 0 
N 29 67 0 
O 13 16 0 
6
Atoms. Timestep: 2072
N 34 97 0 
N 47 81 0 
N 55 74 0 
N 41 87 0 
N 30 67 0 
O 14 16 0 
6
Atoms. Timestep: 2073
N 35 97 0 
N 48 81 0 
N 56 74 0 
N 42 87 0 
N 31 67 0 
O 15 16 0 
6
Atoms. Timestep: 2074
N 35 96 0 
N 49 81 0 
N 57 74 0 
N 43 87 0 
N 32 67 0 
O 14 16 0 
6
Atoms. Timestep: 2075
N 36 96 0 
N 48 81 0 
N 56 74 0 
N 44 87 0 
N 33 67 0 
O 15 16 0 
6
Atoms. Timestep: 2076
N 37 96 0 
N 49 81 0 
N 57 74 0 
N 45 87 0 
N 34 67 0 
O 16 16 0 
6
Atoms. Timestep: 2077
N 37 95 0 
N 50 81 0 
N 58 74 0 
N 44 87 0 
N 35 67 0 
O 17 16 0 
6
Atoms. Timestep: 2078
N 37 94 0 
N 51 81 0 
N 59 74 0 
N 45 87 0 
N 36 67 0 
O 16 16 0 
6
Atoms. Timestep: 2079
N 36 94 0 
N 52 81 0 
N 58 74 0 
N 44 87 0 
N 37 67 0 
O 17 16 0 
6
Atoms. Timestep: 2080
N 35 94 0 
N 51 81 0 
N 59 74 0 
N 45 87 0 
N 38 67 0 
O 16 16 0 
6
Atoms. Timestep: 2081
N 35 95 0 
N 50 81 0 
N 58 74 0 
N 46 87 0 
N 39 67 0 
O 17 16 0 
6
Atoms. Timestep: 2082
N 36 95 0 
N 51 81 0 
N 59 74 0 
N 47 87 0 
N 40 67 0 
O 18 16 0 
6
Atoms. Timestep: 2083
N 36 96 0 
N 52 81 0 
N 60 74 0 
N 48 87 0 
N 41 67 0 
O 17 16 0 
6
Atoms. Timestep: 2084
N 36 95 0 
N 53 81 0 
N 61 74 0 
N 47 87 0 
N 41 68 0 
O 18 16 0 
6
Atoms. Timestep: 2085
N 37 95 0 
N 53 80 0 
N 60 74 0 
N 47 86 0 
N 42 68 0 
O 19 16 0 
6
Atoms. Timestep: 2086
N 36 95 0 
N 54 80 0 
N 61 74 0 
N 48 86 0 
N 43 68 0 
O 20 16 0 
6
Atoms. Timestep: 2087
N 37 95 0 
N 55 80 0 
N 62 74 0 
N 49 86 0 
N 44 68 0 
O 21 16 0 
6
Atoms. Timestep: 2088
N 38 95 0 
N 56 80 0 
N 63 74 0 
N 50 86 0 
N 45 68 0 
O 22 16 0 
6
Atoms. Timestep: 2089
N 37 95 0 
N 56 79 0 
N 64 74 0 
N 51 86 0 
N 46 68 0 
O 21 16 0 
6
Atoms. Timestep: 2090
N 36 95 0 
N 57 79 0 
N 63 74 0 
N 50 86 0 
N 47 68 0 
O 22 16 0 
6
Atoms. Timestep: 2091
N 35 95 0 
N 58 79 0 
N 64 74 0 
N 51 86 0 
N 48 68 0 
O 23 16 0 
6
Atoms. Timestep: 2092
N 35 96 0 
N 59 79 0 
N 65 74 0 
N 52 86 0 
N 49 68 0 
O 24 16 0 
6
Atoms. Timestep: 2093
N 34 96 0 
N 60 79 0 
N 66 74 0 
N 53 86 0 
N 50 68 0 
O 23 16 0 
6
Atoms. Timestep: 2094
N 34 95 0 
N 61 79 0 
N 65 74 0 
N 54 86 0 
N 51 68 0 
O 22 16 0 
6
Atoms. Timestep: 2095
N 34 94 0 
N 60 79 0 
N 64 74 0 
N 53 86 0 
N 52 68 0 
O 21 16 0 
6
Atoms. Timestep: 2096
N 33 94 0 
N 59 79 0 
N 63 74 0 
N 52 86 0 
N 53 68 0 
O 20 16 0 
6
Atoms. Timestep: 2097
N 34 94 0 
N 58 79 0 
N 62 74 0 
N 51 86 0 
N 54 68 0 
O 19 16 0 
6
Atoms. Timestep: 2098
N 33 94 0 
N 57 79 0 
N 61 74 0 
N 50 86 0 
N 55 68 0 
O 20 16 0 
6
Atoms. Timestep: 2099
N 33 95 0 
N 56 79 0 
N 61 75 0 
N 51 86 0 
N 56 68 0 
O 21 16 0 
6
Atoms. Timestep: 2100
N 32 95 0 
N 57 79 0 
N 62 75 0 
N 50 86 0 
N 57 68 0 
O 22 16 0 
6
Atoms. Timestep: 2101
N 32 94 0 
N 58 79 0 
N 63 75 0 
N 51 86 0 
N 58 68 0 
O 23 16 0 
6
Atoms. Timestep: 2102
N 31 94 0 
N 59 79 0 
N 64 75 0 
N 52 86 0 
N 59 68 0 
O 24 16 0 
6
Atoms. Timestep: 2103
N 32 94 0 
N 60 79 0 
N 65 75 0 
N 53 86 0 
N 60 68 0 
O 25 16 0 
6
Atoms. Timestep: 2104
N 33 94 0 
N 61 79 0 
N 66 75 0 
N 54 86 0 
N 61 68 0 
O 26 16 0 
6
Atoms. Timestep: 2105
N 33 93 0 
N 62 79 0 
N 67 75 0 
N 55 86 0 
N 62 68 0 
O 27 16 0 
6
Atoms. Timestep: 2106
N 33 92 0 
N 63 79 0 
N 68 75 0 
N 56 86 0 
N 63 68 0 
O 28 16 0 
6
Atoms. Timestep: 2107
N 32 92 0 
N 64 79 0 
N 69 75 0 
N 57 86 0 
N 64 68 0 
O 29 16 0 
6
Atoms. Timestep: 2108
N 31 92 0 
N 65 79 0 
N 70 75 0 
N 58 86 0 
N 65 68 0 
O 30 16 0 
6
Atoms. Timestep: 2109
N 30 92 0 
N 66 79 0 
N 71 75 0 
N 59 86 0 
N 66 68 0 
O 31 16 0 
6
Atoms. Timestep: 2110
N 30 91 0 
N 67 79 0 
N 72 75 0 
N 60 86 0 
N 67 68 0 
O 32 16 0 
6
Atoms. Timestep: 2111
N 31 91 0 
N 68 79 0 
N 73 75 0 
N 61 86 0 
N 68 68 0 
O 33 16 0 
6
Atoms. Timestep: 2112
N 31 92 0 
N 69 79 0 
N 74 75 0 
N 62 86 0 
N 69 68 0 
O 34 16 0 
6
Atoms. Timestep: 2113
N 31 93 0 
N 70 79 0 
N 75 75 0 
N 63 86 0 
N 70 68 0 
O 35 16 0 
6
Atoms. Timestep: 2114
N 32 93 0 
N 71 79 0 
N 76 75 0 
N 62 86 0 
N 71 68 0 
O 36 16 0 
6
Atoms. Timestep: 2115
N 33 93 0 
N 72 79 0 
N 77 75 0 
N 63 86 0 
N 71 69 0 
O 35 16 0 
6
Atoms. Timestep: 2116
N 32 93 0 
N 73 79 0 
N 76 75 0 
N 64 86 0 
N 72 69 0 
O 36 16 0 
6
Atoms. Timestep: 2117
N 31 93 0 
N 72 79 0 
N 76 74 0 
N 65 86 0 
N 73 69 0 
O 37 16 0 
6
Atoms. Timestep: 2118
N 30 93 0 
N 73 79 0 
N 77 74 0 
N 66 86 0 
N 74 69 0 
O 38 16 0 
6
Atoms. Timestep: 2119
N 31 93 0 
N 72 79 0 
N 78 74 0 
N 67 86 0 
N 75 69 0 
O 39 16 0 
6
Atoms. Timestep: 2120
N 30 93 0 
N 73 79 0 
N 79 74 0 
N 68 86 0 
N 76 69 0 
O 40 16 0 
6
Atoms. Timestep: 2121
N 30 94 0 
N 74 79 0 
N 80 74 0 
N 68 87 0 
N 77 69 0 
O 41 16 0 
6
Atoms. Timestep: 2122
N 29 94 0 
N 75 79 0 
N 81 74 0 
N 69 87 0 
N 78 69 0 
O 42 16 0 
6
Atoms. Timestep: 2123
N 28 94 0 
N 76 79 0 
N 81 75 0 
N 70 87 0 
N 79 69 0 
O 43 16 0 
6
Atoms. Timestep: 2124
N 27 94 0 
N 77 79 0 
N 82 75 0 
N 71 87 0 
N 80 69 0 
O 44 16 0 
6
Atoms. Timestep: 2125
N 27 93 0 
N 78 79 0 
N 83 75 0 
N 72 87 0 
N 81 69 0 
O 45 16 0 
6
Atoms. Timestep: 2126
N 27 92 0 
N 79 79 0 
N 84 75 0 
N 73 87 0 
N 82 69 0 
O 46 16 0 
6
Atoms. Timestep: 2127
N 27 91 0 
N 80 79 0 
N 85 75 0 
N 74 87 0 
N 83 69 0 
O 47 16 0 
6
Atoms. Timestep: 2128
N 28 91 0 
N 81 79 0 
N 86 75 0 
N 75 87 0 
N 84 69 0 
O 48 16 0 
6
Atoms. Timestep: 2129
N 29 91 0 
N 82 79 0 
N 87 75 0 
N 76 87 0 
N 85 69 0 
O 49 16 0 
6
Atoms. Timestep: 2130
N 28 91 0 
N 83 79 0 
N 88 75 0 
N 77 87 0 
N 86 69 0 
O 50 16 0 
6
Atoms. Timestep: 2131
N 29 91 0 
N 84 79 0 
N 89 75 0 
N 78 87 0 
N 87 69 0 
O 51 16 0 
6
Atoms. Timestep: 2132
N 30 91 0 
N 85 79 0 
N 90 75 0 
N 79 87 0 
N 88 69 0 
O 52 16 0 
6
Atoms. Timestep: 2133
N 31 91 0 
N 86 79 0 
N 91 75 0 
N 80 87 0 
N 89 69 0 
O 53 16 0 
6
Atoms. Timestep: 2134
N 30 91 0 
N 87 79 0 
N 92 75 0 
N 81 87 0 
N 90 69 0 
O 54 16 0 
6
Atoms. Timestep: 2135
N 30 92 0 
N 88 79 0 
N 93 75 0 
N 82 87 0 
N 91 69 0 
O 55 16 0 
6
Atoms. Timestep: 2136
N 30 93 0 
N 87 79 0 
N 94 75 0 
N 83 87 0 
N 92 69 0 
O 56 16 0 
6
Atoms. Timestep: 2137
N 31 93 0 
N 88 79 0 
N 95 75 0 
N 84 87 0 
N 93 69 0 
O 57 16 0 
6
Atoms. Timestep: 2138
N 30 93 0 
N 89 79 0 
N 96 75 0 
N 85 87 0 
N 94 69 0 
O 58 16 0 
6
Atoms. Timestep: 2139
N 30 92 0 
N 90 79 0 
N 97 75 0 
N 86 87 0 
N 95 69 0 
O 59 16 0 
6
Atoms. Timestep: 2140
N 31 92 0 
N 91 79 0 
N 98 75 0 
N 87 87 0 
N 96 69 0 
O 60 16 0 
6
Atoms. Timestep: 2141
N 31 91 0 
N 92 79 0 
N 99 75 0 
N 88 87 0 
N 97 69 0 
O 61 16 0 
6
Atoms. Timestep: 2142
N 30 91 0 
N 93 79 0 
N 0 75 0 
N 89 87 0 
N 98 69 0 
O 62 16 0 
6
Atoms. Timestep: 2143
N 29 91 0 
N 94 79 0 
N 1 75 0 
N 90 87 0 
N 99 69 0 
O 63 16 0 
6
Atoms. Timestep: 2144
N 29 92 0 
N 95 79 0 
N 2 75 0 
N 91 87 0 
N 0 69 0 
O 64 16 0 
6
Atoms. Timestep: 2145
N 29 93 0 
N 96 79 0 
N 3 75 0 
N 92 87 0 
N 1 69 0 
O 65 16 0 
6
Atoms. Timestep: 2146
N 29 94 0 
N 97 79 0 
N 4 75 0 
N 93 87 0 
N 2 69 0 
O 66 16 0 
6
Atoms. Timestep: 2147
N 29 93 0 
N 98 79 0 
N 5 75 0 
N 94 87 0 
N 3 69 0 
O 67 16 0 
6
Atoms. Timestep: 2148
N 29 94 0 
N 98 80 0 
N 6 75 0 
N 95 87 0 
N 4 69 0 
O 68 16 0 
6
Atoms. Timestep: 2149
N 30 94 0 
N 99 80 0 
N 7 75 0 
N 96 87 0 
N 5 69 0 
O 69 16 0 
6
Atoms. Timestep: 2150
N 30 93 0 
N 0 80 0 
N 8 75 0 
N 97 87 0 
N 6 69 0 
O 70 16 0 
6
Atoms. Timestep: 2151
N 30 94 0 
N 1 80 0 
N 8 76 0 
N 98 87 0 
N 7 69 0 
O 71 16 0 
6
Atoms. Timestep: 2152
N 31 94 0 
N 2 80 0 
N 9 76 0 
N 99 87 0 
N 8 69 0 
O 72 16 0 
6
Atoms. Timestep: 2153
N 30 94 0 
N 3 80 0 
N 10 76 0 
N 0 87 0 
N 9 69 0 
O 73 16 0 
6
Atoms. Timestep: 2154
N 29 94 0 
N 4 80 0 
N 11 76 0 
N 1 87 0 
N 10 69 0 
O 74 16 0 
6
Atoms. Timestep: 2155
N 28 94 0 
N 5 80 0 
N 12 76 0 
N 2 87 0 
N 11 69 0 
O 75 16 0 
6
Atoms. Timestep: 2156
N 29 94 0 
N 6 80 0 
N 13 76 0 
N 3 87 0 
N 12 69 0 
O 76 16 0 
6
Atoms. Timestep: 2157
N 29 95 0 
N 7 80 0 
N 14 76 0 
N 4 87 0 
N 13 69 0 
O 77 16 0 
6
Atoms. Timestep: 2158
N 29 94 0 
N 8 80 0 
N 15 76 0 
N 5 87 0 
N 14 69 0 
O 78 16 0 
6
Atoms. Timestep: 2159
N 30 94 0 
N 7 80 0 
N 16 76 0 
N 6 87 0 
N 13 69 0 
O 79 16 0 
6
Atoms. Timestep: 2160
N 31 94 0 
N 8 80 0 
N 17 76 0 
N 7 87 0 
N 14 69 0 
O 80 16 0 
6
Atoms. Timestep: 2161
N 31 93 0 
N 9 80 0 
N 18 76 0 
N 8 87 0 
N 15 69 0 
O 81 16 0 
6
Atoms. Timestep: 2162
N 32 93 0 
N 10 80 0 
N 19 76 0 
N 9 87 0 
N 16 69 0 
O 82 16 0 
6
Atoms. Timestep: 2163
N 32 94 0 
N 11 80 0 
N 20 76 0 
N 10 87 0 
N 17 69 0 
O 83 16 0 
6
Atoms. Timestep: 2164
N 32 93 0 
N 12 80 0 
N 21 76 0 
N 10 88 0 
N 18 69 0 
O 84 16 0 
6
Atoms. Timestep: 2165
N 32 92 0 
N 13 80 0 
N 22 76 0 
N 11 88 0 
N 19 69 0 
O 85 16 0 
6
Atoms. Timestep: 2166
N 32 91 0 
N 14 80 0 
N 23 76 0 
N 12 88 0 
N 20 69 0 
O 86 16 0 
6
Atoms. Timestep: 2167
N 31 91 0 
N 15 80 0 
N 24 76 0 
N 13 88 0 
N 21 69 0 
O 87 16 0 
6
Atoms. Timestep: 2168
N 31 90 0 
N 16 80 0 
N 25 76 0 
N 14 88 0 
N 22 69 0 
O 88 16 0 
6
Atoms. Timestep: 2169
N 31 91 0 
N 17 80 0 
N 26 76 0 
N 15 88 0 
N 23 69 0 
O 89 16 0 
6
Atoms. Timestep: 2170
N 32 91 0 
N 18 80 0 
N 27 76 0 
N 16 88 0 
N 24 69 0 
O 90 16 0 
6
Atoms. Timestep: 2171
N 32 92 0 
N 19 80 0 
N 28 76 0 
N 17 88 0 
N 25 69 0 
O 91 16 0 
6
Atoms. Timestep: 2172
N 33 92 0 
N 20 80 0 
N 29 76 0 
N 18 88 0 
N 26 69 0 
O 92 16 0 
6
Atoms. Timestep: 2173
N 33 93 0 
N 21 80 0 
N 30 76 0 
N 19 88 0 
N 27 69 0 
O 93 16 0 
6
Atoms. Timestep: 2174
N 34 93 0 
N 22 80 0 
N 31 76 0 
N 20 88 0 
N 27 70 0 
O 94 16 0 
6
Atoms. Timestep: 2175
N 33 93 0 
N 23 80 0 
N 32 76 0 
N 21 88 0 
N 28 70 0 
O 95 16 0 
6
Atoms. Timestep: 2176
N 33 94 0 
N 24 80 0 
N 31 76 0 
N 22 88 0 
N 29 70 0 
O 96 16 0 
6
Atoms. Timestep: 2177
N 33 95 0 
N 25 80 0 
N 32 76 0 
N 23 88 0 
N 29 71 0 
O 97 16 0 
6
Atoms. Timestep: 2178
N 32 95 0 
N 26 80 0 
N 33 76 0 
N 22 88 0 
N 30 71 0 
O 98 16 0 
6
Atoms. Timestep: 2179
N 33 95 0 
N 27 80 0 
N 34 76 0 
N 23 88 0 
N 31 71 0 
O 99 16 0 
6
Atoms. Timestep: 2180
N 32 95 0 
N 28 80 0 
N 35 76 0 
N 24 88 0 
N 32 71 0 
O 0 16 0 
6
Atoms. Timestep: 2181
N 31 95 0 
N 29 80 0 
N 36 76 0 
N 25 88 0 
N 33 71 0 
O 1 16 0 
6
Atoms. Timestep: 2182
N 30 95 0 
N 30 80 0 
N 37 76 0 
N 26 88 0 
N 34 71 0 
O 2 16 0 
6
Atoms. Timestep: 2183
N 30 96 0 
N 31 80 0 
N 38 76 0 
N 27 88 0 
N 35 71 0 
O 3 16 0 
6
Atoms. Timestep: 2184
N 30 95 0 
N 32 80 0 
N 39 76 0 
N 28 88 0 
N 36 71 0 
O 4 16 0 
6
Atoms. Timestep: 2185
N 29 95 0 
N 33 80 0 
N 40 76 0 
N 29 88 0 
N 37 71 0 
O 5 16 0 
6
Atoms. Timestep: 2186
N 30 95 0 
N 34 80 0 
N 41 76 0 
N 30 88 0 
N 38 71 0 
O 6 16 0 
6
Atoms. Timestep: 2187
N 31 95 0 
N 35 80 0 
N 41 75 0 
N 31 88 0 
N 39 71 0 
O 7 16 0 
6
Atoms. Timestep: 2188
N 31 96 0 
N 36 80 0 
N 42 75 0 
N 32 88 0 
N 40 71 0 
O 8 16 0 
6
Atoms. Timestep: 2189
N 31 97 0 
N 37 80 0 
N 43 75 0 
N 33 88 0 
N 41 71 0 
O 9 16 0 
6
Atoms. Timestep: 2190
N 30 97 0 
N 38 80 0 
N 44 75 0 
N 34 88 0 
N 42 71 0 
O 10 16 0 
6
Atoms. Timestep: 2191
N 30 98 0 
N 39 80 0 
N 45 75 0 
N 35 88 0 
N 43 71 0 
O 11 16 0 
6
Atoms. Timestep: 2192
N 29 98 0 
N 40 80 0 
N 46 75 0 
N 36 88 0 
N 44 71 0 
O 12 16 0 
6
Atoms. Timestep: 2193
N 30 98 0 
N 41 80 0 
N 47 75 0 
N 37 88 0 
N 45 71 0 
O 13 16 0 
6
Atoms. Timestep: 2194
N 30 97 0 
N 42 80 0 
N 48 75 0 
N 38 88 0 
N 46 71 0 
O 14 16 0 
6
Atoms. Timestep: 2195
N 31 97 0 
N 43 80 0 
N 49 75 0 
N 39 88 0 
N 47 71 0 
O 15 16 0 
6
Atoms. Timestep: 2196
N 32 97 0 
N 44 80 0 
N 50 75 0 
N 40 88 0 
N 48 71 0 
O 16 16 0 
6
Atoms. Timestep: 2197
N 32 98 0 
N 45 80 0 
N 51 75 0 
N 41 88 0 
N 49 71 0 
O 17 16 0 
6
Atoms. Timestep: 2198
N 32 97 0 
N 46 80 0 
N 52 75 0 
N 42 88 0 
N 50 71 0 
O 18 16 0 
6
Atoms. Timestep: 2199
N 32 96 0 
N 47 80 0 
N 53 75 0 
N 43 88 0 
N 51 71 0 
O 19 16 0 
6
Atoms. Timestep: 2200
N 32 97 0 
N 48 80 0 
N 54 75 0 
N 44 88 0 
N 52 71 0 
O 20 16 0 
6
Atoms. Timestep: 2201
N 33 97 0 
N 49 80 0 
N 55 75 0 
N 45 88 0 
N 53 71 0 
O 21 16 0 
6
Atoms. Timestep: 2202
N 34 97 0 
N 50 80 0 
N 56 75 0 
N 46 88 0 
N 54 71 0 
O 22 16 0 
6
Atoms. Timestep: 2203
N 34 98 0 
N 51 80 0 
N 57 75 0 
N 47 88 0 
N 55 71 0 
O 23 16 0 
6
Atoms. Timestep: 2204
N 34 97 0 
N 51 81 0 
N 58 75 0 
N 48 88 0 
N 56 71 0 
O 24 16 0 
6
Atoms. Timestep: 2205
N 34 96 0 
N 52 81 0 
N 58 76 0 
N 49 88 0 
N 57 71 0 
O 25 16 0 
6
Atoms. Timestep: 2206
N 35 96 0 
N 53 81 0 
N 59 76 0 
N 50 88 0 
N 58 71 0 
O 26 16 0 
6
Atoms. Timestep: 2207
N 35 95 0 
N 54 81 0 
N 60 76 0 
N 51 88 0 
N 59 71 0 
O 27 16 0 
6
Atoms. Timestep: 2208
N 34 95 0 
N 55 81 0 
N 61 76 0 
N 52 88 0 
N 60 71 0 
O 28 16 0 
6
Atoms. Timestep: 2209
N 35 95 0 
N 56 81 0 
N 62 76 0 
N 53 88 0 
N 61 71 0 
O 29 16 0 
6
Atoms. Timestep: 2210
N 35 96 0 
N 57 81 0 
N 63 76 0 
N 54 88 0 
N 62 71 0 
O 30 16 0 
6
Atoms. Timestep: 2211
N 36 96 0 
N 58 81 0 
N 64 76 0 
N 55 88 0 
N 63 71 0 
O 31 16 0 
6
Atoms. Timestep: 2212
N 36 95 0 
N 59 81 0 
N 65 76 0 
N 56 88 0 
N 64 71 0 
O 32 16 0 
6
Atoms. Timestep: 2213
N 37 95 0 
N 60 81 0 
N 66 76 0 
N 57 88 0 
N 65 71 0 
O 33 16 0 
6
Atoms. Timestep: 2214
N 38 95 0 
N 61 81 0 
N 67 76 0 
N 58 88 0 
N 66 71 0 
O 34 16 0 
6
Atoms. Timestep: 2215
N 38 96 0 
N 62 81 0 
N 68 76 0 
N 59 88 0 
N 67 71 0 
O 35 16 0 
6
Atoms. Timestep: 2216
N 37 96 0 
N 63 81 0 
N 69 76 0 
N 60 88 0 
N 68 71 0 
O 36 16 0 
6
Atoms. Timestep: 2217
N 37 95 0 
N 64 81 0 
N 70 76 0 
N 61 88 0 
N 69 71 0 
O 37 16 0 
6
Atoms. Timestep: 2218
N 37 96 0 
N 65 81 0 
N 71 76 0 
N 62 88 0 
N 70 71 0 
O 38 16 0 
6
Atoms. Timestep: 2219
N 37 97 0 
N 66 81 0 
N 72 76 0 
N 63 88 0 
N 71 71 0 
O 39 16 0 
6
Atoms. Timestep: 2220
N 38 97 0 
N 67 81 0 
N 73 76 0 
N 64 88 0 
N 72 71 0 
O 40 16 0 
6
Atoms. Timestep: 2221
N 38 98 0 
N 68 81 0 
N 74 76 0 
N 65 88 0 
N 73 71 0 
O 41 16 0 
6
Atoms. Timestep: 2222
N 37 98 0 
N 69 81 0 
N 75 76 0 
N 66 88 0 
N 74 71 0 
O 42 16 0 
6
Atoms. Timestep: 2223
N 37 97 0 
N 70 81 0 
N 76 76 0 
N 67 88 0 
N 75 71 0 
O 43 16 0 
6
Atoms. Timestep: 2224
N 38 97 0 
N 71 81 0 
N 77 76 0 
N 68 88 0 
N 76 71 0 
O 44 16 0 
6
Atoms. Timestep: 2225
N 38 98 0 
N 72 81 0 
N 78 76 0 
N 69 88 0 
N 77 71 0 
O 45 16 0 
6
Atoms. Timestep: 2226
N 39 98 0 
N 73 81 0 
N 79 76 0 
N 70 88 0 
N 78 71 0 
O 46 16 0 
6
Atoms. Timestep: 2227
N 39 99 0 
N 74 81 0 
N 80 76 0 
N 71 88 0 
N 79 71 0 
O 47 16 0 
6
Atoms. Timestep: 2228
N 40 99 0 
N 75 81 0 
N 81 76 0 
N 72 88 0 
N 80 71 0 
O 48 16 0 
6
Atoms. Timestep: 2229
N 39 99 0 
N 76 81 0 
N 82 76 0 
N 73 88 0 
N 81 71 0 
O 49 16 0 
6
Atoms. Timestep: 2230
N 40 99 0 
N 77 81 0 
N 83 76 0 
N 73 89 0 
N 82 71 0 
O 50 16 0 
6
Atoms. Timestep: 2231
N 40 0 0 
N 78 81 0 
N 84 76 0 
N 74 89 0 
N 83 71 0 
O 51 16 0 
6
Atoms. Timestep: 2232
N 39 0 0 
N 79 81 0 
N 85 76 0 
N 75 89 0 
N 84 71 0 
O 52 16 0 
6
Atoms. Timestep: 2233
N 40 0 0 
N 80 81 0 
N 86 76 0 
N 76 89 0 
N 85 71 0 
O 53 16 0 
6
Atoms. Timestep: 2234
N 41 0 0 
N 81 81 0 
N 87 76 0 
N 77 89 0 
N 86 71 0 
O 54 16 0 
6
Atoms. Timestep: 2235
N 41 1 0 
N 82 81 0 
N 88 76 0 
N 78 89 0 
N 87 71 0 
O 55 16 0 
6
Atoms. Timestep: 2236
N 42 1 0 
N 83 81 0 
N 89 76 0 
N 79 89 0 
N 88 71 0 
O 56 16 0 
6
Atoms. Timestep: 2237
N 42 2 0 
N 84 81 0 
N 90 76 0 
N 80 89 0 
N 89 71 0 
O 57 16 0 
6
Atoms. Timestep: 2238
N 42 3 0 
N 85 81 0 
N 89 76 0 
N 81 89 0 
N 90 71 0 
O 58 16 0 
6
Atoms. Timestep: 2239
N 42 4 0 
N 86 81 0 
N 90 76 0 
N 82 89 0 
N 91 71 0 
O 59 16 0 
6
Atoms. Timestep: 2240
N 41 4 0 
N 87 81 0 
N 91 76 0 
N 83 89 0 
N 92 71 0 
O 60 16 0 
6
Atoms. Timestep: 2241
N 41 3 0 
N 88 81 0 
N 92 76 0 
N 84 89 0 
N 93 71 0 
O 61 16 0 
6
Atoms. Timestep: 2242
N 42 3 0 
N 89 81 0 
N 93 76 0 
N 85 89 0 
N 94 71 0 
O 62 16 0 
6
Atoms. Timestep: 2243
N 42 4 0 
N 90 81 0 
N 94 76 0 
N 86 89 0 
N 95 71 0 
O 63 16 0 
6
Atoms. Timestep: 2244
N 41 4 0 
N 91 81 0 
N 95 76 0 
N 87 89 0 
N 95 70 0 
O 64 16 0 
6
Atoms. Timestep: 2245
N 41 5 0 
N 92 81 0 
N 96 76 0 
N 88 89 0 
N 94 70 0 
O 65 16 0 
6
Atoms. Timestep: 2246
N 42 5 0 
N 93 81 0 
N 97 76 0 
N 89 89 0 
N 95 70 0 
O 66 16 0 
6
Atoms. Timestep: 2247
N 42 6 0 
N 94 81 0 
N 98 76 0 
N 90 89 0 
N 96 70 0 
O 67 16 0 
6
Atoms. Timestep: 2248
N 41 6 0 
N 95 81 0 
N 99 76 0 
N 91 89 0 
N 97 70 0 
O 68 16 0 
6
Atoms. Timestep: 2249
N 41 5 0 
N 96 81 0 
N 0 76 0 
N 92 89 0 
N 98 70 0 
O 69 16 0 
6
Atoms. Timestep: 2250
N 40 5 0 
N 97 81 0 
N 0 75 0 
N 93 89 0 
N 99 70 0 
O 70 16 0 
6
Atoms. Timestep: 2251
N 40 4 0 
N 98 81 0 
N 1 75 0 
N 94 89 0 
N 0 70 0 
O 71 16 0 
6
Atoms. Timestep: 2252
N 40 5 0 
N 99 81 0 
N 2 75 0 
N 95 89 0 
N 1 70 0 
O 72 16 0 
6
Atoms. Timestep: 2253
N 40 4 0 
N 0 81 0 
N 3 75 0 
N 96 89 0 
N 2 70 0 
O 73 16 0 
6
Atoms. Timestep: 2254
N 39 4 0 
N 1 81 0 
N 4 75 0 
N 97 89 0 
N 3 70 0 
O 74 16 0 
6
Atoms. Timestep: 2255
N 39 5 0 
N 2 81 0 
N 5 75 0 
N 98 89 0 
N 4 70 0 
O 75 16 0 
6
Atoms. Timestep: 2256
N 39 4 0 
N 3 81 0 
N 6 75 0 
N 99 89 0 
N 5 70 0 
O 76 16 0 
6
Atoms. Timestep: 2257
N 39 3 0 
N 4 81 0 
N 7 75 0 
N 99 88 0 
N 6 70 0 
O 77 16 0 
6
Atoms. Timestep: 2258
N 39 2 0 
N 5 81 0 
N 8 75 0 
N 0 88 0 
N 7 70 0 
O 78 16 0 
6
Atoms. Timestep: 2259
N 39 1 0 
N 6 81 0 
N 9 75 0 
N 1 88 0 
N 8 70 0 
O 79 16 0 
6
Atoms. Timestep: 2260
N 39 2 0 
N 7 81 0 
N 10 75 0 
N 1 89 0 
N 9 70 0 
O 80 16 0 
6
Atoms. Timestep: 2261
N 39 3 0 
N 8 81 0 
N 11 75 0 
N 2 89 0 
N 10 70 0 
O 81 16 0 
6
Atoms. Timestep: 2262
N 38 3 0 
N 9 81 0 
N 11 76 0 
N 3 89 0 
N 11 70 0 
O 82 16 0 
6
Atoms. Timestep: 2263
N 38 4 0 
N 10 81 0 
N 12 76 0 
N 4 89 0 
N 12 70 0 
O 83 16 0 
6
Atoms. Timestep: 2264
N 38 5 0 
N 11 81 0 
N 13 76 0 
N 5 89 0 
N 13 70 0 
O 84 16 0 
6
Atoms. Timestep: 2265
N 38 4 0 
N 11 82 0 
N 14 76 0 
N 6 89 0 
N 14 70 0 
O 85 16 0 
6
Atoms. Timestep: 2266
N 38 5 0 
N 12 82 0 
N 15 76 0 
N 7 89 0 
N 15 70 0 
O 86 16 0 
6
Atoms. Timestep: 2267
N 37 5 0 
N 13 82 0 
N 16 76 0 
N 8 89 0 
N 16 70 0 
O 87 16 0 
6
Atoms. Timestep: 2268
N 37 4 0 
N 14 82 0 
N 17 76 0 
N 9 89 0 
N 17 70 0 
O 88 16 0 
6
Atoms. Timestep: 2269
N 36 4 0 
N 15 82 0 
N 18 76 0 
N 10 89 0 
N 18 70 0 
O 89 16 0 
6
Atoms. Timestep: 2270
N 35 4 0 
N 16 82 0 
N 19 76 0 
N 11 89 0 
N 19 70 0 
O 90 16 0 
6
Atoms. Timestep: 2271
N 36 4 0 
N 17 82 0 
N 20 76 0 
N 12 89 0 
N 20 70 0 
O 91 16 0 
6
Atoms. Timestep: 2272
N 36 5 0 
N 18 82 0 
N 21 76 0 
N 13 89 0 
N 21 70 0 
O 92 16 0 
6
Atoms. Timestep: 2273
N 35 5 0 
N 19 82 0 
N 22 76 0 
N 14 89 0 
N 22 70 0 
O 93 16 0 
6
Atoms. Timestep: 2274
N 36 5 0 
N 20 82 0 
N 23 76 0 
N 15 89 0 
N 23 70 0 
O 94 16 0 
6
Atoms. Timestep: 2275
N 35 5 0 
N 21 82 0 
N 24 76 0 
N 16 89 0 
N 24 70 0 
O 95 16 0 
6
Atoms. Timestep: 2276
N 35 6 0 
N 22 82 0 
N 25 76 0 
N 17 89 0 
N 25 70 0 
O 96 16 0 
6
Atoms. Timestep: 2277
N 34 6 0 
N 23 82 0 
N 26 76 0 
N 18 89 0 
N 26 70 0 
O 97 16 0 
6
Atoms. Timestep: 2278
N 35 6 0 
N 24 82 0 
N 27 76 0 
N 19 89 0 
N 27 70 0 
O 98 16 0 
6
Atoms. Timestep: 2279
N 35 7 0 
N 25 82 0 
N 28 76 0 
N 20 89 0 
N 28 70 0 
O 99 16 0 
6
Atoms. Timestep: 2280
N 35 8 0 
N 26 82 0 
N 29 76 0 
N 21 89 0 
N 29 70 0 
O 0 16 0 
6
Atoms. Timestep: 2281
N 34 8 0 
N 27 82 0 
N 30 76 0 
N 22 89 0 
N 30 70 0 
O 1 16 0 
6
Atoms. Timestep: 2282
N 34 9 0 
N 28 82 0 
N 31 76 0 
N 23 89 0 
N 31 70 0 
O 2 16 0 
6
Atoms. Timestep: 2283
N 34 10 0 
N 29 82 0 
N 32 76 0 
N 24 89 0 
N 32 70 0 
O 3 16 0 
6
Atoms. Timestep: 2284
N 35 10 0 
N 30 82 0 
N 33 76 0 
N 24 88 0 
N 33 70 0 
O 4 16 0 
6
Atoms. Timestep: 2285
N 35 11 0 
N 31 82 0 
N 34 76 0 
N 25 88 0 
N 34 70 0 
O 5 16 0 
6
Atoms. Timestep: 2286
N 36 11 0 
N 32 82 0 
N 35 76 0 
N 26 88 0 
N 35 70 0 
O 6 16 0 
6
Atoms. Timestep: 2287
N 36 10 0 
N 33 82 0 
N 36 76 0 
N 27 88 0 
N 36 70 0 
O 7 16 0 
6
Atoms. Timestep: 2288
N 37 10 0 
N 32 82 0 
N 37 76 0 
N 28 88 0 
N 37 70 0 
O 8 16 0 
6
Atoms. Timestep: 2289
N 37 9 0 
N 33 82 0 
N 38 76 0 
N 29 88 0 
N 38 70 0 
O 9 16 0 
6
Atoms. Timestep: 2290
N 38 9 0 
N 34 82 0 
N 39 76 0 
N 30 88 0 
N 39 70 0 
O 10 16 0 
6
Atoms. Timestep: 2291
N 37 9 0 
N 35 82 0 
N 40 76 0 
N 31 88 0 
N 40 70 0 
O 11 16 0 
6
Atoms. Timestep: 2292
N 38 9 0 
N 36 82 0 
N 41 76 0 
N 32 88 0 
N 41 70 0 
O 12 16 0 
6
Atoms. Timestep: 2293
N 38 8 0 
N 37 82 0 
N 42 76 0 
N 33 88 0 
N 42 70 0 
O 13 16 0 
6
Atoms. Timestep: 2294
N 38 9 0 
N 38 82 0 
N 43 76 0 
N 34 88 0 
N 43 70 0 
O 14 16 0 
6
Atoms. Timestep: 2295
N 38 10 0 
N 39 82 0 
N 44 76 0 
N 35 88 0 
N 44 70 0 
O 15 16 0 
6
Atoms. Timestep: 2296
N 37 10 0 
N 40 82 0 
N 45 76 0 
N 36 88 0 
N 45 70 0 
O 16 16 0 
6
Atoms. Timestep: 2297
N 38 10 0 
N 41 82 0 
N 46 76 0 
N 37 88 0 
N 46 70 0 
O 17 16 0 
6
Atoms. Timestep: 2298
N 38 11 0 
N 42 82 0 
N 47 76 0 
N 38 88 0 
N 47 70 0 
O 18 16 0 
6
Atoms. Timestep: 2299
N 38 10 0 
N 43 82 0 
N 48 76 0 
N 39 88 0 
N 48 70 0 
O 19 16 0 
6
Atoms. Timestep: 2300
N 38 11 0 
N 44 82 0 
N 49 76 0 
N 40 88 0 
N 49 70 0 
O 20 16 0 
6
Atoms. Timestep: 2301
N 38 10 0 
N 45 82 0 
N 50 76 0 
N 41 88 0 
N 50 70 0 
O 21 16 0 
6
Atoms. Timestep: 2302
N 37 10 0 
N 46 82 0 
N 51 76 0 
N 42 88 0 
N 51 70 0 
O 22 16 0 
6
Atoms. Timestep: 2303
N 38 10 0 
N 47 82 0 
N 50 76 0 
N 43 88 0 
N 52 70 0 
O 23 16 0 
6
Atoms. Timestep: 2304
N 39 10 0 
N 48 82 0 
N 51 76 0 
N 44 88 0 
N 53 70 0 
O 24 16 0 
6
Atoms. Timestep: 2305
N 39 11 0 
N 49 82 0 
N 52 76 0 
N 45 88 0 
N 54 70 0 
O 25 16 0 
6
Atoms. Timestep: 2306
N 39 10 0 
N 50 82 0 
N 53 76 0 
N 46 88 0 
N 55 70 0 
O 26 16 0 
6
Atoms. Timestep: 2307
N 39 9 0 
N 51 82 0 
N 54 76 0 
N 47 88 0 
N 56 70 0 
O 27 16 0 
6
Atoms. Timestep: 2308
N 39 8 0 
N 52 82 0 
N 55 76 0 
N 48 88 0 
N 57 70 0 
O 28 16 0 
6
Atoms. Timestep: 2309
N 38 8 0 
N 53 82 0 
N 56 76 0 
N 49 88 0 
N 58 70 0 
O 29 16 0 
6
Atoms. Timestep: 2310
N 39 8 0 
N 54 82 0 
N 57 76 0 
N 50 88 0 
N 59 70 0 
O 30 16 0 
6
Atoms. Timestep: 2311
N 40 8 0 
N 55 82 0 
N 58 76 0 
N 51 88 0 
N 60 70 0 
O 31 16 0 
6
Atoms. Timestep: 2312
N 40 7 0 
N 56 82 0 
N 59 76 0 
N 52 88 0 
N 61 70 0 
O 32 16 0 
6
Atoms. Timestep: 2313
N 41 7 0 
N 57 82 0 
N 60 76 0 
N 53 88 0 
N 62 70 0 
O 33 16 0 
6
Atoms. Timestep: 2314
N 41 6 0 
N 58 82 0 
N 61 76 0 
N 54 88 0 
N 63 70 0 
O 34 16 0 
6
Atoms. Timestep: 2315
N 40 6 0 
N 57 82 0 
N 62 76 0 
N 55 88 0 
N 64 70 0 
O 35 16 0 
6
Atoms. Timestep: 2316
N 40 5 0 
N 58 82 0 
N 63 76 0 
N 56 88 0 
N 65 70 0 
O 36 16 0 
6
Atoms. Timestep: 2317
N 39 5 0 
N 59 82 0 
N 64 76 0 
N 57 88 0 
N 66 70 0 
O 37 16 0 
6
Atoms. Timestep: 2318
N 38 5 0 
N 60 82 0 
N 65 76 0 
N 58 88 0 
N 67 70 0 
O 38 16 0 
6
Atoms. Timestep: 2319
N 39 5 0 
N 61 82 0 
N 66 76 0 
N 59 88 0 
N 68 70 0 
O 39 16 0 
6
Atoms. Timestep: 2320
N 39 4 0 
N 62 82 0 
N 67 76 0 
N 60 88 0 
N 69 70 0 
O 40 16 0 
6
Atoms. Timestep: 2321
N 39 5 0 
N 63 82 0 
N 68 76 0 
N 61 88 0 
N 70 70 0 
O 41 16 0 
6
Atoms. Timestep: 2322
N 39 6 0 
N 64 82 0 
N 69 76 0 
N 62 88 0 
N 71 70 0 
O 42 16 0 
6
Atoms. Timestep: 2323
N 39 7 0 
N 65 82 0 
N 70 76 0 
N 63 88 0 
N 72 70 0 
O 43 16 0 
6
Atoms. Timestep: 2324
N 40 7 0 
N 66 82 0 
N 71 76 0 
N 64 88 0 
N 73 70 0 
O 44 16 0 
6
Atoms. Timestep: 2325
N 40 8 0 
N 65 82 0 
N 72 76 0 
N 65 88 0 
N 74 70 0 
O 45 16 0 
6
Atoms. Timestep: 2326
N 40 7 0 
N 66 82 0 
N 73 76 0 
N 66 88 0 
N 75 70 0 
O 46 16 0 
6
Atoms. Timestep: 2327
N 40 8 0 
N 67 82 0 
N 74 76 0 
N 67 88 0 
N 76 70 0 
O 47 16 0 
6
Atoms. Timestep: 2328
N 39 8 0 
N 68 82 0 
N 75 76 0 
N 68 88 0 
N 77 70 0 
O 48 16 0 
6
Atoms. Timestep: 2329
N 39 7 0 
N 69 82 0 
N 76 76 0 
N 69 88 0 
N 78 70 0 
O 49 16 0 
6
Atoms. Timestep: 2330
N 39 8 0 
N 70 82 0 
N 77 76 0 
N 70 88 0 
N 78 69 0 
O 50 16 0 
6
Atoms. Timestep: 2331
N 39 9 0 
N 71 82 0 
N 78 76 0 
N 71 88 0 
N 79 69 0 
O 51 16 0 
6
Atoms. Timestep: 2332
N 39 8 0 
N 72 82 0 
N 79 76 0 
N 72 88 0 
N 80 69 0 
O 52 16 0 
6
Atoms. Timestep: 2333
N 39 7 0 
N 73 82 0 
N 80 76 0 
N 73 88 0 
N 81 69 0 
O 53 16 0 
6
Atoms. Timestep: 2334
N 39 6 0 
N 74 82 0 
N 81 76 0 
N 74 88 0 
N 82 69 0 
O 54 16 0 
6
Atoms. Timestep: 2335
N 38 6 0 
N 75 82 0 
N 82 76 0 
N 75 88 0 
N 83 69 0 
O 55 16 0 
6
Atoms. Timestep: 2336
N 37 6 0 
N 76 82 0 
N 83 76 0 
N 76 88 0 
N 84 69 0 
O 56 16 0 
6
Atoms. Timestep: 2337
N 38 6 0 
N 77 82 0 
N 84 76 0 
N 77 88 0 
N 85 69 0 
O 57 16 0 
6
Atoms. Timestep: 2338
N 39 6 0 
N 78 82 0 
N 85 76 0 
N 78 88 0 
N 86 69 0 
O 58 16 0 
6
Atoms. Timestep: 2339
N 38 6 0 
N 79 82 0 
N 86 76 0 
N 79 88 0 
N 87 69 0 
O 59 16 0 
6
Atoms. Timestep: 2340
N 37 6 0 
N 80 82 0 
N 87 76 0 
N 80 88 0 
N 87 68 0 
O 60 16 0 
6
Atoms. Timestep: 2341
N 36 6 0 
N 81 82 0 
N 88 76 0 
N 81 88 0 
N 88 68 0 
O 61 16 0 
6
Atoms. Timestep: 2342
N 36 7 0 
N 82 82 0 
N 89 76 0 
N 82 88 0 
N 89 68 0 
O 62 16 0 
6
Atoms. Timestep: 2343
N 36 6 0 
N 83 82 0 
N 90 76 0 
N 83 88 0 
N 90 68 0 
O 63 16 0 
6
Atoms. Timestep: 2344
N 36 7 0 
N 84 82 0 
N 91 76 0 
N 84 88 0 
N 91 68 0 
O 64 16 0 
6
Atoms. Timestep: 2345
N 35 7 0 
N 85 82 0 
N 92 76 0 
N 83 88 0 
N 92 68 0 
O 65 16 0 
6
Atoms. Timestep: 2346
N 36 7 0 
N 86 82 0 
N 93 76 0 
N 83 89 0 
N 93 68 0 
O 66 16 0 
6
Atoms. Timestep: 2347
N 36 8 0 
N 87 82 0 
N 94 76 0 
N 84 89 0 
N 94 68 0 
O 67 16 0 
6
Atoms. Timestep: 2348
N 35 8 0 
N 88 82 0 
N 95 76 0 
N 85 89 0 
N 95 68 0 
O 68 16 0 
6
Atoms. Timestep: 2349
N 35 7 0 
N 89 82 0 
N 96 76 0 
N 86 89 0 
N 96 68 0 
O 69 16 0 
6
Atoms. Timestep: 2350
N 34 7 0 
N 90 82 0 
N 97 76 0 
N 87 89 0 
N 97 68 0 
O 70 16 0 
6
Atoms. Timestep: 2351
N 35 7 0 
N 91 82 0 
N 98 76 0 
N 88 89 0 
N 98 68 0 
O 71 16 0 
6
Atoms. Timestep: 2352
N 35 8 0 
N 92 82 0 
N 99 76 0 
N 89 89 0 
N 99 68 0 
O 72 16 0 
6
Atoms. Timestep: 2353
N 35 7 0 
N 93 82 0 
N 0 76 0 
N 90 89 0 
N 0 68 0 
O 73 16 0 
6
Atoms. Timestep: 2354
N 35 8 0 
N 94 82 0 
N 1 76 0 
N 91 89 0 
N 1 68 0 
O 74 16 0 
6
Atoms. Timestep: 2355
N 36 8 0 
N 95 82 0 
N 2 76 0 
N 92 89 0 
N 2 68 0 
O 75 16 0 
6
Atoms. Timestep: 2356
N 37 8 0 
N 96 82 0 
N 3 76 0 
N 93 89 0 
N 3 68 0 
O 76 16 0 
6
Atoms. Timestep: 2357
N 38 8 0 
N 97 82 0 
N 4 76 0 
N 92 89 0 
N 4 68 0 
O 77 16 0 
6
Atoms. Timestep: 2358
N 38 9 0 
N 98 82 0 
N 5 76 0 
N 93 89 0 
N 5 68 0 
O 78 16 0 
6
Atoms. Timestep: 2359
N 39 9 0 
N 99 82 0 
N 6 76 0 
N 94 89 0 
N 6 68 0 
O 79 16 0 
6
Atoms. Timestep: 2360
N 39 10 0 
N 0 82 0 
N 7 76 0 
N 95 89 0 
N 7 68 0 
O 80 16 0 
6
Atoms. Timestep: 2361
N 39 9 0 
N 1 82 0 
N 8 76 0 
N 96 89 0 
N 8 68 0 
O 81 16 0 
6
Atoms. Timestep: 2362
N 38 9 0 
N 2 82 0 
N 9 76 0 
N 97 89 0 
N 9 68 0 
O 82 16 0 
6
Atoms. Timestep: 2363
N 39 9 0 
N 3 82 0 
N 10 76 0 
N 98 89 0 
N 10 68 0 
O 83 16 0 
6
Atoms. Timestep: 2364
N 38 9 0 
N 4 82 0 
N 11 76 0 
N 98 90 0 
N 11 68 0 
O 84 16 0 
6
Atoms. Timestep: 2365
N 37 9 0 
N 5 82 0 
N 12 76 0 
N 99 90 0 
N 12 68 0 
O 85 16 0 
6
Atoms. Timestep: 2366
N 36 9 0 
N 6 82 0 
N 13 76 0 
N 0 90 0 
N 13 68 0 
O 86 16 0 
6
Atoms. Timestep: 2367
N 37 9 0 
N 7 82 0 
N 14 76 0 
N 1 90 0 
N 14 68 0 
O 87 16 0 
6
Atoms. Timestep: 2368
N 38 9 0 
N 8 82 0 
N 15 76 0 
N 2 90 0 
N 15 68 0 
O 88 16 0 
6
Atoms. Timestep: 2369
N 38 10 0 
N 9 82 0 
N 16 76 0 
N 3 90 0 
N 16 68 0 
O 89 16 0 
6
Atoms. Timestep: 2370
N 38 11 0 
N 10 82 0 
N 17 76 0 
N 4 90 0 
N 17 68 0 
O 90 16 0 
6
Atoms. Timestep: 2371
N 38 12 0 
N 11 82 0 
N 18 76 0 
N 5 90 0 
N 18 68 0 
O 91 16 0 
6
Atoms. Timestep: 2372
N 38 13 0 
N 12 82 0 
N 19 76 0 
N 6 90 0 
N 19 68 0 
O 92 16 0 
6
Atoms. Timestep: 2373
N 39 13 0 
N 13 82 0 
N 20 76 0 
N 7 90 0 
N 20 68 0 
O 93 16 0 
6
Atoms. Timestep: 2374
N 38 13 0 
N 14 82 0 
N 21 76 0 
N 8 90 0 
N 21 68 0 
O 94 16 0 
6
Atoms. Timestep: 2375
N 37 13 0 
N 15 82 0 
N 22 76 0 
N 9 90 0 
N 22 68 0 
O 95 16 0 
6
Atoms. Timestep: 2376
N 37 12 0 
N 16 82 0 
N 23 76 0 
N 10 90 0 
N 23 68 0 
O 96 16 0 
6
Atoms. Timestep: 2377
N 36 12 0 
N 16 83 0 
N 24 76 0 
N 11 90 0 
N 24 68 0 
O 97 16 0 
6
Atoms. Timestep: 2378
N 36 11 0 
N 17 83 0 
N 25 76 0 
N 12 90 0 
N 25 68 0 
O 98 16 0 
6
Atoms. Timestep: 2379
N 37 11 0 
N 18 83 0 
N 26 76 0 
N 13 90 0 
N 26 68 0 
O 99 16 0 
6
Atoms. Timestep: 2380
N 36 11 0 
N 19 83 0 
N 27 76 0 
N 14 90 0 
N 27 68 0 
O 0 16 0 
6
Atoms. Timestep: 2381
N 35 11 0 
N 20 83 0 
N 28 76 0 
N 15 90 0 
N 28 68 0 
O 1 16 0 
6
Atoms. Timestep: 2382
N 35 10 0 
N 21 83 0 
N 29 76 0 
N 16 90 0 
N 29 68 0 
O 2 16 0 
6
Atoms. Timestep: 2383
N 35 11 0 
N 22 83 0 
N 30 76 0 
N 17 90 0 
N 30 68 0 
O 3 16 0 
6
Atoms. Timestep: 2384
N 35 10 0 
N 23 83 0 
N 31 76 0 
N 18 90 0 
N 31 68 0 
O 4 16 0 
6
Atoms. Timestep: 2385
N 34 10 0 
N 24 83 0 
N 32 76 0 
N 19 90 0 
N 32 68 0 
O 5 16 0 
6
Atoms. Timestep: 2386
N 33 10 0 
N 25 83 0 
N 33 76 0 
N 20 90 0 
N 33 68 0 
O 6 16 0 
6
Atoms. Timestep: 2387
N 32 10 0 
N 26 83 0 
N 34 76 0 
N 21 90 0 
N 34 68 0 
O 7 16 0 
6
Atoms. Timestep: 2388
N 32 9 0 
N 27 83 0 
N 35 76 0 
N 22 90 0 
N 35 68 0 
O 8 16 0 
6
Atoms. Timestep: 2389
N 33 9 0 
N 28 83 0 
N 36 76 0 
N 23 90 0 
N 36 68 0 
O 9 16 0 
6
Atoms. Timestep: 2390
N 33 8 0 
N 29 83 0 
N 37 76 0 
N 24 90 0 
N 37 68 0 
O 10 16 0 
6
Atoms. Timestep: 2391
N 33 9 0 
N 30 83 0 
N 38 76 0 
N 25 90 0 
N 38 68 0 
O 11 16 0 
6
Atoms. Timestep: 2392
N 33 10 0 
N 31 83 0 
N 39 76 0 
N 26 90 0 
N 39 68 0 
O 12 16 0 
6
Atoms. Timestep: 2393
N 34 10 0 
N 32 83 0 
N 40 76 0 
N 26 91 0 
N 40 68 0 
O 13 16 0 
6
Atoms. Timestep: 2394
N 34 9 0 
N 33 83 0 
N 41 76 0 
N 27 91 0 
N 41 68 0 
O 14 16 0 
6
Atoms. Timestep: 2395
N 33 9 0 
N 34 83 0 
N 42 76 0 
N 28 91 0 
N 42 68 0 
O 15 16 0 
6
Atoms. Timestep: 2396
N 33 8 0 
N 35 83 0 
N 43 76 0 
N 29 91 0 
N 43 68 0 
O 16 16 0 
6
Atoms. Timestep: 2397
N 33 9 0 
N 36 83 0 
N 44 76 0 
N 30 91 0 
N 44 68 0 
O 17 16 0 
6
Atoms. Timestep: 2398
N 33 10 0 
N 37 83 0 
N 45 76 0 
N 31 91 0 
N 43 68 0 
O 18 16 0 
6
Atoms. Timestep: 2399
N 33 9 0 
N 38 83 0 
N 46 76 0 
N 32 91 0 
N 44 68 0 
O 19 16 0 
6
Atoms. Timestep: 2400
N 33 8 0 
N 39 83 0 
N 47 76 0 
N 33 91 0 
N 45 68 0 
O 20 16 0 
6
Atoms. Timestep: 2401
N 32 8 0 
N 40 83 0 
N 48 76 0 
N 34 91 0 
N 46 68 0 
O 21 16 0 
6
Atoms. Timestep: 2402
N 33 8 0 
N 41 83 0 
N 49 76 0 
N 35 91 0 
N 47 68 0 
O 22 16 0 
6
Atoms. Timestep: 2403
N 32 8 0 
N 42 83 0 
N 50 76 0 
N 36 91 0 
N 48 68 0 
O 23 16 0 
6
Atoms. Timestep: 2404
N 32 7 0 
N 43 83 0 
N 51 76 0 
N 36 90 0 
N 49 68 0 
O 24 16 0 
6
Atoms. Timestep: 2405
N 31 7 0 
N 44 83 0 
N 52 76 0 
N 37 90 0 
N 50 68 0 
O 25 16 0 
6
Atoms. Timestep: 2406
N 32 7 0 
N 45 83 0 
N 53 76 0 
N 38 90 0 
N 51 68 0 
O 26 16 0 
6
Atoms. Timestep: 2407
N 32 8 0 
N 46 83 0 
N 54 76 0 
N 39 90 0 
N 52 68 0 
O 27 16 0 
6
Atoms. Timestep: 2408
N 31 8 0 
N 47 83 0 
N 55 76 0 
N 40 90 0 
N 53 68 0 
O 28 16 0 
6
Atoms. Timestep: 2409
N 30 8 0 
N 48 83 0 
N 56 76 0 
N 41 90 0 
N 54 68 0 
O 29 16 0 
6
Atoms. Timestep: 2410
N 30 9 0 
N 49 83 0 
N 57 76 0 
N 42 90 0 
N 55 68 0 
O 30 16 0 
6
Atoms. Timestep: 2411
N 31 9 0 
N 50 83 0 
N 58 76 0 
N 43 90 0 
N 56 68 0 
O 31 16 0 
6
Atoms. Timestep: 2412
N 32 9 0 
N 51 83 0 
N 59 76 0 
N 44 90 0 
N 57 68 0 
O 32 16 0 
6
Atoms. Timestep: 2413
N 32 8 0 
N 52 83 0 
N 60 76 0 
N 45 90 0 
N 58 68 0 
O 33 16 0 
6
Atoms. Timestep: 2414
N 33 8 0 
N 53 83 0 
N 59 76 0 
N 46 90 0 
N 59 68 0 
O 34 16 0 
6
Atoms. Timestep: 2415
N 34 8 0 
N 54 83 0 
N 60 76 0 
N 47 90 0 
N 60 68 0 
O 35 16 0 
6
Atoms. Timestep: 2416
N 34 7 0 
N 55 83 0 
N 61 76 0 
N 48 90 0 
N 61 68 0 
O 36 16 0 
6
Atoms. Timestep: 2417
N 34 6 0 
N 56 83 0 
N 62 76 0 
N 49 90 0 
N 62 68 0 
O 37 16 0 
6
Atoms. Timestep: 2418
N 34 7 0 
N 57 83 0 
N 63 76 0 
N 50 90 0 
N 63 68 0 
O 38 16 0 
6
Atoms. Timestep: 2419
N 34 8 0 
N 58 83 0 
N 64 76 0 
N 51 90 0 
N 64 68 0 
O 39 16 0 
6
Atoms. Timestep: 2420
N 33 8 0 
N 59 83 0 
N 65 76 0 
N 52 90 0 
N 65 68 0 
O 40 16 0 
6
Atoms. Timestep: 2421
N 34 8 0 
N 60 83 0 
N 66 76 0 
N 53 90 0 
N 66 68 0 
O 41 16 0 
6
Atoms. Timestep: 2422
N 35 8 0 
N 61 83 0 
N 67 76 0 
N 54 90 0 
N 67 68 0 
O 42 16 0 
6
Atoms. Timestep: 2423
N 36 8 0 
N 62 83 0 
N 68 76 0 
N 55 90 0 
N 68 68 0 
O 43 16 0 
6
Atoms. Timestep: 2424
N 35 8 0 
N 63 83 0 
N 69 76 0 
N 56 90 0 
N 69 68 0 
O 44 16 0 
6
Atoms. Timestep: 2425
N 35 9 0 
N 64 83 0 
N 70 76 0 
N 57 90 0 
N 70 68 0 
O 45 16 0 
6
Atoms. Timestep: 2426
N 35 8 0 
N 65 83 0 
N 69 76 0 
N 58 90 0 
N 71 68 0 
O 46 16 0 
6
Atoms. Timestep: 2427
N 36 8 0 
N 66 83 0 
N 70 76 0 
N 59 90 0 
N 72 68 0 
O 47 16 0 
6
Atoms. Timestep: 2428
N 36 9 0 
N 67 83 0 
N 71 76 0 
N 60 90 0 
N 73 68 0 
O 48 16 0 
6
Atoms. Timestep: 2429
N 37 9 0 
N 68 83 0 
N 72 76 0 
N 61 90 0 
N 74 68 0 
O 49 16 0 
6
Atoms. Timestep: 2430
N 38 9 0 
N 69 83 0 
N 73 76 0 
N 62 90 0 
N 75 68 0 
O 50 16 0 
6
Atoms. Timestep: 2431
N 39 9 0 
N 70 83 0 
N 73 77 0 
N 63 90 0 
N 76 68 0 
O 51 16 0 
6
Atoms. Timestep: 2432
N 39 10 0 
N 71 83 0 
N 74 77 0 
N 64 90 0 
N 77 68 0 
O 52 16 0 
6
Atoms. Timestep: 2433
N 40 10 0 
N 72 83 0 
N 75 77 0 
N 65 90 0 
N 78 68 0 
O 53 16 0 
6
Atoms. Timestep: 2434
N 40 9 0 
N 73 83 0 
N 76 77 0 
N 66 90 0 
N 79 68 0 
O 54 16 0 
6
Atoms. Timestep: 2435
N 41 9 0 
N 73 82 0 
N 77 77 0 
N 67 90 0 
N 78 68 0 
O 55 16 0 
6
Atoms. Timestep: 2436
N 41 8 0 
N 74 82 0 
N 78 77 0 
N 68 90 0 
N 79 68 0 
O 56 16 0 
6
Atoms. Timestep: 2437
N 41 9 0 
N 75 82 0 
N 79 77 0 
N 69 90 0 
N 80 68 0 
O 57 16 0 
6
Atoms. Timestep: 2438
N 42 9 0 
N 76 82 0 
N 80 77 0 
N 69 91 0 
N 81 68 0 
O 58 16 0 
6
Atoms. Timestep: 2439
N 42 8 0 
N 77 82 0 
N 81 77 0 
N 70 91 0 
N 82 68 0 
O 59 16 0 
6
Atoms. Timestep: 2440
N 43 8 0 
N 78 82 0 
N 82 77 0 
N 71 91 0 
N 83 68 0 
O 60 16 0 
6
Atoms. Timestep: 2441
N 43 7 0 
N 79 82 0 
N 83 77 0 
N 72 91 0 
N 84 68 0 
O 61 16 0 
6
Atoms. Timestep: 2442
N 42 7 0 
N 80 82 0 
N 84 77 0 
N 73 91 0 
N 85 68 0 
O 62 16 0 
6
Atoms. Timestep: 2443
N 42 6 0 
N 81 82 0 
N 85 77 0 
N 74 91 0 
N 86 68 0 
O 63 16 0 
6
Atoms. Timestep: 2444
N 43 6 0 
N 82 82 0 
N 86 77 0 
N 75 91 0 
N 87 68 0 
O 64 16 0 
6
Atoms. Timestep: 2445
N 42 6 0 
N 83 82 0 
N 87 77 0 
N 76 91 0 
N 88 68 0 
O 65 16 0 
6
Atoms. Timestep: 2446
N 43 6 0 
N 84 82 0 
N 88 77 0 
N 77 91 0 
N 89 68 0 
O 66 16 0 
6
Atoms. Timestep: 2447
N 43 5 0 
N 85 82 0 
N 89 77 0 
N 78 91 0 
N 90 68 0 
O 67 16 0 
6
Atoms. Timestep: 2448
N 43 4 0 
N 86 82 0 
N 90 77 0 
N 79 91 0 
N 91 68 0 
O 68 16 0 
6
Atoms. Timestep: 2449
N 43 3 0 
N 87 82 0 
N 91 77 0 
N 80 91 0 
N 92 68 0 
O 69 16 0 
6
Atoms. Timestep: 2450
N 43 2 0 
N 88 82 0 
N 92 77 0 
N 81 91 0 
N 93 68 0 
O 70 16 0 
6
Atoms. Timestep: 2451
N 42 2 0 
N 89 82 0 
N 93 77 0 
N 82 91 0 
N 94 68 0 
O 71 16 0 
6
Atoms. Timestep: 2452
N 41 2 0 
N 90 82 0 
N 94 77 0 
N 83 91 0 
N 94 67 0 
O 72 16 0 
6
Atoms. Timestep: 2453
N 41 1 0 
N 91 82 0 
N 95 77 0 
N 84 91 0 
N 95 67 0 
O 73 16 0 
6
Atoms. Timestep: 2454
N 42 1 0 
N 92 82 0 
N 96 77 0 
N 85 91 0 
N 96 67 0 
O 74 16 0 
6
Atoms. Timestep: 2455
N 42 0 0 
N 93 82 0 
N 97 77 0 
N 86 91 0 
N 97 67 0 
O 75 16 0 
6
Atoms. Timestep: 2456
N 41 0 0 
N 94 82 0 
N 98 77 0 
N 87 91 0 
N 98 67 0 
O 76 16 0 
6
Atoms. Timestep: 2457
N 41 99 0 
N 95 82 0 
N 99 77 0 
N 88 91 0 
N 99 67 0 
O 77 16 0 
6
Atoms. Timestep: 2458
N 41 98 0 
N 96 82 0 
N 0 77 0 
N 89 91 0 
N 0 67 0 
O 78 16 0 
6
Atoms. Timestep: 2459
N 41 99 0 
N 97 82 0 
N 1 77 0 
N 90 91 0 
N 1 67 0 
O 79 16 0 
6
Atoms. Timestep: 2460
N 42 99 0 
N 98 82 0 
N 2 77 0 
N 91 91 0 
N 2 67 0 
O 80 16 0 
6
Atoms. Timestep: 2461
N 42 98 0 
N 99 82 0 
N 3 77 0 
N 92 91 0 
N 3 67 0 
O 81 16 0 
6
Atoms. Timestep: 2462
N 41 98 0 
N 0 82 0 
N 4 77 0 
N 93 91 0 
N 4 67 0 
O 82 16 0 
6
Atoms. Timestep: 2463
N 42 98 0 
N 1 82 0 
N 5 77 0 
N 94 91 0 
N 5 67 0 
O 83 16 0 
6
Atoms. Timestep: 2464
N 42 97 0 
N 2 82 0 
N 6 77 0 
N 95 91 0 
N 6 67 0 
O 84 16 0 
6
Atoms. Timestep: 2465
N 42 96 0 
N 3 82 0 
N 7 77 0 
N 95 90 0 
N 7 67 0 
O 85 16 0 
6
Atoms. Timestep: 2466
N 41 96 0 
N 4 82 0 
N 8 77 0 
N 96 90 0 
N 8 67 0 
O 86 16 0 
6
Atoms. Timestep: 2467
N 40 96 0 
N 5 82 0 
N 9 77 0 
N 97 90 0 
N 9 67 0 
O 87 16 0 
6
Atoms. Timestep: 2468
N 41 96 0 
N 6 82 0 
N 10 77 0 
N 98 90 0 
N 9 68 0 
O 88 16 0 
6
Atoms. Timestep: 2469
N 42 96 0 
N 7 82 0 
N 11 77 0 
N 99 90 0 
N 10 68 0 
O 89 16 0 
6
Atoms. Timestep: 2470
N 42 97 0 
N 8 82 0 
N 12 77 0 
N 0 90 0 
N 11 68 0 
O 90 16 0 
6
Atoms. Timestep: 2471
N 42 98 0 
N 9 82 0 
N 13 77 0 
N 1 90 0 
N 12 68 0 
O 91 16 0 
6
Atoms. Timestep: 2472
N 43 98 0 
N 10 82 0 
N 14 77 0 
N 2 90 0 
N 13 68 0 
O 92 16 0 
6
Atoms. Timestep: 2473
N 43 99 0 
N 11 82 0 
N 13 77 0 
N 3 90 0 
N 14 68 0 
O 93 16 0 
6
Atoms. Timestep: 2474
N 43 98 0 
N 12 82 0 
N 14 77 0 
N 4 90 0 
N 15 68 0 
O 94 16 0 
6
Atoms. Timestep: 2475
N 43 99 0 
N 13 82 0 
N 15 77 0 
N 5 90 0 
N 16 68 0 
O 95 16 0 
6
Atoms. Timestep: 2476
N 42 99 0 
N 14 82 0 
N 16 77 0 
N 6 90 0 
N 17 68 0 
O 96 16 0 
6
Atoms. Timestep: 2477
N 43 99 0 
N 15 82 0 
N 17 77 0 
N 7 90 0 
N 18 68 0 
O 97 16 0 
6
Atoms. Timestep: 2478
N 42 99 0 
N 16 82 0 
N 18 77 0 
N 8 90 0 
N 19 68 0 
O 98 16 0 
6
Atoms. Timestep: 2479
N 43 99 0 
N 17 82 0 
N 19 77 0 
N 9 90 0 
N 20 68 0 
O 99 16 0 
6
Atoms. Timestep: 2480
N 43 98 0 
N 17 81 0 
N 20 77 0 
N 10 90 0 
N 21 68 0 
O 0 16 0 
6
Atoms. Timestep: 2481
N 43 99 0 
N 18 81 0 
N 21 77 0 
N 11 90 0 
N 22 68 0 
O 1 16 0 
6
Atoms. Timestep: 2482
N 44 99 0 
N 19 81 0 
N 22 77 0 
N 12 90 0 
N 23 68 0 
O 2 16 0 
6
Atoms. Timestep: 2483
N 44 0 0 
N 20 81 0 
N 23 77 0 
N 13 90 0 
N 24 68 0 
O 3 16 0 
6
Atoms. Timestep: 2484
N 44 1 0 
N 21 81 0 
N 24 77 0 
N 14 90 0 
N 25 68 0 
O 4 16 0 
6
Atoms. Timestep: 2485
N 44 0 0 
N 22 81 0 
N 25 77 0 
N 15 90 0 
N 26 68 0 
O 5 16 0 
6
Atoms. Timestep: 2486
N 44 99 0 
N 23 81 0 
N 26 77 0 
N 16 90 0 
N 27 68 0 
O 6 16 0 
6
Atoms. Timestep: 2487
N 44 98 0 
N 24 81 0 
N 27 77 0 
N 17 90 0 
N 28 68 0 
O 7 16 0 
6
Atoms. Timestep: 2488
N 44 97 0 
N 25 81 0 
N 28 77 0 
N 18 90 0 
N 29 68 0 
O 8 16 0 
6
Atoms. Timestep: 2489
N 45 97 0 
N 26 81 0 
N 29 77 0 
N 19 90 0 
N 30 68 0 
O 9 16 0 
6
Atoms. Timestep: 2490
N 46 97 0 
N 27 81 0 
N 30 77 0 
N 20 90 0 
N 31 68 0 
O 10 16 0 
6
Atoms. Timestep: 2491
N 47 97 0 
N 28 81 0 
N 31 77 0 
N 21 90 0 
N 32 68 0 
O 11 16 0 
6
Atoms. Timestep: 2492
N 48 97 0 
N 29 81 0 
N 32 77 0 
N 22 90 0 
N 33 68 0 
O 12 16 0 
6
Atoms. Timestep: 2493
N 48 98 0 
N 30 81 0 
N 33 77 0 
N 22 91 0 
N 34 68 0 
O 13 16 0 
6
Atoms. Timestep: 2494
N 48 99 0 
N 31 81 0 
N 34 77 0 
N 23 91 0 
N 35 68 0 
O 14 16 0 
6
Atoms. Timestep: 2495
N 48 98 0 
N 32 81 0 
N 35 77 0 
N 24 91 0 
N 36 68 0 
O 15 16 0 
6
Atoms. Timestep: 2496
N 47 98 0 
N 33 81 0 
N 36 77 0 
N 25 91 0 
N 37 68 0 
O 16 16 0 
6
Atoms. Timestep: 2497
N 47 97 0 
N 34 81 0 
N 37 77 0 
N 26 91 0 
N 38 68 0 
O 17 16 0 
6
Atoms. Timestep: 2498
N 48 97 0 
N 35 81 0 
N 38 77 0 
N 27 91 0 
N 39 68 0 
O 18 16 0 
6
Atoms. Timestep: 2499
N 49 97 0 
N 36 81 0 
N 39 77 0 
N 26 91 0 
N 40 68 0 
O 19 16 0 
6
Atoms. Timestep: 2500
N 50 97 0 
N 37 81 0 
N 40 77 0 
N 27 91 0 
N 41 68 0 
O 20 16 0 
6
Atoms. Timestep: 2501
N 50 96 0 
N 38 81 0 
N 41 77 0 
N 28 91 0 
N 42 68 0 
O 21 16 0 
6
Atoms. Timestep: 2502
N 50 95 0 
N 39 81 0 
N 42 77 0 
N 29 91 0 
N 43 68 0 
O 22 16 0 
6
Atoms. Timestep: 2503
N 50 96 0 
N 40 81 0 
N 43 77 0 
N 30 91 0 
N 44 68 0 
O 23 16 0 
6
Atoms. Timestep: 2504
N 50 97 0 
N 41 81 0 
N 44 77 0 
N 31 91 0 
N 45 68 0 
O 24 16 0 
6
Atoms. Timestep: 2505
N 51 97 0 
N 42 81 0 
N 45 77 0 
N 31 90 0 
N 46 68 0 
O 25 16 0 
6
Atoms. Timestep: 2506
N 50 97 0 
N 43 81 0 
N 45 78 0 
N 32 90 0 
N 47 68 0 
O 26 16 0 
6
Atoms. Timestep: 2507
N 51 97 0 
N 44 81 0 
N 46 78 0 
N 33 90 0 
N 48 68 0 
O 27 16 0 
6
Atoms. Timestep: 2508
N 51 98 0 
N 45 81 0 
N 47 78 0 
N 34 90 0 
N 49 68 0 
O 28 16 0 
6
Atoms. Timestep: 2509
N 52 98 0 
N 46 81 0 
N 48 78 0 
N 35 90 0 
N 50 68 0 
O 29 16 0 
6
Atoms. Timestep: 2510
N 52 97 0 
N 47 81 0 
N 49 78 0 
N 36 90 0 
N 51 68 0 
O 30 16 0 
6
Atoms. Timestep: 2511
N 52 96 0 
N 48 81 0 
N 50 78 0 
N 37 90 0 
N 52 68 0 
O 31 16 0 
6
Atoms. Timestep: 2512
N 51 96 0 
N 49 81 0 
N 51 78 0 
N 38 90 0 
N 53 68 0 
O 32 16 0 
6
Atoms. Timestep: 2513
N 50 96 0 
N 50 81 0 
N 52 78 0 
N 39 90 0 
N 54 68 0 
O 33 16 0 
6
Atoms. Timestep: 2514
N 50 97 0 
N 50 80 0 
N 53 78 0 
N 40 90 0 
N 55 68 0 
O 34 16 0 
6
Atoms. Timestep: 2515
N 50 96 0 
N 51 80 0 
N 54 78 0 
N 41 90 0 
N 56 68 0 
O 35 16 0 
6
Atoms. Timestep: 2516
N 51 96 0 
N 52 80 0 
N 55 78 0 
N 42 90 0 
N 57 68 0 
O 36 16 0 
6
Atoms. Timestep: 2517
N 51 97 0 
N 53 80 0 
N 56 78 0 
N 43 90 0 
N 58 68 0 
O 37 16 0 
6
Atoms. Timestep: 2518
N 50 97 0 
N 54 80 0 
N 57 78 0 
N 44 90 0 
N 59 68 0 
O 38 16 0 
6
Atoms. Timestep: 2519
N 50 98 0 
N 55 80 0 
N 58 78 0 
N 45 90 0 
N 60 68 0 
O 39 16 0 
6
Atoms. Timestep: 2520
N 51 98 0 
N 56 80 0 
N 59 78 0 
N 46 90 0 
N 61 68 0 
O 40 16 0 
6
Atoms. Timestep: 2521
N 51 99 0 
N 57 80 0 
N 60 78 0 
N 47 90 0 
N 62 68 0 
O 41 16 0 
6
Atoms. Timestep: 2522
N 50 99 0 
N 58 80 0 
N 61 78 0 
N 48 90 0 
N 63 68 0 
O 42 16 0 
6
Atoms. Timestep: 2523
N 50 0 0 
N 59 80 0 
N 62 78 0 
N 49 90 0 
N 64 68 0 
O 43 16 0 
6
Atoms. Timestep: 2524
N 50 99 0 
N 60 80 0 
N 63 78 0 
N 50 90 0 
N 65 68 0 
O 44 16 0 
6
Atoms. Timestep: 2525
N 50 0 0 
N 61 80 0 
N 64 78 0 
N 51 90 0 
N 66 68 0 
O 45 16 0 
6
Atoms. Timestep: 2526
N 50 99 0 
N 62 80 0 
N 65 78 0 
N 52 90 0 
N 67 68 0 
O 46 16 0 
6
Atoms. Timestep: 2527
N 50 98 0 
N 63 80 0 
N 66 78 0 
N 53 90 0 
N 68 68 0 
O 47 16 0 
6
Atoms. Timestep: 2528
N 50 97 0 
N 64 80 0 
N 67 78 0 
N 54 90 0 
N 69 68 0 
O 48 16 0 
6
Atoms. Timestep: 2529
N 50 96 0 
N 65 80 0 
N 68 78 0 
N 55 90 0 
N 70 68 0 
O 49 16 0 
6
Atoms. Timestep: 2530
N 50 97 0 
N 65 81 0 
N 69 78 0 
N 56 90 0 
N 71 68 0 
O 50 16 0 
6
Atoms. Timestep: 2531
N 51 97 0 
N 66 81 0 
N 70 78 0 
N 57 90 0 
N 72 68 0 
O 51 16 0 
6
Atoms. Timestep: 2532
N 50 97 0 
N 67 81 0 
N 71 78 0 
N 58 90 0 
N 73 68 0 
O 52 16 0 
6
Atoms. Timestep: 2533
N 49 97 0 
N 68 81 0 
N 72 78 0 
N 59 90 0 
N 74 68 0 
O 53 16 0 
6
Atoms. Timestep: 2534
N 48 97 0 
N 69 81 0 
N 73 78 0 
N 60 90 0 
N 75 68 0 
O 54 16 0 
6
Atoms. Timestep: 2535
N 48 96 0 
N 70 81 0 
N 74 78 0 
N 61 90 0 
N 76 68 0 
O 55 16 0 
6
Atoms. Timestep: 2536
N 48 95 0 
N 71 81 0 
N 75 78 0 
N 62 90 0 
N 77 68 0 
O 56 16 0 
6
Atoms. Timestep: 2537
N 48 94 0 
N 72 81 0 
N 76 78 0 
N 63 90 0 
N 78 68 0 
O 57 16 0 
6
Atoms. Timestep: 2538
N 48 95 0 
N 73 81 0 
N 77 78 0 
N 64 90 0 
N 79 68 0 
O 58 16 0 
6
Atoms. Timestep: 2539
N 49 95 0 
N 74 81 0 
N 78 78 0 
N 65 90 0 
N 80 68 0 
O 59 16 0 
6
Atoms. Timestep: 2540
N 50 95 0 
N 75 81 0 
N 79 78 0 
N 66 90 0 
N 81 68 0 
O 60 16 0 
6
Atoms. Timestep: 2541
N 50 94 0 
N 76 81 0 
N 80 78 0 
N 67 90 0 
N 82 68 0 
O 61 16 0 
6
Atoms. Timestep: 2542
N 50 95 0 
N 77 81 0 
N 81 78 0 
N 68 90 0 
N 83 68 0 
O 62 16 0 
6
Atoms. Timestep: 2543
N 50 94 0 
N 78 81 0 
N 82 78 0 
N 69 90 0 
N 84 68 0 
O 63 16 0 
6
Atoms. Timestep: 2544
N 50 93 0 
N 79 81 0 
N 83 78 0 
N 70 90 0 
N 85 68 0 
O 64 16 0 
6
Atoms. Timestep: 2545
N 51 93 0 
N 80 81 0 
N 84 78 0 
N 71 90 0 
N 86 68 0 
O 65 16 0 
6
Atoms. Timestep: 2546
N 52 93 0 
N 81 81 0 
N 85 78 0 
N 72 90 0 
N 87 68 0 
O 66 16 0 
6
Atoms. Timestep: 2547
N 52 92 0 
N 82 81 0 
N 86 78 0 
N 73 90 0 
N 88 68 0 
O 67 16 0 
6
Atoms. Timestep: 2548
N 53 92 0 
N 83 81 0 
N 87 78 0 
N 74 90 0 
N 89 68 0 
O 68 16 0 
6
Atoms. Timestep: 2549
N 53 93 0 
N 84 81 0 
N 88 78 0 
N 75 90 0 
N 90 68 0 
O 69 16 0 
6
Atoms. Timestep: 2550
N 53 94 0 
N 84 82 0 
N 89 78 0 
N 76 90 0 
N 90 67 0 
O 70 16 0 
6
Atoms. Timestep: 2551
N 54 94 0 
N 85 82 0 
N 90 78 0 
N 77 90 0 
N 91 67 0 
O 71 16 0 
6
Atoms. Timestep: 2552
N 55 94 0 
N 86 82 0 
N 91 78 0 
N 78 90 0 
N 92 67 0 
O 72 16 0 
6
Atoms. Timestep: 2553
N 54 94 0 
N 87 82 0 
N 92 78 0 
N 79 90 0 
N 93 67 0 
O 73 16 0 
6
Atoms. Timestep: 2554
N 53 94 0 
N 88 82 0 
N 93 78 0 
N 80 90 0 
N 94 67 0 
O 74 16 0 
6
Atoms. Timestep: 2555
N 53 95 0 
N 89 82 0 
N 94 78 0 
N 81 90 0 
N 95 67 0 
O 75 16 0 
6
Atoms. Timestep: 2556
N 53 96 0 
N 90 82 0 
N 95 78 0 
N 82 90 0 
N 96 67 0 
O 76 16 0 
6
Atoms. Timestep: 2557
N 53 97 0 
N 91 82 0 
N 96 78 0 
N 83 90 0 
N 97 67 0 
O 77 16 0 
6
Atoms. Timestep: 2558
N 53 96 0 
N 92 82 0 
N 97 78 0 
N 84 90 0 
N 98 67 0 
O 78 16 0 
6
Atoms. Timestep: 2559
N 54 96 0 
N 93 82 0 
N 98 78 0 
N 85 90 0 
N 99 67 0 
O 79 16 0 
6
Atoms. Timestep: 2560
N 55 96 0 
N 94 82 0 
N 99 78 0 
N 86 90 0 
N 0 67 0 
O 80 16 0 
6
Atoms. Timestep: 2561
N 54 96 0 
N 95 82 0 
N 0 78 0 
N 87 90 0 
N 1 67 0 
O 81 16 0 
6
Atoms. Timestep: 2562
N 54 95 0 
N 96 82 0 
N 1 78 0 
N 88 90 0 
N 2 67 0 
O 82 16 0 
6
Atoms. Timestep: 2563
N 54 96 0 
N 97 82 0 
N 2 78 0 
N 89 90 0 
N 3 67 0 
O 83 16 0 
6
Atoms. Timestep: 2564
N 55 96 0 
N 98 82 0 
N 3 78 0 
N 90 90 0 
N 4 67 0 
O 84 16 0 
6
Atoms. Timestep: 2565
N 54 96 0 
N 99 82 0 
N 4 78 0 
N 91 90 0 
N 5 67 0 
O 85 16 0 
6
Atoms. Timestep: 2566
N 55 96 0 
N 0 82 0 
N 4 77 0 
N 92 90 0 
N 6 67 0 
O 86 16 0 
6
Atoms. Timestep: 2567
N 54 96 0 
N 1 82 0 
N 5 77 0 
N 93 90 0 
N 7 67 0 
O 87 16 0 
6
Atoms. Timestep: 2568
N 53 96 0 
N 2 82 0 
N 6 77 0 
N 94 90 0 
N 8 67 0 
O 88 16 0 
6
Atoms. Timestep: 2569
N 53 97 0 
N 3 82 0 
N 7 77 0 
N 95 90 0 
N 9 67 0 
O 89 16 0 
6
Atoms. Timestep: 2570
N 52 97 0 
N 4 82 0 
N 8 77 0 
N 96 90 0 
N 10 67 0 
O 90 16 0 
6
Atoms. Timestep: 2571
N 53 97 0 
N 5 82 0 
N 9 77 0 
N 97 90 0 
N 10 66 0 
O 91 16 0 
6
Atoms. Timestep: 2572
N 53 96 0 
N 6 82 0 
N 10 77 0 
N 98 90 0 
N 10 67 0 
O 92 16 0 
6
Atoms. Timestep: 2573
N 53 97 0 
N 7 82 0 
N 11 77 0 
N 99 90 0 
N 11 67 0 
O 93 16 0 
6
Atoms. Timestep: 2574
N 53 96 0 
N 8 82 0 
N 12 77 0 
N 0 90 0 
N 10 67 0 
O 94 16 0 
6
Atoms. Timestep: 2575
N 52 96 0 
N 9 82 0 
N 13 77 0 
N 1 90 0 
N 11 67 0 
O 95 16 0 
6
Atoms. Timestep: 2576
N 53 96 0 
N 10 82 0 
N 14 77 0 
N 2 90 0 
N 12 67 0 
O 96 16 0 
6
Atoms. Timestep: 2577
N 54 96 0 
N 11 82 0 
N 15 77 0 
N 3 90 0 
N 13 67 0 
O 97 16 0 
6
Atoms. Timestep: 2578
N 54 97 0 
N 12 82 0 
N 16 77 0 
N 4 90 0 
N 14 67 0 
O 98 16 0 
6
Atoms. Timestep: 2579
N 54 96 0 
N 13 82 0 
N 17 77 0 
N 5 90 0 
N 15 67 0 
O 99 16 0 
6
Atoms. Timestep: 2580
N 53 96 0 
N 14 82 0 
N 18 77 0 
N 6 90 0 
N 16 67 0 
O 0 16 0 
6
Atoms. Timestep: 2581
N 54 96 0 
N 15 82 0 
N 19 77 0 
N 7 90 0 
N 17 67 0 
O 1 16 0 
6
Atoms. Timestep: 2582
N 55 96 0 
N 16 82 0 
N 20 77 0 
N 8 90 0 
N 18 67 0 
O 2 16 0 
6
Atoms. Timestep: 2583
N 56 96 0 
N 17 82 0 
N 21 77 0 
N 9 90 0 
N 19 67 0 
O 3 16 0 
6
Atoms. Timestep: 2584
N 56 95 0 
N 18 82 0 
N 22 77 0 
N 10 90 0 
N 20 67 0 
O 4 16 0 
6
Atoms. Timestep: 2585
N 56 96 0 
N 19 82 0 
N 23 77 0 
N 11 90 0 
N 21 67 0 
O 5 16 0 
6
Atoms. Timestep: 2586
N 56 97 0 
N 20 82 0 
N 24 77 0 
N 12 90 0 
N 22 67 0 
O 6 16 0 
6
Atoms. Timestep: 2587
N 56 98 0 
N 21 82 0 
N 25 77 0 
N 13 90 0 
N 23 67 0 
O 7 16 0 
6
Atoms. Timestep: 2588
N 55 98 0 
N 22 82 0 
N 26 77 0 
N 14 90 0 
N 24 67 0 
O 8 16 0 
6
Atoms. Timestep: 2589
N 56 98 0 
N 23 82 0 
N 27 77 0 
N 15 90 0 
N 25 67 0 
O 9 16 0 
6
Atoms. Timestep: 2590
N 57 98 0 
N 24 82 0 
N 28 77 0 
N 16 90 0 
N 26 67 0 
O 10 16 0 
6
Atoms. Timestep: 2591
N 57 97 0 
N 25 82 0 
N 29 77 0 
N 17 90 0 
N 27 67 0 
O 11 16 0 
6
Atoms. Timestep: 2592
N 57 96 0 
N 26 82 0 
N 30 77 0 
N 18 90 0 
N 28 67 0 
O 12 16 0 
6
Atoms. Timestep: 2593
N 56 96 0 
N 27 82 0 
N 31 77 0 
N 19 90 0 
N 29 67 0 
O 13 16 0 
6
Atoms. Timestep: 2594
N 55 96 0 
N 28 82 0 
N 32 77 0 
N 20 90 0 
N 30 67 0 
O 14 16 0 
6
Atoms. Timestep: 2595
N 55 97 0 
N 29 82 0 
N 33 77 0 
N 21 90 0 
N 31 67 0 
O 15 16 0 
6
Atoms. Timestep: 2596
N 54 97 0 
N 30 82 0 
N 34 77 0 
N 22 90 0 
N 32 67 0 
O 16 16 0 
6
Atoms. Timestep: 2597
N 54 98 0 
N 31 82 0 
N 35 77 0 
N 23 90 0 
N 33 67 0 
O 17 16 0 
6
Atoms. Timestep: 2598
N 54 99 0 
N 32 82 0 
N 36 77 0 
N 24 90 0 
N 34 67 0 
O 18 16 0 
6
Atoms. Timestep: 2599
N 55 99 0 
N 33 82 0 
N 37 77 0 
N 25 90 0 
N 35 67 0 
O 19 16 0 
6
Atoms. Timestep: 2600
N 55 98 0 
N 34 82 0 
N 38 77 0 
N 26 90 0 
N 36 67 0 
O 20 16 0 
6
Atoms. Timestep: 2601
N 56 98 0 
N 35 82 0 
N 39 77 0 
N 27 90 0 
N 37 67 0 
O 21 16 0 
6
Atoms. Timestep: 2602
N 55 98 0 
N 36 82 0 
N 40 77 0 
N 28 90 0 
N 38 67 0 
O 22 16 0 
6
Atoms. Timestep: 2603
N 54 98 0 
N 37 82 0 
N 41 77 0 
N 29 90 0 
N 39 67 0 
O 23 16 0 
6
Atoms. Timestep: 2604
N 53 98 0 
N 38 82 0 
N 42 77 0 
N 30 90 0 
N 40 67 0 
O 24 16 0 
6
Atoms. Timestep: 2605
N 53 97 0 
N 39 82 0 
N 43 77 0 
N 31 90 0 
N 41 67 0 
O 25 16 0 
6
Atoms. Timestep: 2606
N 53 98 0 
N 40 82 0 
N 44 77 0 
N 32 90 0 
N 42 67 0 
O 26 16 0 
6
Atoms. Timestep: 2607
N 53 97 0 
N 41 82 0 
N 45 77 0 
N 33 90 0 
N 43 67 0 
O 27 16 0 
6
Atoms. Timestep: 2608
N 52 97 0 
N 42 82 0 
N 46 77 0 
N 34 90 0 
N 44 67 0 
O 28 16 0 
6
Atoms. Timestep: 2609
N 53 97 0 
N 43 82 0 
N 47 77 0 
N 35 90 0 
N 45 67 0 
O 29 16 0 
6
Atoms. Timestep: 2610
N 52 97 0 
N 44 82 0 
N 48 77 0 
N 36 90 0 
N 46 67 0 
O 30 16 0 
6
Atoms. Timestep: 2611
N 53 97 0 
N 44 83 0 
N 49 77 0 
N 37 90 0 
N 45 67 0 
O 31 16 0 
6
Atoms. Timestep: 2612
N 53 98 0 
N 45 83 0 
N 50 77 0 
N 38 90 0 
N 45 66 0 
O 32 16 0 
6
Atoms. Timestep: 2613
N 52 98 0 
N 46 83 0 
N 51 77 0 
N 39 90 0 
N 46 66 0 
O 31 16 0 
6
Atoms. Timestep: 2614
N 52 97 0 
N 47 83 0 
N 52 77 0 
N 40 90 0 
N 47 66 0 
O 32 16 0 
6
Atoms. Timestep: 2615
N 52 98 0 
N 48 83 0 
N 53 77 0 
N 41 90 0 
N 48 66 0 
O 33 16 0 
6
Atoms. Timestep: 2616
N 53 98 0 
N 49 83 0 
N 54 77 0 
N 42 90 0 
N 49 66 0 
O 34 16 0 
6
Atoms. Timestep: 2617
N 53 99 0 
N 50 83 0 
N 55 77 0 
N 43 90 0 
N 49 67 0 
O 35 16 0 
6
Atoms. Timestep: 2618
N 54 99 0 
N 51 83 0 
N 56 77 0 
N 44 90 0 
N 50 67 0 
O 36 16 0 
6
Atoms. Timestep: 2619
N 55 99 0 
N 52 83 0 
N 57 77 0 
N 45 90 0 
N 51 67 0 
O 37 16 0 
6
Atoms. Timestep: 2620
N 55 0 0 
N 53 83 0 
N 58 77 0 
N 46 90 0 
N 52 67 0 
O 38 16 0 
6
Atoms. Timestep: 2621
N 54 0 0 
N 54 83 0 
N 59 77 0 
N 47 90 0 
N 53 67 0 
O 39 16 0 
6
Atoms. Timestep: 2622
N 54 99 0 
N 55 83 0 
N 60 77 0 
N 48 90 0 
N 54 67 0 
O 40 16 0 
6
Atoms. Timestep: 2623
N 53 99 0 
N 56 83 0 
N 61 77 0 
N 49 90 0 
N 55 67 0 
O 41 16 0 
6
Atoms. Timestep: 2624
N 53 98 0 
N 57 83 0 
N 62 77 0 
N 50 90 0 
N 56 67 0 
O 42 16 0 
6
Atoms. Timestep: 2625
N 54 98 0 
N 58 83 0 
N 63 77 0 
N 51 90 0 
N 57 67 0 
O 43 16 0 
6
Atoms. Timestep: 2626
N 54 97 0 
N 59 83 0 
N 64 77 0 
N 52 90 0 
N 58 67 0 
O 44 16 0 
6
Atoms. Timestep: 2627
N 53 97 0 
N 60 83 0 
N 65 77 0 
N 53 90 0 
N 59 67 0 
O 45 16 0 
6
Atoms. Timestep: 2628
N 52 97 0 
N 61 83 0 
N 66 77 0 
N 53 91 0 
N 59 66 0 
O 46 16 0 
6
Atoms. Timestep: 2629
N 53 97 0 
N 62 83 0 
N 67 77 0 
N 54 91 0 
N 60 66 0 
O 47 16 0 
6
Atoms. Timestep: 2630
N 54 97 0 
N 63 83 0 
N 68 77 0 
N 55 91 0 
N 60 67 0 
O 48 16 0 
6
Atoms. Timestep: 2631
N 55 97 0 
N 64 83 0 
N 69 77 0 
N 56 91 0 
N 61 67 0 
O 49 16 0 
6
Atoms. Timestep: 2632
N 55 96 0 
N 65 83 0 
N 70 77 0 
N 57 91 0 
N 62 67 0 
O 50 16 0 
6
Atoms. Timestep: 2633
N 54 96 0 
N 66 83 0 
N 71 77 0 
N 58 91 0 
N 63 67 0 
O 51 16 0 
6
Atoms. Timestep: 2634
N 53 96 0 
N 67 83 0 
N 72 77 0 
N 59 91 0 
N 64 67 0 
O 52 16 0 
6
Atoms. Timestep: 2635
N 52 96 0 
N 68 83 0 
N 73 77 0 
N 60 91 0 
N 65 67 0 
O 53 16 0 
6
Atoms. Timestep: 2636
N 53 96 0 
N 69 83 0 
N 74 77 0 
N 61 91 0 
N 66 67 0 
O 54 16 0 
6
Atoms. Timestep: 2637
N 52 96 0 
N 70 83 0 
N 75 77 0 
N 62 91 0 
N 67 67 0 
O 55 16 0 
6
Atoms. Timestep: 2638
N 52 95 0 
N 71 83 0 
N 76 77 0 
N 63 91 0 
N 68 67 0 
O 56 16 0 
6
Atoms. Timestep: 2639
N 52 96 0 
N 72 83 0 
N 77 77 0 
N 64 91 0 
N 69 67 0 
O 57 16 0 
6
Atoms. Timestep: 2640
N 52 95 0 
N 73 83 0 
N 78 77 0 
N 65 91 0 
N 70 67 0 
O 58 16 0 
6
Atoms. Timestep: 2641
N 51 95 0 
N 74 83 0 
N 79 77 0 
N 66 91 0 
N 71 67 0 
O 59 16 0 
6
Atoms. Timestep: 2642
N 51 94 0 
N 75 83 0 
N 80 77 0 
N 67 91 0 
N 72 67 0 
O 60 16 0 
6
Atoms. Timestep: 2643
N 51 93 0 
N 76 83 0 
N 81 77 0 
N 68 91 0 
N 73 67 0 
O 61 16 0 
6
Atoms. Timestep: 2644
N 52 93 0 
N 76 84 0 
N 82 77 0 
N 69 91 0 
N 74 67 0 
O 62 16 0 
6
Atoms. Timestep: 2645
N 52 92 0 
N 77 84 0 
N 83 77 0 
N 70 91 0 
N 75 67 0 
O 63 16 0 
6
Atoms. Timestep: 2646
N 53 92 0 
N 78 84 0 
N 84 77 0 
N 71 91 0 
N 76 67 0 
O 64 16 0 
6
Atoms. Timestep: 2647
N 53 91 0 
N 79 84 0 
N 85 77 0 
N 72 91 0 
N 77 67 0 
O 65 16 0 
6
Atoms. Timestep: 2648
N 53 92 0 
N 80 84 0 
N 86 77 0 
N 73 91 0 
N 78 67 0 
O 66 16 0 
6
Atoms. Timestep: 2649
N 52 92 0 
N 81 84 0 
N 87 77 0 
N 74 91 0 
N 79 67 0 
O 67 16 0 
6
Atoms. Timestep: 2650
N 52 93 0 
N 82 84 0 
N 88 77 0 
N 75 91 0 
N 80 67 0 
O 68 16 0 
6
Atoms. Timestep: 2651
N 53 93 0 
N 83 84 0 
N 89 77 0 
N 76 91 0 
N 81 67 0 
O 69 16 0 
6
Atoms. Timestep: 2652
N 53 92 0 
N 84 84 0 
N 90 77 0 
N 77 91 0 
N 82 67 0 
O 70 16 0 
6
Atoms. Timestep: 2653
N 52 92 0 
N 85 84 0 
N 91 77 0 
N 78 91 0 
N 83 67 0 
O 71 16 0 
6
Atoms. Timestep: 2654
N 52 93 0 
N 86 84 0 
N 92 77 0 
N 79 91 0 
N 84 67 0 
O 72 16 0 
6
Atoms. Timestep: 2655
N 53 93 0 
N 87 84 0 
N 93 77 0 
N 80 91 0 
N 85 67 0 
O 73 16 0 
6
Atoms. Timestep: 2656
N 53 94 0 
N 88 84 0 
N 94 77 0 
N 81 91 0 
N 86 67 0 
O 74 16 0 
6
Atoms. Timestep: 2657
N 53 95 0 
N 89 84 0 
N 95 77 0 
N 82 91 0 
N 87 67 0 
O 75 16 0 
6
Atoms. Timestep: 2658
N 54 95 0 
N 90 84 0 
N 96 77 0 
N 83 91 0 
N 88 67 0 
O 76 16 0 
6
Atoms. Timestep: 2659
N 54 94 0 
N 91 84 0 
N 97 77 0 
N 84 91 0 
N 89 67 0 
O 77 16 0 
6
Atoms. Timestep: 2660
N 54 93 0 
N 92 84 0 
N 98 77 0 
N 85 91 0 
N 90 67 0 
O 78 16 0 
6
Atoms. Timestep: 2661
N 54 92 0 
N 93 84 0 
N 99 77 0 
N 86 91 0 
N 91 67 0 
O 79 16 0 
6
Atoms. Timestep: 2662
N 55 92 0 
N 94 84 0 
N 0 77 0 
N 87 91 0 
N 91 68 0 
O 80 16 0 
6
Atoms. Timestep: 2663
N 56 92 0 
N 95 84 0 
N 1 77 0 
N 88 91 0 
N 92 68 0 
O 81 16 0 
6
Atoms. Timestep: 2664
N 56 91 0 
N 96 84 0 
N 1 76 0 
N 89 91 0 
N 93 68 0 
O 82 16 0 
6
Atoms. Timestep: 2665
N 55 91 0 
N 97 84 0 
N 2 76 0 
N 90 91 0 
N 93 67 0 
O 83 16 0 
6
Atoms. Timestep: 2666
N 56 91 0 
N 98 84 0 
N 3 76 0 
N 91 91 0 
N 94 67 0 
O 84 16 0 
6
Atoms. Timestep: 2667
N 56 92 0 
N 99 84 0 
N 4 76 0 
N 92 91 0 
N 95 67 0 
O 85 16 0 
6
Atoms. Timestep: 2668
N 57 92 0 
N 0 84 0 
N 5 76 0 
N 93 91 0 
N 96 67 0 
O 86 16 0 
6
Atoms. Timestep: 2669
N 57 93 0 
N 1 84 0 
N 6 76 0 
N 94 91 0 
N 97 67 0 
O 87 16 0 
6
Atoms. Timestep: 2670
N 57 92 0 
N 2 84 0 
N 7 76 0 
N 95 91 0 
N 98 67 0 
O 88 16 0 
6
Atoms. Timestep: 2671
N 57 93 0 
N 3 84 0 
N 8 76 0 
N 96 91 0 
N 99 67 0 
O 89 16 0 
6
Atoms. Timestep: 2672
N 57 94 0 
N 4 84 0 
N 9 76 0 
N 97 91 0 
N 0 67 0 
O 90 16 0 
6
Atoms. Timestep: 2673
N 57 95 0 
N 5 84 0 
N 10 76 0 
N 98 91 0 
N 1 67 0 
O 91 16 0 
6
Atoms. Timestep: 2674
N 58 95 0 
N 6 84 0 
N 11 76 0 
N 99 91 0 
N 2 67 0 
O 92 16 0 
6
Atoms. Timestep: 2675
N 57 95 0 
N 7 84 0 
N 12 76 0 
N 0 91 0 
N 3 67 0 
O 93 16 0 
6
Atoms. Timestep: 2676
N 58 95 0 
N 8 84 0 
N 13 76 0 
N 1 91 0 
N 4 67 0 
O 94 16 0 
6
Atoms. Timestep: 2677
N 57 95 0 
N 9 84 0 
N 14 76 0 
N 2 91 0 
N 5 67 0 
O 95 16 0 
6
Atoms. Timestep: 2678
N 57 96 0 
N 10 84 0 
N 15 76 0 
N 3 91 0 
N 6 67 0 
O 96 16 0 
6
Atoms. Timestep: 2679
N 58 96 0 
N 11 84 0 
N 16 76 0 
N 3 90 0 
N 7 67 0 
O 97 16 0 
6
Atoms. Timestep: 2680
N 58 97 0 
N 12 84 0 
N 17 76 0 
N 4 90 0 
N 8 67 0 
O 98 16 0 
6
Atoms. Timestep: 2681
N 59 97 0 
N 13 84 0 
N 18 76 0 
N 5 90 0 
N 9 67 0 
O 99 16 0 
6
Atoms. Timestep: 2682
N 58 97 0 
N 14 84 0 
N 19 76 0 
N 6 90 0 
N 10 67 0 
O 0 16 0 
6
Atoms. Timestep: 2683
N 59 97 0 
N 15 84 0 
N 20 76 0 
N 7 90 0 
N 11 67 0 
O 1 16 0 
6
Atoms. Timestep: 2684
N 60 97 0 
N 16 84 0 
N 21 76 0 
N 8 90 0 
N 12 67 0 
O 2 16 0 
6
Atoms. Timestep: 2685
N 60 96 0 
N 17 84 0 
N 22 76 0 
N 9 90 0 
N 13 67 0 
O 3 16 0 
6
Atoms. Timestep: 2686
N 60 95 0 
N 18 84 0 
N 23 76 0 
N 10 90 0 
N 14 67 0 
O 4 16 0 
6
Atoms. Timestep: 2687
N 60 96 0 
N 19 84 0 
N 24 76 0 
N 11 90 0 
N 15 67 0 
O 5 16 0 
6
Atoms. Timestep: 2688
N 60 97 0 
N 20 84 0 
N 25 76 0 
N 12 90 0 
N 16 67 0 
O 6 16 0 
6
Atoms. Timestep: 2689
N 61 97 0 
N 21 84 0 
N 26 76 0 
N 13 90 0 
N 17 67 0 
O 7 16 0 
6
Atoms. Timestep: 2690
N 61 96 0 
N 22 84 0 
N 27 76 0 
N 14 90 0 
N 18 67 0 
O 8 16 0 
6
Atoms. Timestep: 2691
N 60 96 0 
N 23 84 0 
N 28 76 0 
N 15 90 0 
N 19 67 0 
O 9 16 0 
6
Atoms. Timestep: 2692
N 61 96 0 
N 24 84 0 
N 29 76 0 
N 16 90 0 
N 20 67 0 
O 10 16 0 
6
Atoms. Timestep: 2693
N 61 95 0 
N 25 84 0 
N 30 76 0 
N 17 90 0 
N 21 67 0 
O 11 16 0 
6
Atoms. Timestep: 2694
N 60 95 0 
N 26 84 0 
N 31 76 0 
N 18 90 0 
N 22 67 0 
O 12 16 0 
6
Atoms. Timestep: 2695
N 60 94 0 
N 27 84 0 
N 32 76 0 
N 19 90 0 
N 23 67 0 
O 13 16 0 
6
Atoms. Timestep: 2696
N 59 94 0 
N 28 84 0 
N 33 76 0 
N 20 90 0 
N 24 67 0 
O 14 16 0 
6
Atoms. Timestep: 2697
N 59 95 0 
N 29 84 0 
N 34 76 0 
N 21 90 0 
N 25 67 0 
O 15 16 0 
6
Atoms. Timestep: 2698
N 58 95 0 
N 30 84 0 
N 35 76 0 
N 21 91 0 
N 26 67 0 
O 16 16 0 
6
Atoms. Timestep: 2699
N 58 94 0 
N 31 84 0 
N 36 76 0 
N 22 91 0 
N 27 67 0 
O 17 16 0 
6
Atoms. Timestep: 2700
N 59 94 0 
N 32 84 0 
N 37 76 0 
N 23 91 0 
N 28 67 0 
O 18 16 0 
6
Atoms. Timestep: 2701
N 58 94 0 
N 33 84 0 
N 38 76 0 
N 24 91 0 
N 29 67 0 
O 19 16 0 
6
Atoms. Timestep: 2702
N 59 94 0 
N 34 84 0 
N 39 76 0 
N 25 91 0 
N 30 67 0 
O 20 16 0 
6
Atoms. Timestep: 2703
N 58 94 0 
N 35 84 0 
N 40 76 0 
N 26 91 0 
N 31 67 0 
O 21 16 0 
6
Atoms. Timestep: 2704
N 59 94 0 
N 36 84 0 
N 41 76 0 
N 27 91 0 
N 32 67 0 
O 22 16 0 
6
Atoms. Timestep: 2705
N 60 94 0 
N 37 84 0 
N 42 76 0 
N 26 91 0 
N 33 67 0 
O 23 16 0 
6
Atoms. Timestep: 2706
N 61 94 0 
N 38 84 0 
N 43 76 0 
N 27 91 0 
N 33 68 0 
O 24 16 0 
6
Atoms. Timestep: 2707
N 61 95 0 
N 38 85 0 
N 44 76 0 
N 26 91 0 
N 33 69 0 
O 25 16 0 
6
Atoms. Timestep: 2708
N 61 96 0 
N 39 85 0 
N 45 76 0 
N 27 91 0 
N 34 69 0 
O 26 16 0 
6
Atoms. Timestep: 2709
N 61 95 0 
N 40 85 0 
N 46 76 0 
N 28 91 0 
N 35 69 0 
O 27 16 0 
6
Atoms. Timestep: 2710
N 60 95 0 
N 41 85 0 
N 47 76 0 
N 29 91 0 
N 36 69 0 
O 28 16 0 
6
Atoms. Timestep: 2711
N 61 95 0 
N 42 85 0 
N 48 76 0 
N 30 91 0 
N 37 69 0 
O 29 16 0 
6
Atoms. Timestep: 2712
N 60 95 0 
N 43 85 0 
N 49 76 0 
N 31 91 0 
N 38 69 0 
O 30 16 0 
6
Atoms. Timestep: 2713
N 60 94 0 
N 44 85 0 
N 50 76 0 
N 32 91 0 
N 39 69 0 
O 31 16 0 
6
Atoms. Timestep: 2714
N 61 94 0 
N 45 85 0 
N 51 76 0 
N 33 91 0 
N 40 69 0 
O 32 16 0 
6
Atoms. Timestep: 2715
N 61 95 0 
N 46 85 0 
N 52 76 0 
N 34 91 0 
N 41 69 0 
O 33 16 0 
6
Atoms. Timestep: 2716
N 62 95 0 
N 47 85 0 
N 53 76 0 
N 35 91 0 
N 42 69 0 
O 34 16 0 
6
Atoms. Timestep: 2717
N 63 95 0 
N 48 85 0 
N 54 76 0 
N 36 91 0 
N 43 69 0 
O 35 16 0 
6
Atoms. Timestep: 2718
N 63 96 0 
N 49 85 0 
N 55 76 0 
N 37 91 0 
N 43 70 0 
O 36 16 0 
6
Atoms. Timestep: 2719
N 63 95 0 
N 50 85 0 
N 56 76 0 
N 38 91 0 
N 44 70 0 
O 37 16 0 
6
Atoms. Timestep: 2720
N 64 95 0 
N 51 85 0 
N 57 76 0 
N 39 91 0 
N 45 70 0 
O 38 16 0 
6
Atoms. Timestep: 2721
N 64 96 0 
N 52 85 0 
N 58 76 0 
N 40 91 0 
N 46 70 0 
O 39 16 0 
6
Atoms. Timestep: 2722
N 64 97 0 
N 53 85 0 
N 59 76 0 
N 41 91 0 
N 47 70 0 
O 40 16 0 
6
Atoms. Timestep: 2723
N 64 96 0 
N 54 85 0 
N 60 76 0 
N 42 91 0 
N 48 70 0 
O 41 16 0 
6
Atoms. Timestep: 2724
N 64 97 0 
N 55 85 0 
N 61 76 0 
N 43 91 0 
N 49 70 0 
O 42 16 0 
6
Atoms. Timestep: 2725
N 64 98 0 
N 56 85 0 
N 62 76 0 
N 44 91 0 
N 50 70 0 
O 43 16 0 
6
Atoms. Timestep: 2726
N 65 98 0 
N 57 85 0 
N 63 76 0 
N 45 91 0 
N 51 70 0 
O 44 16 0 
6
Atoms. Timestep: 2727
N 64 98 0 
N 58 85 0 
N 63 77 0 
N 46 91 0 
N 52 70 0 
O 45 16 0 
6
Atoms. Timestep: 2728
N 65 98 0 
N 59 85 0 
N 64 77 0 
N 46 92 0 
N 53 70 0 
O 46 16 0 
6
Atoms. Timestep: 2729
N 66 98 0 
N 60 85 0 
N 65 77 0 
N 47 92 0 
N 54 70 0 
O 47 16 0 
6
Atoms. Timestep: 2730
N 66 99 0 
N 61 85 0 
N 66 77 0 
N 48 92 0 
N 55 70 0 
O 48 16 0 
6
Atoms. Timestep: 2731
N 66 0 0 
N 62 85 0 
N 67 77 0 
N 49 92 0 
N 56 70 0 
O 49 16 0 
6
Atoms. Timestep: 2732
N 65 0 0 
N 63 85 0 
N 68 77 0 
N 50 92 0 
N 57 70 0 
O 50 16 0 
6
Atoms. Timestep: 2733
N 66 0 0 
N 64 85 0 
N 69 77 0 
N 51 92 0 
N 58 70 0 
O 51 16 0 
6
Atoms. Timestep: 2734
N 66 1 0 
N 65 85 0 
N 70 77 0 
N 52 92 0 
N 59 70 0 
O 52 16 0 
6
Atoms. Timestep: 2735
N 67 1 0 
N 66 85 0 
N 71 77 0 
N 53 92 0 
N 59 69 0 
O 53 16 0 
6
Atoms. Timestep: 2736
N 67 0 0 
N 67 85 0 
N 72 77 0 
N 54 92 0 
N 60 69 0 
O 54 16 0 
6
Atoms. Timestep: 2737
N 68 0 0 
N 68 85 0 
N 73 77 0 
N 55 92 0 
N 61 69 0 
O 55 16 0 
6
Atoms. Timestep: 2738
N 68 99 0 
N 69 85 0 
N 74 77 0 
N 56 92 0 
N 62 69 0 
O 56 16 0 
6
Atoms. Timestep: 2739
N 68 98 0 
N 70 85 0 
N 75 77 0 
N 57 92 0 
N 63 69 0 
O 57 16 0 
6
Atoms. Timestep: 2740
N 68 99 0 
N 71 85 0 
N 76 77 0 
N 58 92 0 
N 64 69 0 
O 58 16 0 
6
Atoms. Timestep: 2741
N 67 99 0 
N 72 85 0 
N 77 77 0 
N 59 92 0 
N 65 69 0 
O 59 16 0 
6
Atoms. Timestep: 2742
N 67 0 0 
N 73 85 0 
N 78 77 0 
N 60 92 0 
N 66 69 0 
O 60 16 0 
6
Atoms. Timestep: 2743
N 67 99 0 
N 74 85 0 
N 79 77 0 
N 60 91 0 
N 67 69 0 
O 61 16 0 
6
Atoms. Timestep: 2744
N 67 98 0 
N 75 85 0 
N 80 77 0 
N 61 91 0 
N 68 69 0 
O 62 16 0 
6
Atoms. Timestep: 2745
N 68 98 0 
N 76 85 0 
N 81 77 0 
N 62 91 0 
N 69 69 0 
O 63 16 0 
6
Atoms. Timestep: 2746
N 68 97 0 
N 77 85 0 
N 82 77 0 
N 63 91 0 
N 70 69 0 
O 64 16 0 
6
Atoms. Timestep: 2747
N 68 98 0 
N 78 85 0 
N 83 77 0 
N 64 91 0 
N 71 69 0 
O 65 16 0 
6
Atoms. Timestep: 2748
N 69 98 0 
N 79 85 0 
N 84 77 0 
N 65 91 0 
N 72 69 0 
O 66 16 0 
6
Atoms. Timestep: 2749
N 68 98 0 
N 80 85 0 
N 85 77 0 
N 66 91 0 
N 73 69 0 
O 67 16 0 
6
Atoms. Timestep: 2750
N 68 97 0 
N 81 85 0 
N 86 77 0 
N 67 91 0 
N 74 69 0 
O 68 16 0 
6
Atoms. Timestep: 2751
N 67 97 0 
N 82 85 0 
N 87 77 0 
N 68 91 0 
N 75 69 0 
O 69 16 0 
6
Atoms. Timestep: 2752
N 68 97 0 
N 83 85 0 
N 88 77 0 
N 69 91 0 
N 76 69 0 
O 70 16 0 
6
Atoms. Timestep: 2753
N 68 98 0 
N 84 85 0 
N 89 77 0 
N 70 91 0 
N 77 69 0 
O 71 16 0 
6
Atoms. Timestep: 2754
N 68 97 0 
N 85 85 0 
N 90 77 0 
N 71 91 0 
N 78 69 0 
O 72 16 0 
6
Atoms. Timestep: 2755
N 69 97 0 
N 86 85 0 
N 91 77 0 
N 72 91 0 
N 79 69 0 
O 73 16 0 
6
Atoms. Timestep: 2756
N 69 96 0 
N 87 85 0 
N 92 77 0 
N 73 91 0 
N 80 69 0 
O 74 16 0 
6
Atoms. Timestep: 2757
N 70 96 0 
N 86 85 0 
N 93 77 0 
N 74 91 0 
N 81 69 0 
O 75 16 0 
6
Atoms. Timestep: 2758
N 69 96 0 
N 87 85 0 
N 94 77 0 
N 75 91 0 
N 82 69 0 
O 76 16 0 
6
Atoms. Timestep: 2759
N 70 96 0 
N 88 85 0 
N 95 77 0 
N 76 91 0 
N 83 69 0 
O 77 16 0 
6
Atoms. Timestep: 2760
N 70 95 0 
N 89 85 0 
N 96 77 0 
N 77 91 0 
N 84 69 0 
O 78 16 0 
6
Atoms. Timestep: 2761
N 71 95 0 
N 90 85 0 
N 97 77 0 
N 78 91 0 
N 85 69 0 
O 79 16 0 
6
Atoms. Timestep: 2762
N 71 96 0 
N 91 85 0 
N 98 77 0 
N 79 91 0 
N 86 69 0 
O 80 16 0 
6
Atoms. Timestep: 2763
N 72 96 0 
N 92 85 0 
N 99 77 0 
N 80 91 0 
N 87 69 0 
O 81 16 0 
6
Atoms. Timestep: 2764
N 72 97 0 
N 93 85 0 
N 0 77 0 
N 81 91 0 
N 88 69 0 
O 82 16 0 
6
Atoms. Timestep: 2765
N 71 97 0 
N 94 85 0 
N 1 77 0 
N 81 92 0 
N 89 69 0 
O 83 16 0 
6
Atoms. Timestep: 2766
N 70 97 0 
N 95 85 0 
N 2 77 0 
N 82 92 0 
N 89 70 0 
O 84 16 0 
6
Atoms. Timestep: 2767
N 69 97 0 
N 96 85 0 
N 3 77 0 
N 82 91 0 
N 90 70 0 
O 85 16 0 
6
Atoms. Timestep: 2768
N 70 97 0 
N 97 85 0 
N 4 77 0 
N 83 91 0 
N 91 70 0 
O 86 16 0 
6
Atoms. Timestep: 2769
N 69 97 0 
N 98 85 0 
N 5 77 0 
N 84 91 0 
N 92 70 0 
O 87 16 0 
6
Atoms. Timestep: 2770
N 69 96 0 
N 99 85 0 
N 6 77 0 
N 85 91 0 
N 93 70 0 
O 88 16 0 
6
Atoms. Timestep: 2771
N 69 95 0 
N 0 85 0 
N 7 77 0 
N 86 91 0 
N 94 70 0 
O 89 16 0 
6
Atoms. Timestep: 2772
N 70 95 0 
N 1 85 0 
N 8 77 0 
N 87 91 0 
N 95 70 0 
O 90 16 0 
6
Atoms. Timestep: 2773
N 71 95 0 
N 2 85 0 
N 9 77 0 
N 88 91 0 
N 96 70 0 
O 91 16 0 
6
Atoms. Timestep: 2774
N 71 96 0 
N 3 85 0 
N 10 77 0 
N 89 91 0 
N 97 70 0 
O 92 16 0 
6
Atoms. Timestep: 2775
N 71 95 0 
N 4 85 0 
N 11 77 0 
N 90 91 0 
N 98 70 0 
O 93 16 0 
6
Atoms. Timestep: 2776
N 72 95 0 
N 5 85 0 
N 12 77 0 
N 91 91 0 
N 99 70 0 
O 94 16 0 
6
Atoms. Timestep: 2777
N 72 96 0 
N 6 85 0 
N 13 77 0 
N 92 91 0 
N 0 70 0 
O 95 16 0 
6
Atoms. Timestep: 2778
N 73 96 0 
N 7 85 0 
N 14 77 0 
N 93 91 0 
N 1 70 0 
O 96 16 0 
6
Atoms. Timestep: 2779
N 73 95 0 
N 8 85 0 
N 15 77 0 
N 94 91 0 
N 2 70 0 
O 97 16 0 
6
Atoms. Timestep: 2780
N 74 95 0 
N 9 85 0 
N 16 77 0 
N 95 91 0 
N 3 70 0 
O 98 16 0 
6
Atoms. Timestep: 2781
N 74 96 0 
N 10 85 0 
N 17 77 0 
N 96 91 0 
N 4 70 0 
O 99 16 0 
6
Atoms. Timestep: 2782
N 73 96 0 
N 11 85 0 
N 18 77 0 
N 97 91 0 
N 5 70 0 
O 0 16 0 
6
Atoms. Timestep: 2783
N 73 97 0 
N 12 85 0 
N 19 77 0 
N 98 91 0 
N 6 70 0 
O 1 16 0 
6
Atoms. Timestep: 2784
N 73 96 0 
N 13 85 0 
N 20 77 0 
N 99 91 0 
N 7 70 0 
O 2 16 0 
6
Atoms. Timestep: 2785
N 73 95 0 
N 14 85 0 
N 21 77 0 
N 0 91 0 
N 8 70 0 
O 3 16 0 
6
Atoms. Timestep: 2786
N 73 94 0 
N 15 85 0 
N 22 77 0 
N 1 91 0 
N 9 70 0 
O 4 16 0 
6
Atoms. Timestep: 2787
N 73 93 0 
N 16 85 0 
N 23 77 0 
N 2 91 0 
N 10 70 0 
O 5 16 0 
6
Atoms. Timestep: 2788
N 73 94 0 
N 17 85 0 
N 23 76 0 
N 3 91 0 
N 11 70 0 
O 6 16 0 
6
Atoms. Timestep: 2789
N 74 94 0 
N 17 86 0 
N 24 76 0 
N 4 91 0 
N 12 70 0 
O 7 16 0 
6
Atoms. Timestep: 2790
N 75 94 0 
N 18 86 0 
N 25 76 0 
N 5 91 0 
N 13 70 0 
O 8 16 0 
6
Atoms. Timestep: 2791
N 74 94 0 
N 19 86 0 
N 26 76 0 
N 6 91 0 
N 14 70 0 
O 9 16 0 
6
Atoms. Timestep: 2792
N 74 95 0 
N 20 86 0 
N 27 76 0 
N 7 91 0 
N 15 70 0 
O 10 16 0 
6
Atoms. Timestep: 2793
N 73 95 0 
N 21 86 0 
N 28 76 0 
N 8 91 0 
N 14 70 0 
O 11 16 0 
6
Atoms. Timestep: 2794
N 73 96 0 
N 22 86 0 
N 29 76 0 
N 9 91 0 
N 15 70 0 
O 12 16 0 
6
Atoms. Timestep: 2795
N 73 97 0 
N 23 86 0 
N 30 76 0 
N 10 91 0 
N 16 70 0 
O 13 16 0 
6
Atoms. Timestep: 2796
N 73 98 0 
N 24 86 0 
N 31 76 0 
N 11 91 0 
N 15 70 0 
O 14 16 0 
6
Atoms. Timestep: 2797
N 73 99 0 
N 24 85 0 
N 32 76 0 
N 12 91 0 
N 16 70 0 
O 15 16 0 
6
Atoms. Timestep: 2798
N 74 99 0 
N 25 85 0 
N 33 76 0 
N 13 91 0 
N 17 70 0 
O 16 16 0 
6
Atoms. Timestep: 2799
N 73 99 0 
N 26 85 0 
N 34 76 0 
N 14 91 0 
N 18 70 0 
O 17 16 0 
6
Atoms. Timestep: 2800
N 74 99 0 
N 27 85 0 
N 35 76 0 
N 15 91 0 
N 19 70 0 
O 18 16 0 
6
Atoms. Timestep: 2801
N 74 0 0 
N 28 85 0 
N 36 76 0 
N 16 91 0 
N 20 70 0 
O 19 16 0 
6
Atoms. Timestep: 2802
N 74 99 0 
N 29 85 0 
N 37 76 0 
N 17 91 0 
N 21 70 0 
O 20 16 0 
6
Atoms. Timestep: 2803
N 75 99 0 
N 30 85 0 
N 38 76 0 
N 18 91 0 
N 22 70 0 
O 21 16 0 
6
Atoms. Timestep: 2804
N 75 0 0 
N 31 85 0 
N 39 76 0 
N 19 91 0 
N 23 70 0 
O 22 16 0 
6
Atoms. Timestep: 2805
N 76 0 0 
N 31 84 0 
N 40 76 0 
N 20 91 0 
N 24 70 0 
O 23 16 0 
6
Atoms. Timestep: 2806
N 75 0 0 
N 32 84 0 
N 41 76 0 
N 21 91 0 
N 25 70 0 
O 24 16 0 
6
Atoms. Timestep: 2807
N 75 1 0 
N 33 84 0 
N 42 76 0 
N 20 91 0 
N 26 70 0 
O 25 16 0 
6
Atoms. Timestep: 2808
N 76 1 0 
N 34 84 0 
N 43 76 0 
N 21 91 0 
N 27 70 0 
O 26 16 0 
6
Atoms. Timestep: 2809
N 75 1 0 
N 35 84 0 
N 44 76 0 
N 22 91 0 
N 28 70 0 
O 27 16 0 
6
Atoms. Timestep: 2810
N 75 0 0 
N 36 84 0 
N 45 76 0 
N 23 91 0 
N 29 70 0 
O 28 16 0 
6
Atoms. Timestep: 2811
N 76 0 0 
N 37 84 0 
N 46 76 0 
N 24 91 0 
N 30 70 0 
O 29 16 0 
6
Atoms. Timestep: 2812
N 77 0 0 
N 38 84 0 
N 47 76 0 
N 25 91 0 
N 31 70 0 
O 30 16 0 
6
Atoms. Timestep: 2813
N 76 0 0 
N 39 84 0 
N 48 76 0 
N 26 91 0 
N 32 70 0 
O 31 16 0 
6
Atoms. Timestep: 2814
N 75 0 0 
N 40 84 0 
N 49 76 0 
N 27 91 0 
N 33 70 0 
O 32 16 0 
6
Atoms. Timestep: 2815
N 75 99 0 
N 41 84 0 
N 50 76 0 
N 28 91 0 
N 34 70 0 
O 33 16 0 
6
Atoms. Timestep: 2816
N 75 98 0 
N 42 84 0 
N 50 75 0 
N 29 91 0 
N 35 70 0 
O 34 16 0 
6
Atoms. Timestep: 2817
N 76 98 0 
N 43 84 0 
N 51 75 0 
N 30 91 0 
N 36 70 0 
O 35 16 0 
6
Atoms. Timestep: 2818
N 76 97 0 
N 44 84 0 
N 52 75 0 
N 31 91 0 
N 37 70 0 
O 36 16 0 
6
Atoms. Timestep: 2819
N 76 96 0 
N 45 84 0 
N 53 75 0 
N 32 91 0 
N 38 70 0 
O 37 16 0 
6
Atoms. Timestep: 2820
N 75 96 0 
N 46 84 0 
N 54 75 0 
N 33 91 0 
N 39 70 0 
O 38 16 0 
6
Atoms. Timestep: 2821
N 75 97 0 
N 47 84 0 
N 55 75 0 
N 32 91 0 
N 40 70 0 
O 39 16 0 
6
Atoms. Timestep: 2822
N 76 97 0 
N 48 84 0 
N 55 76 0 
N 33 91 0 
N 41 70 0 
O 40 16 0 
6
Atoms. Timestep: 2823
N 76 98 0 
N 49 84 0 
N 56 76 0 
N 34 91 0 
N 42 70 0 
O 41 16 0 
6
Atoms. Timestep: 2824
N 76 97 0 
N 49 85 0 
N 57 76 0 
N 35 91 0 
N 43 70 0 
O 42 16 0 
6
Atoms. Timestep: 2825
N 75 97 0 
N 50 85 0 
N 58 76 0 
N 36 91 0 
N 44 70 0 
O 43 16 0 
6
Atoms. Timestep: 2826
N 74 97 0 
N 51 85 0 
N 59 76 0 
N 37 91 0 
N 45 70 0 
O 44 16 0 
6
Atoms. Timestep: 2827
N 74 96 0 
N 52 85 0 
N 60 76 0 
N 38 91 0 
N 46 70 0 
O 45 16 0 
6
Atoms. Timestep: 2828
N 73 96 0 
N 53 85 0 
N 61 76 0 
N 39 91 0 
N 47 70 0 
O 46 16 0 
6
Atoms. Timestep: 2829
N 72 96 0 
N 54 85 0 
N 62 76 0 
N 40 91 0 
N 48 70 0 
O 47 16 0 
6
Atoms. Timestep: 2830
N 72 97 0 
N 55 85 0 
N 63 76 0 
N 41 91 0 
N 49 70 0 
O 48 16 0 
6
Atoms. Timestep: 2831
N 73 97 0 
N 56 85 0 
N 64 76 0 
N 42 91 0 
N 48 70 0 
O 49 16 0 
6
Atoms. Timestep: 2832
N 73 98 0 
N 57 85 0 
N 65 76 0 
N 43 91 0 
N 49 70 0 
O 50 16 0 
6
Atoms. Timestep: 2833
N 74 98 0 
N 58 85 0 
N 66 76 0 
N 44 91 0 
N 50 70 0 
O 51 16 0 
6
Atoms. Timestep: 2834
N 73 98 0 
N 59 85 0 
N 67 76 0 
N 43 91 0 
N 51 70 0 
O 52 16 0 
6
Atoms. Timestep: 2835
N 73 99 0 
N 60 85 0 
N 68 76 0 
N 44 91 0 
N 52 70 0 
O 53 16 0 
6
Atoms. Timestep: 2836
N 73 0 0 
N 61 85 0 
N 69 76 0 
N 45 91 0 
N 53 70 0 
O 54 16 0 
6
Atoms. Timestep: 2837
N 73 1 0 
N 61 86 0 
N 70 76 0 
N 46 91 0 
N 54 70 0 
O 55 16 0 
6
Atoms. Timestep: 2838
N 74 1 0 
N 62 86 0 
N 71 76 0 
N 47 91 0 
N 55 70 0 
O 56 16 0 
6
Atoms. Timestep: 2839
N 74 0 0 
N 63 86 0 
N 72 76 0 
N 48 91 0 
N 56 70 0 
O 57 16 0 
6
Atoms. Timestep: 2840
N 74 99 0 
N 64 86 0 
N 73 76 0 
N 49 91 0 
N 57 70 0 
O 58 16 0 
6
Atoms. Timestep: 2841
N 75 99 0 
N 65 86 0 
N 74 76 0 
N 50 91 0 
N 58 70 0 
O 59 16 0 
6
Atoms. Timestep: 2842
N 75 98 0 
N 66 86 0 
N 75 76 0 
N 51 91 0 
N 57 70 0 
O 60 16 0 
6
Atoms. Timestep: 2843
N 75 99 0 
N 67 86 0 
N 76 76 0 
N 52 91 0 
N 58 70 0 
O 61 16 0 
6
Atoms. Timestep: 2844
N 76 99 0 
N 68 86 0 
N 77 76 0 
N 53 91 0 
N 59 70 0 
O 62 16 0 
6
Atoms. Timestep: 2845
N 76 98 0 
N 69 86 0 
N 78 76 0 
N 54 91 0 
N 60 70 0 
O 63 16 0 
6
Atoms. Timestep: 2846
N 75 98 0 
N 70 86 0 
N 79 76 0 
N 55 91 0 
N 61 70 0 
O 64 16 0 
6
Atoms. Timestep: 2847
N 74 98 0 
N 71 86 0 
N 80 76 0 
N 56 91 0 
N 62 70 0 
O 65 16 0 
6
Atoms. Timestep: 2848
N 74 99 0 
N 72 86 0 
N 81 76 0 
N 57 91 0 
N 63 70 0 
O 66 16 0 
6
Atoms. Timestep: 2849
N 74 98 0 
N 73 86 0 
N 82 76 0 
N 58 91 0 
N 64 70 0 
O 67 16 0 
6
Atoms. Timestep: 2850
N 75 98 0 
N 74 86 0 
N 83 76 0 
N 59 91 0 
N 65 70 0 
O 68 16 0 
6
Atoms. Timestep: 2851
N 75 99 0 
N 75 86 0 
N 84 76 0 
N 60 91 0 
N 66 70 0 
O 69 16 0 
6
Atoms. Timestep: 2852
N 75 98 0 
N 76 86 0 
N 85 76 0 
N 61 91 0 
N 67 70 0 
O 70 16 0 
6
Atoms. Timestep: 2853
N 74 98 0 
N 77 86 0 
N 86 76 0 
N 62 91 0 
N 68 70 0 
O 71 16 0 
6
Atoms. Timestep: 2854
N 74 99 0 
N 76 86 0 
N 87 76 0 
N 63 91 0 
N 69 70 0 
O 72 16 0 
6
Atoms. Timestep: 2855
N 74 98 0 
N 77 86 0 
N 88 76 0 
N 64 91 0 
N 70 70 0 
O 73 16 0 
6
Atoms. Timestep: 2856
N 74 99 0 
N 78 86 0 
N 89 76 0 
N 65 91 0 
N 71 70 0 
O 74 16 0 
6
Atoms. Timestep: 2857
N 75 99 0 
N 79 86 0 
N 90 76 0 
N 66 91 0 
N 72 70 0 
O 75 16 0 
6
Atoms. Timestep: 2858
N 75 98 0 
N 80 86 0 
N 91 76 0 
N 67 91 0 
N 73 70 0 
O 76 16 0 
6
Atoms. Timestep: 2859
N 76 98 0 
N 81 86 0 
N 92 76 0 
N 67 90 0 
N 74 70 0 
O 77 16 0 
6
Atoms. Timestep: 2860
N 77 98 0 
N 82 86 0 
N 93 76 0 
N 68 90 0 
N 75 70 0 
O 78 16 0 
6
Atoms. Timestep: 2861
N 77 99 0 
N 83 86 0 
N 94 76 0 
N 69 90 0 
N 76 70 0 
O 79 16 0 
6
Atoms. Timestep: 2862
N 77 0 0 
N 84 86 0 
N 95 76 0 
N 70 90 0 
N 77 70 0 
O 80 16 0 
6
Atoms. Timestep: 2863
N 78 0 0 
N 85 86 0 
N 96 76 0 
N 71 90 0 
N 78 70 0 
O 81 16 0 
6
Atoms. Timestep: 2864
N 78 1 0 
N 86 86 0 
N 97 76 0 
N 72 90 0 
N 79 70 0 
O 82 16 0 
6
Atoms. Timestep: 2865
N 79 1 0 
N 87 86 0 
N 98 76 0 
N 73 90 0 
N 80 70 0 
O 83 16 0 
6
Atoms. Timestep: 2866
N 79 2 0 
N 88 86 0 
N 99 76 0 
N 74 90 0 
N 81 70 0 
O 84 16 0 
6
Atoms. Timestep: 2867
N 78 2 0 
N 89 86 0 
N 0 76 0 
N 75 90 0 
N 82 70 0 
O 85 16 0 
6
Atoms. Timestep: 2868
N 77 2 0 
N 90 86 0 
N 1 76 0 
N 76 90 0 
N 83 70 0 
O 86 16 0 
6
Atoms. Timestep: 2869
N 76 2 0 
N 91 86 0 
N 2 76 0 
N 77 90 0 
N 84 70 0 
O 87 16 0 
6
Atoms. Timestep: 2870
N 77 2 0 
N 92 86 0 
N 3 76 0 
N 78 90 0 
N 85 70 0 
O 88 16 0 
6
Atoms. Timestep: 2871
N 76 2 0 
N 93 86 0 
N 4 76 0 
N 79 90 0 
N 86 70 0 
O 89 16 0 
6
Atoms. Timestep: 2872
N 77 2 0 
N 94 86 0 
N 5 76 0 
N 80 90 0 
N 87 70 0 
O 90 16 0 
6
Atoms. Timestep: 2873
N 78 2 0 
N 95 86 0 
N 6 76 0 
N 81 90 0 
N 88 70 0 
O 91 16 0 
6
Atoms. Timestep: 2874
N 78 3 0 
N 96 86 0 
N 6 75 0 
N 82 90 0 
N 89 70 0 
O 92 16 0 
6
Atoms. Timestep: 2875
N 78 4 0 
N 97 86 0 
N 7 75 0 
N 83 90 0 
N 90 70 0 
O 93 16 0 
6
Atoms. Timestep: 2876
N 78 3 0 
N 98 86 0 
N 8 75 0 
N 84 90 0 
N 91 70 0 
O 94 16 0 
6
Atoms. Timestep: 2877
N 78 2 0 
N 99 86 0 
N 9 75 0 
N 85 90 0 
N 92 70 0 
O 95 16 0 
6
Atoms. Timestep: 2878
N 77 2 0 
N 0 86 0 
N 10 75 0 
N 86 90 0 
N 93 70 0 
O 96 16 0 
6
Atoms. Timestep: 2879
N 76 2 0 
N 1 86 0 
N 11 75 0 
N 87 90 0 
N 94 70 0 
O 97 16 0 
6
Atoms. Timestep: 2880
N 76 1 0 
N 2 86 0 
N 12 75 0 
N 88 90 0 
N 95 70 0 
O 98 16 0 
6
Atoms. Timestep: 2881
N 75 1 0 
N 3 86 0 
N 13 75 0 
N 89 90 0 
N 96 70 0 
O 99 16 0 
6
Atoms. Timestep: 2882
N 75 2 0 
N 4 86 0 
N 14 75 0 
N 90 90 0 
N 97 70 0 
O 0 16 0 
6
Atoms. Timestep: 2883
N 75 1 0 
N 5 86 0 
N 15 75 0 
N 91 90 0 
N 98 70 0 
O 1 16 0 
6
Atoms. Timestep: 2884
N 74 1 0 
N 6 86 0 
N 16 75 0 
N 92 90 0 
N 99 70 0 
O 2 16 0 
6
Atoms. Timestep: 2885
N 74 2 0 
N 7 86 0 
N 17 75 0 
N 93 90 0 
N 0 70 0 
O 3 16 0 
6
Atoms. Timestep: 2886
N 74 1 0 
N 8 86 0 
N 18 75 0 
N 94 90 0 
N 1 70 0 
O 4 16 0 
6
Atoms. Timestep: 2887
N 73 1 0 
N 9 86 0 
N 19 75 0 
N 95 90 0 
N 2 70 0 
O 5 16 0 
6
Atoms. Timestep: 2888
N 72 1 0 
N 10 86 0 
N 20 75 0 
N 96 90 0 
N 3 70 0 
O 6 16 0 
6
Atoms. Timestep: 2889
N 72 2 0 
N 11 86 0 
N 21 75 0 
N 97 90 0 
N 4 70 0 
O 7 16 0 
6
Atoms. Timestep: 2890
N 73 2 0 
N 12 86 0 
N 22 75 0 
N 98 90 0 
N 5 70 0 
O 8 16 0 
6
Atoms. Timestep: 2891
N 73 3 0 
N 13 86 0 
N 23 75 0 
N 99 90 0 
N 6 70 0 
O 9 16 0 
6
Atoms. Timestep: 2892
N 73 4 0 
N 14 86 0 
N 24 75 0 
N 0 90 0 
N 6 69 0 
O 10 16 0 
6
Atoms. Timestep: 2893
N 73 5 0 
N 15 86 0 
N 25 75 0 
N 1 90 0 
N 7 69 0 
O 11 16 0 
6
Atoms. Timestep: 2894
N 73 6 0 
N 16 86 0 
N 26 75 0 
N 2 90 0 
N 8 69 0 
O 12 16 0 
6
Atoms. Timestep: 2895
N 73 5 0 
N 17 86 0 
N 27 75 0 
N 3 90 0 
N 9 69 0 
O 13 16 0 
6
Atoms. Timestep: 2896
N 73 4 0 
N 18 86 0 
N 28 75 0 
N 4 90 0 
N 9 70 0 
O 14 16 0 
6
Atoms. Timestep: 2897
N 73 5 0 
N 19 86 0 
N 29 75 0 
N 5 90 0 
N 10 70 0 
O 15 16 0 
6
Atoms. Timestep: 2898
N 73 6 0 
N 20 86 0 
N 29 74 0 
N 6 90 0 
N 11 70 0 
O 16 16 0 
6
Atoms. Timestep: 2899
N 72 6 0 
N 21 86 0 
N 30 74 0 
N 7 90 0 
N 12 70 0 
O 17 16 0 
6
Atoms. Timestep: 2900
N 73 6 0 
N 22 86 0 
N 31 74 0 
N 8 90 0 
N 13 70 0 
O 18 16 0 
6
Atoms. Timestep: 2901
N 73 7 0 
N 23 86 0 
N 32 74 0 
N 9 90 0 
N 14 70 0 
O 19 16 0 
6
Atoms. Timestep: 2902
N 73 8 0 
N 24 86 0 
N 33 74 0 
N 10 90 0 
N 15 70 0 
O 20 16 0 
6
Atoms. Timestep: 2903
N 73 9 0 
N 25 86 0 
N 34 74 0 
N 10 91 0 
N 16 70 0 
O 21 16 0 
6
Atoms. Timestep: 2904
N 74 9 0 
N 26 86 0 
N 35 74 0 
N 11 91 0 
N 17 70 0 
O 22 16 0 
6
Atoms. Timestep: 2905
N 73 9 0 
N 27 86 0 
N 36 74 0 
N 12 91 0 
N 18 70 0 
O 23 16 0 
6
Atoms. Timestep: 2906
N 72 9 0 
N 28 86 0 
N 37 74 0 
N 13 91 0 
N 19 70 0 
O 24 16 0 
6
Atoms. Timestep: 2907
N 71 9 0 
N 29 86 0 
N 38 74 0 
N 14 91 0 
N 20 70 0 
O 25 16 0 
6
Atoms. Timestep: 2908
N 71 10 0 
N 30 86 0 
N 39 74 0 
N 15 91 0 
N 21 70 0 
O 26 16 0 
6
Atoms. Timestep: 2909
N 70 10 0 
N 31 86 0 
N 40 74 0 
N 16 91 0 
N 22 70 0 
O 27 16 0 
6
Atoms. Timestep: 2910
N 70 11 0 
N 32 86 0 
N 41 74 0 
N 17 91 0 
N 23 70 0 
O 28 16 0 
6
Atoms. Timestep: 2911
N 70 12 0 
N 33 86 0 
N 42 74 0 
N 18 91 0 
N 24 70 0 
O 29 16 0 
6
Atoms. Timestep: 2912
N 69 12 0 
N 34 86 0 
N 43 74 0 
N 19 91 0 
N 25 70 0 
O 30 16 0 
6
Atoms. Timestep: 2913
N 70 12 0 
N 35 86 0 
N 44 74 0 
N 20 91 0 
N 26 70 0 
O 31 16 0 
6
Atoms. Timestep: 2914
N 69 12 0 
N 36 86 0 
N 43 74 0 
N 21 91 0 
N 27 70 0 
O 32 16 0 
6
Atoms. Timestep: 2915
N 68 12 0 
N 36 85 0 
N 44 74 0 
N 22 91 0 
N 28 70 0 
O 33 16 0 
6
Atoms. Timestep: 2916
N 68 11 0 
N 37 85 0 
N 45 74 0 
N 23 91 0 
N 29 70 0 
O 34 16 0 
6
Atoms. Timestep: 2917
N 68 10 0 
N 38 85 0 
N 46 74 0 
N 24 91 0 
N 30 70 0 
O 35 16 0 
6
Atoms. Timestep: 2918
N 68 9 0 
N 39 85 0 
N 45 74 0 
N 25 91 0 
N 31 70 0 
O 36 16 0 
6
Atoms. Timestep: 2919
N 69 9 0 
N 40 85 0 
N 46 74 0 
N 26 91 0 
N 32 70 0 
O 37 16 0 
6
Atoms. Timestep: 2920
N 69 10 0 
N 41 85 0 
N 47 74 0 
N 25 91 0 
N 33 70 0 
O 38 16 0 
6
Atoms. Timestep: 2921
N 69 11 0 
N 42 85 0 
N 48 74 0 
N 26 91 0 
N 34 70 0 
O 39 16 0 
6
Atoms. Timestep: 2922
N 69 10 0 
N 43 85 0 
N 49 74 0 
N 27 91 0 
N 35 70 0 
O 40 16 0 
6
Atoms. Timestep: 2923
N 68 10 0 
N 44 85 0 
N 50 74 0 
N 27 92 0 
N 36 70 0 
O 41 16 0 
6
Atoms. Timestep: 2924
N 68 11 0 
N 45 85 0 
N 51 74 0 
N 28 92 0 
N 36 71 0 
O 42 16 0 
6
Atoms. Timestep: 2925
N 68 10 0 
N 46 85 0 
N 52 74 0 
N 29 92 0 
N 37 71 0 
O 43 16 0 
6
Atoms. Timestep: 2926
N 67 10 0 
N 47 85 0 
N 53 74 0 
N 30 92 0 
N 38 71 0 
O 44 16 0 
6
Atoms. Timestep: 2927
N 66 10 0 
N 48 85 0 
N 54 74 0 
N 31 92 0 
N 39 71 0 
O 45 16 0 
6
Atoms. Timestep: 2928
N 66 9 0 
N 49 85 0 
N 55 74 0 
N 32 92 0 
N 40 71 0 
O 46 16 0 
6
Atoms. Timestep: 2929
N 66 8 0 
N 50 85 0 
N 56 74 0 
N 33 92 0 
N 41 71 0 
O 47 16 0 
6
Atoms. Timestep: 2930
N 65 8 0 
N 51 85 0 
N 57 74 0 
N 33 93 0 
N 42 71 0 
O 48 16 0 
6
Atoms. Timestep: 2931
N 65 9 0 
N 52 85 0 
N 58 74 0 
N 34 93 0 
N 43 71 0 
O 49 16 0 
6
Atoms. Timestep: 2932
N 65 10 0 
N 53 85 0 
N 59 74 0 
N 35 93 0 
N 44 71 0 
O 50 16 0 
6
Atoms. Timestep: 2933
N 65 11 0 
N 54 85 0 
N 60 74 0 
N 36 93 0 
N 45 71 0 
O 51 16 0 
6
Atoms. Timestep: 2934
N 64 11 0 
N 55 85 0 
N 61 74 0 
N 37 93 0 
N 46 71 0 
O 52 16 0 
6
Atoms. Timestep: 2935
N 65 11 0 
N 56 85 0 
N 62 74 0 
N 38 93 0 
N 47 71 0 
O 53 16 0 
6
Atoms. Timestep: 2936
N 65 10 0 
N 57 85 0 
N 63 74 0 
N 39 93 0 
N 48 71 0 
O 54 16 0 
6
Atoms. Timestep: 2937
N 64 10 0 
N 58 85 0 
N 64 74 0 
N 40 93 0 
N 49 71 0 
O 55 16 0 
6
Atoms. Timestep: 2938
N 64 11 0 
N 59 85 0 
N 65 74 0 
N 41 93 0 
N 50 71 0 
O 56 16 0 
6
Atoms. Timestep: 2939
N 64 12 0 
N 60 85 0 
N 66 74 0 
N 42 93 0 
N 51 71 0 
O 57 16 0 
6
Atoms. Timestep: 2940
N 63 12 0 
N 61 85 0 
N 67 74 0 
N 43 93 0 
N 52 71 0 
O 58 16 0 
6
Atoms. Timestep: 2941
N 63 13 0 
N 62 85 0 
N 68 74 0 
N 44 93 0 
N 53 71 0 
O 59 16 0 
6
Atoms. Timestep: 2942
N 62 13 0 
N 63 85 0 
N 69 74 0 
N 45 93 0 
N 54 71 0 
O 60 16 0 
6
Atoms. Timestep: 2943
N 63 13 0 
N 64 85 0 
N 70 74 0 
N 46 93 0 
N 55 71 0 
O 61 16 0 
6
Atoms. Timestep: 2944
N 63 12 0 
N 65 85 0 
N 71 74 0 
N 47 93 0 
N 56 71 0 
O 62 16 0 
6
Atoms. Timestep: 2945
N 63 13 0 
N 66 85 0 
N 72 74 0 
N 46 93 0 
N 57 71 0 
O 63 16 0 
6
Atoms. Timestep: 2946
N 64 13 0 
N 67 85 0 
N 73 74 0 
N 47 93 0 
N 58 71 0 
O 64 16 0 
6
Atoms. Timestep: 2947
N 63 13 0 
N 68 85 0 
N 74 74 0 
N 48 93 0 
N 59 71 0 
O 65 16 0 
6
Atoms. Timestep: 2948
N 63 14 0 
N 69 85 0 
N 75 74 0 
N 49 93 0 
N 60 71 0 
O 66 16 0 
6
Atoms. Timestep: 2949
N 62 14 0 
N 70 85 0 
N 76 74 0 
N 50 93 0 
N 61 71 0 
O 67 16 0 
6
Atoms. Timestep: 2950
N 62 15 0 
N 71 85 0 
N 77 74 0 
N 51 93 0 
N 62 71 0 
O 68 16 0 
6
Atoms. Timestep: 2951
N 63 15 0 
N 72 85 0 
N 78 74 0 
N 52 93 0 
N 63 71 0 
O 69 16 0 
6
Atoms. Timestep: 2952
N 64 15 0 
N 73 85 0 
N 79 74 0 
N 53 93 0 
N 64 71 0 
O 70 16 0 
6
Atoms. Timestep: 2953
N 63 15 0 
N 74 85 0 
N 80 74 0 
N 54 93 0 
N 65 71 0 
O 71 16 0 
6
Atoms. Timestep: 2954
N 64 15 0 
N 75 85 0 
N 81 74 0 
N 55 93 0 
N 66 71 0 
O 72 16 0 
6
Atoms. Timestep: 2955
N 63 15 0 
N 76 85 0 
N 82 74 0 
N 56 93 0 
N 67 71 0 
O 73 16 0 
6
Atoms. Timestep: 2956
N 63 14 0 
N 76 86 0 
N 83 74 0 
N 57 93 0 
N 68 71 0 
O 74 16 0 
6
Atoms. Timestep: 2957
N 62 14 0 
N 77 86 0 
N 84 74 0 
N 58 93 0 
N 69 71 0 
O 75 16 0 
6
Atoms. Timestep: 2958
N 62 13 0 
N 78 86 0 
N 85 74 0 
N 59 93 0 
N 70 71 0 
O 76 16 0 
6
Atoms. Timestep: 2959
N 62 14 0 
N 79 86 0 
N 86 74 0 
N 60 93 0 
N 71 71 0 
O 77 16 0 
6
Atoms. Timestep: 2960
N 62 13 0 
N 80 86 0 
N 87 74 0 
N 61 93 0 
N 72 71 0 
O 78 16 0 
6
Atoms. Timestep: 2961
N 63 13 0 
N 81 86 0 
N 88 74 0 
N 62 93 0 
N 73 71 0 
O 79 16 0 
6
Atoms. Timestep: 2962
N 62 13 0 
N 81 85 0 
N 89 74 0 
N 63 93 0 
N 74 71 0 
O 80 16 0 
6
Atoms. Timestep: 2963
N 63 13 0 
N 82 85 0 
N 90 74 0 
N 64 93 0 
N 75 71 0 
O 81 16 0 
6
Atoms. Timestep: 2964
N 64 13 0 
N 83 85 0 
N 91 74 0 
N 65 93 0 
N 76 71 0 
O 82 16 0 
6
Atoms. Timestep: 2965
N 64 12 0 
N 84 85 0 
N 92 74 0 
N 66 93 0 
N 77 71 0 
O 83 16 0 
6
Atoms. Timestep: 2966
N 65 12 0 
N 85 85 0 
N 93 74 0 
N 67 93 0 
N 78 71 0 
O 84 16 0 
6
Atoms. Timestep: 2967
N 65 13 0 
N 86 85 0 
N 94 74 0 
N 68 93 0 
N 79 71 0 
O 85 16 0 
6
Atoms. Timestep: 2968
N 66 13 0 
N 87 85 0 
N 95 74 0 
N 69 93 0 
N 80 71 0 
O 86 16 0 
6
Atoms. Timestep: 2969
N 66 12 0 
N 88 85 0 
N 96 74 0 
N 70 93 0 
N 81 71 0 
O 87 16 0 
6
Atoms. Timestep: 2970
N 66 13 0 
N 89 85 0 
N 97 74 0 
N 71 93 0 
N 82 71 0 
O 88 16 0 
6
Atoms. Timestep: 2971
N 66 14 0 
N 90 85 0 
N 98 74 0 
N 72 93 0 
N 83 71 0 
O 89 16 0 
6
Atoms. Timestep: 2972
N 66 15 0 
N 91 85 0 
N 99 74 0 
N 73 93 0 
N 84 71 0 
O 90 16 0 
6
Atoms. Timestep: 2973
N 65 15 0 
N 92 85 0 
N 0 74 0 
N 74 93 0 
N 85 71 0 
O 91 16 0 
6
Atoms. Timestep: 2974
N 65 16 0 
N 93 85 0 
N 1 74 0 
N 75 93 0 
N 86 71 0 
O 92 16 0 
6
Atoms. Timestep: 2975
N 65 15 0 
N 94 85 0 
N 2 74 0 
N 76 93 0 
N 87 71 0 
O 93 16 0 
6
Atoms. Timestep: 2976
N 66 15 0 
N 94 86 0 
N 3 74 0 
N 77 93 0 
N 88 71 0 
O 94 16 0 
6
Atoms. Timestep: 2977
N 67 15 0 
N 95 86 0 
N 2 74 0 
N 78 93 0 
N 89 71 0 
O 95 16 0 
6
Atoms. Timestep: 2978
N 67 16 0 
N 96 86 0 
N 3 74 0 
N 79 93 0 
N 90 71 0 
O 96 16 0 
6
Atoms. Timestep: 2979
N 67 15 0 
N 97 86 0 
N 4 74 0 
N 80 93 0 
N 91 71 0 
O 97 16 0 
6
Atoms. Timestep: 2980
N 67 16 0 
N 98 86 0 
N 5 74 0 
N 81 93 0 
N 92 71 0 
O 98 16 0 
6
Atoms. Timestep: 2981
N 67 17 0 
N 99 86 0 
N 6 74 0 
N 82 93 0 
N 93 71 0 
O 99 16 0 
6
Atoms. Timestep: 2982
N 66 17 0 
N 0 86 0 
N 7 74 0 
N 83 93 0 
N 94 71 0 
O 0 16 0 
6
Atoms. Timestep: 2983
N 65 17 0 
N 1 86 0 
N 8 74 0 
N 84 93 0 
N 95 71 0 
O 1 16 0 
6
Atoms. Timestep: 2984
N 65 18 0 
N 2 86 0 
N 9 74 0 
N 85 93 0 
N 96 71 0 
O 2 16 0 
6
Atoms. Timestep: 2985
N 65 19 0 
N 3 86 0 
N 10 74 0 
N 86 93 0 
N 97 71 0 
O 3 16 0 
6
Atoms. Timestep: 2986
N 65 20 0 
N 4 86 0 
N 11 74 0 
N 87 93 0 
N 98 71 0 
O 4 16 0 
6
Atoms. Timestep: 2987
N 66 20 0 
N 5 86 0 
N 12 74 0 
N 87 94 0 
N 99 71 0 
O 5 16 0 
6
Atoms. Timestep: 2988
N 67 20 0 
N 6 86 0 
N 12 73 0 
N 88 94 0 
N 0 71 0 
O 6 16 0 
6
Atoms. Timestep: 2989
N 67 21 0 
N 7 86 0 
N 13 73 0 
N 89 94 0 
N 1 71 0 
O 7 16 0 
6
Atoms. Timestep: 2990
N 68 21 0 
N 8 86 0 
N 14 73 0 
N 90 94 0 
N 2 71 0 
O 8 16 0 
6
Atoms. Timestep: 2991
N 67 21 0 
N 9 86 0 
N 15 73 0 
N 91 94 0 
N 3 71 0 
O 9 16 0 
6
Atoms. Timestep: 2992
N 68 21 0 
N 8 86 0 
N 16 73 0 
N 92 94 0 
N 4 71 0 
O 10 16 0 
6
Atoms. Timestep: 2993
N 67 21 0 
N 9 86 0 
N 17 73 0 
N 93 94 0 
N 5 71 0 
O 11 16 0 
6
Atoms. Timestep: 2994
N 68 21 0 
N 10 86 0 
N 18 73 0 
N 94 94 0 
N 5 70 0 
O 12 16 0 
6
Atoms. Timestep: 2995
N 69 21 0 
N 11 86 0 
N 19 73 0 
N 95 94 0 
N 6 70 0 
O 13 16 0 
6
Atoms. Timestep: 2996
N 69 22 0 
N 12 86 0 
N 20 73 0 
N 96 94 0 
N 7 70 0 
O 14 16 0 
6
Atoms. Timestep: 2997
N 69 21 0 
N 13 86 0 
N 21 73 0 
N 97 94 0 
N 8 70 0 
O 15 16 0 
6
Atoms. Timestep: 2998
N 70 21 0 
N 14 86 0 
N 21 72 0 
N 98 94 0 
N 9 70 0 
O 16 16 0 
6
Atoms. Timestep: 2999
N 71 21 0 
N 15 86 0 
N 22 72 0 
N 99 94 0 
N 10 70 0 
O 17 16 0 
6
Atoms. Timestep: 3000
N 71 20 0 
N 16 86 0 
N 23 72 0 
N 0 94 0 
N 11 70 0 
O 18 16 0 
6
Atoms. Timestep: 3001
N 71 19 0 
N 17 86 0 
N 24 72 0 
N 1 94 0 
N 12 70 0 
O 19 16 0 
6
Atoms. Timestep: 3002
N 72 19 0 
N 18 86 0 
N 25 72 0 
N 2 94 0 
N 13 70 0 
O 20 16 0 
6
Atoms. Timestep: 3003
N 72 20 0 
N 19 86 0 
N 26 72 0 
N 3 94 0 
N 14 70 0 
O 21 16 0 
6
Atoms. Timestep: 3004
N 72 21 0 
N 20 86 0 
N 27 72 0 
N 4 94 0 
N 15 70 0 
O 22 16 0 
6
Atoms. Timestep: 3005
N 72 22 0 
N 21 86 0 
N 28 72 0 
N 5 94 0 
N 16 70 0 
O 23 16 0 
6
Atoms. Timestep: 3006
N 71 22 0 
N 22 86 0 
N 29 72 0 
N 6 94 0 
N 17 70 0 
O 24 16 0 
6
Atoms. Timestep: 3007
N 71 21 0 
N 23 86 0 
N 30 72 0 
N 7 94 0 
N 18 70 0 
O 25 16 0 
6
Atoms. Timestep: 3008
N 71 20 0 
N 24 86 0 
N 31 72 0 
N 8 94 0 
N 19 70 0 
O 26 16 0 
6
Atoms. Timestep: 3009
N 71 19 0 
N 25 86 0 
N 32 72 0 
N 9 94 0 
N 20 70 0 
O 27 16 0 
6
Atoms. Timestep: 3010
N 71 20 0 
N 26 86 0 
N 33 72 0 
N 10 94 0 
N 21 70 0 
O 28 16 0 
6
Atoms. Timestep: 3011
N 72 20 0 
N 27 86 0 
N 34 72 0 
N 11 94 0 
N 22 70 0 
O 29 16 0 
6
Atoms. Timestep: 3012
N 72 21 0 
N 28 86 0 
N 35 72 0 
N 12 94 0 
N 23 70 0 
O 30 16 0 
6
Atoms. Timestep: 3013
N 72 20 0 
N 29 86 0 
N 36 72 0 
N 13 94 0 
N 24 70 0 
O 31 16 0 
6
Atoms. Timestep: 3014
N 71 20 0 
N 30 86 0 
N 35 72 0 
N 14 94 0 
N 25 70 0 
O 32 16 0 
6
Atoms. Timestep: 3015
N 70 20 0 
N 31 86 0 
N 36 72 0 
N 15 94 0 
N 26 70 0 
O 33 16 0 
6
Atoms. Timestep: 3016
N 70 21 0 
N 32 86 0 
N 37 72 0 
N 16 94 0 
N 27 70 0 
O 34 16 0 
6
Atoms. Timestep: 3017
N 69 21 0 
N 33 86 0 
N 38 72 0 
N 17 94 0 
N 28 70 0 
O 35 16 0 
6
Atoms. Timestep: 3018
N 70 21 0 
N 34 86 0 
N 39 72 0 
N 18 94 0 
N 29 70 0 
O 36 16 0 
6
Atoms. Timestep: 3019
N 71 21 0 
N 35 86 0 
N 39 71 0 
N 19 94 0 
N 30 70 0 
O 37 16 0 
6
Atoms. Timestep: 3020
N 71 22 0 
N 36 86 0 
N 40 71 0 
N 19 93 0 
N 31 70 0 
O 38 16 0 
6
Atoms. Timestep: 3021
N 71 23 0 
N 37 86 0 
N 41 71 0 
N 20 93 0 
N 32 70 0 
O 39 16 0 
6
Atoms. Timestep: 3022
N 71 24 0 
N 38 86 0 
N 42 71 0 
N 21 93 0 
N 33 70 0 
O 40 16 0 
6
Atoms. Timestep: 3023
N 71 23 0 
N 39 86 0 
N 43 71 0 
N 22 93 0 
N 34 70 0 
O 41 16 0 
6
Atoms. Timestep: 3024
N 70 23 0 
N 40 86 0 
N 44 71 0 
N 23 93 0 
N 35 70 0 
O 42 16 0 
6
Atoms. Timestep: 3025
N 71 23 0 
N 41 86 0 
N 45 71 0 
N 24 93 0 
N 36 70 0 
O 43 16 0 
6
Atoms. Timestep: 3026
N 70 23 0 
N 42 86 0 
N 46 71 0 
N 25 93 0 
N 37 70 0 
O 44 16 0 
6
Atoms. Timestep: 3027
N 70 22 0 
N 43 86 0 
N 47 71 0 
N 26 93 0 
N 36 70 0 
O 45 16 0 
6
Atoms. Timestep: 3028
N 70 23 0 
N 44 86 0 
N 48 71 0 
N 27 93 0 
N 37 70 0 
O 46 16 0 
6
Atoms. Timestep: 3029
N 70 22 0 
N 45 86 0 
N 48 72 0 
N 28 93 0 
N 38 70 0 
O 47 16 0 
6
Atoms. Timestep: 3030
N 71 22 0 
N 46 86 0 
N 49 72 0 
N 29 93 0 
N 39 70 0 
O 48 16 0 
6
Atoms. Timestep: 3031
N 71 21 0 
N 47 86 0 
N 49 71 0 
N 30 93 0 
N 40 70 0 
O 49 16 0 
6
Atoms. Timestep: 3032
N 70 21 0 
N 48 86 0 
N 50 71 0 
N 31 93 0 
N 41 70 0 
O 50 16 0 
6
Atoms. Timestep: 3033
N 69 21 0 
N 49 86 0 
N 51 71 0 
N 32 93 0 
N 42 70 0 
O 51 16 0 
6
Atoms. Timestep: 3034
N 69 22 0 
N 50 86 0 
N 52 71 0 
N 33 93 0 
N 43 70 0 
O 52 16 0 
6
Atoms. Timestep: 3035
N 68 22 0 
N 51 86 0 
N 53 71 0 
N 34 93 0 
N 44 70 0 
O 53 16 0 
6
Atoms. Timestep: 3036
N 69 22 0 
N 52 86 0 
N 54 71 0 
N 35 93 0 
N 45 70 0 
O 54 16 0 
6
Atoms. Timestep: 3037
N 68 22 0 
N 53 86 0 
N 55 71 0 
N 36 93 0 
N 46 70 0 
O 55 16 0 
6
Atoms. Timestep: 3038
N 68 23 0 
N 54 86 0 
N 56 71 0 
N 37 93 0 
N 47 70 0 
O 56 16 0 
6
Atoms. Timestep: 3039
N 69 23 0 
N 55 86 0 
N 57 71 0 
N 38 93 0 
N 48 70 0 
O 57 16 0 
6
Atoms. Timestep: 3040
N 69 24 0 
N 56 86 0 
N 58 71 0 
N 39 93 0 
N 49 70 0 
O 58 16 0 
6
Atoms. Timestep: 3041
N 68 24 0 
N 57 86 0 
N 59 71 0 
N 39 92 0 
N 50 70 0 
O 59 16 0 
6
Atoms. Timestep: 3042
N 67 24 0 
N 56 86 0 
N 60 71 0 
N 40 92 0 
N 51 70 0 
O 60 16 0 
6
Atoms. Timestep: 3043
N 66 24 0 
N 57 86 0 
N 61 71 0 
N 41 92 0 
N 52 70 0 
O 61 16 0 
6
Atoms. Timestep: 3044
N 67 24 0 
N 58 86 0 
N 62 71 0 
N 42 92 0 
N 53 70 0 
O 62 16 0 
6
Atoms. Timestep: 3045
N 68 24 0 
N 59 86 0 
N 63 71 0 
N 43 92 0 
N 54 70 0 
O 63 16 0 
6
Atoms. Timestep: 3046
N 68 25 0 
N 60 86 0 
N 64 71 0 
N 44 92 0 
N 55 70 0 
O 64 16 0 
6
Atoms. Timestep: 3047
N 67 25 0 
N 61 86 0 
N 65 71 0 
N 45 92 0 
N 56 70 0 
O 65 16 0 
6
Atoms. Timestep: 3048
N 67 24 0 
N 62 86 0 
N 66 71 0 
N 46 92 0 
N 57 70 0 
O 66 16 0 
6
Atoms. Timestep: 3049
N 67 25 0 
N 63 86 0 
N 67 71 0 
N 47 92 0 
N 58 70 0 
O 67 16 0 
6
Atoms. Timestep: 3050
N 68 25 0 
N 64 86 0 
N 68 71 0 
N 48 92 0 
N 59 70 0 
O 68 16 0 
6
Atoms. Timestep: 3051
N 67 25 0 
N 65 86 0 
N 69 71 0 
N 49 92 0 
N 60 70 0 
O 69 16 0 
6
Atoms. Timestep: 3052
N 67 24 0 
N 66 86 0 
N 70 71 0 
N 50 92 0 
N 61 70 0 
O 70 16 0 
6
Atoms. Timestep: 3053
N 66 24 0 
N 67 86 0 
N 71 71 0 
N 51 92 0 
N 62 70 0 
O 71 16 0 
6
Atoms. Timestep: 3054
N 67 24 0 
N 68 86 0 
N 72 71 0 
N 52 92 0 
N 63 70 0 
O 72 16 0 
6
Atoms. Timestep: 3055
N 66 24 0 
N 69 86 0 
N 73 71 0 
N 53 92 0 
N 64 70 0 
O 73 16 0 
6
Atoms. Timestep: 3056
N 67 24 0 
N 70 86 0 
N 74 71 0 
N 54 92 0 
N 65 70 0 
O 74 16 0 
6
Atoms. Timestep: 3057
N 66 24 0 
N 71 86 0 
N 75 71 0 
N 55 92 0 
N 66 70 0 
O 75 16 0 
6
Atoms. Timestep: 3058
N 66 25 0 
N 72 86 0 
N 76 71 0 
N 56 92 0 
N 67 70 0 
O 76 16 0 
6
Atoms. Timestep: 3059
N 65 25 0 
N 73 86 0 
N 77 71 0 
N 57 92 0 
N 68 70 0 
O 77 16 0 
6
Atoms. Timestep: 3060
N 66 25 0 
N 74 86 0 
N 78 71 0 
N 58 92 0 
N 69 70 0 
O 78 16 0 
6
Atoms. Timestep: 3061
N 65 25 0 
N 75 86 0 
N 79 71 0 
N 59 92 0 
N 70 70 0 
O 79 16 0 
6
Atoms. Timestep: 3062
N 65 24 0 
N 74 86 0 
N 80 71 0 
N 60 92 0 
N 71 70 0 
O 80 16 0 
6
Atoms. Timestep: 3063
N 65 23 0 
N 75 86 0 
N 81 71 0 
N 61 92 0 
N 72 70 0 
O 81 16 0 
6
Atoms. Timestep: 3064
N 64 23 0 
N 76 86 0 
N 82 71 0 
N 62 92 0 
N 73 70 0 
O 82 16 0 
6
Atoms. Timestep: 3065
N 64 22 0 
N 77 86 0 
N 83 71 0 
N 63 92 0 
N 74 70 0 
O 83 16 0 
6
Atoms. Timestep: 3066
N 63 22 0 
N 78 86 0 
N 84 71 0 
N 64 92 0 
N 75 70 0 
O 84 16 0 
6
Atoms. Timestep: 3067
N 64 22 0 
N 79 86 0 
N 85 71 0 
N 65 92 0 
N 76 70 0 
O 85 16 0 
6
Atoms. Timestep: 3068
N 64 21 0 
N 80 86 0 
N 86 71 0 
N 66 92 0 
N 77 70 0 
O 86 16 0 
6
Atoms. Timestep: 3069
N 64 20 0 
N 81 86 0 
N 87 71 0 
N 67 92 0 
N 78 70 0 
O 87 16 0 
6
Atoms. Timestep: 3070
N 64 21 0 
N 82 86 0 
N 88 71 0 
N 68 92 0 
N 79 70 0 
O 88 16 0 
6
Atoms. Timestep: 3071
N 65 21 0 
N 83 86 0 
N 89 71 0 
N 69 92 0 
N 80 70 0 
O 89 16 0 
6
Atoms. Timestep: 3072
N 66 21 0 
N 84 86 0 
N 90 71 0 
N 70 92 0 
N 81 70 0 
O 90 16 0 
6
Atoms. Timestep: 3073
N 65 21 0 
N 85 86 0 
N 90 70 0 
N 71 92 0 
N 82 70 0 
O 91 16 0 
6
Atoms. Timestep: 3074
N 65 22 0 
N 86 86 0 
N 91 70 0 
N 72 92 0 
N 83 70 0 
O 92 16 0 
6
Atoms. Timestep: 3075
N 65 23 0 
N 87 86 0 
N 92 70 0 
N 73 92 0 
N 84 70 0 
O 93 16 0 
6
Atoms. Timestep: 3076
N 65 22 0 
N 88 86 0 
N 93 70 0 
N 74 92 0 
N 85 70 0 
O 94 16 0 
6
Atoms. Timestep: 3077
N 65 21 0 
N 89 86 0 
N 94 70 0 
N 75 92 0 
N 86 70 0 
O 95 16 0 
6
Atoms. Timestep: 3078
N 66 21 0 
N 90 86 0 
N 95 70 0 
N 76 92 0 
N 87 70 0 
O 96 16 0 
6
Atoms. Timestep: 3079
N 66 22 0 
N 91 86 0 
N 96 70 0 
N 77 92 0 
N 88 70 0 
O 97 16 0 
6
Atoms. Timestep: 3080
N 67 22 0 
N 92 86 0 
N 96 71 0 
N 78 92 0 
N 89 70 0 
O 98 16 0 
6
Atoms. Timestep: 3081
N 67 21 0 
N 93 86 0 
N 97 71 0 
N 79 92 0 
N 90 70 0 
O 99 16 0 
6
Atoms. Timestep: 3082
N 66 21 0 
N 94 86 0 
N 98 71 0 
N 80 92 0 
N 91 70 0 
O 0 16 0 
6
Atoms. Timestep: 3083
N 66 20 0 
N 95 86 0 
N 99 71 0 
N 80 93 0 
N 92 70 0 
O 1 16 0 
6
Atoms. Timestep: 3084
N 67 20 0 
N 96 86 0 
N 0 71 0 
N 81 93 0 
N 93 70 0 
O 2 16 0 
6
Atoms. Timestep: 3085
N 66 20 0 
N 97 86 0 
N 1 71 0 
N 82 93 0 
N 94 70 0 
O 3 16 0 
6
Atoms. Timestep: 3086
N 67 20 0 
N 98 86 0 
N 2 71 0 
N 83 93 0 
N 93 70 0 
O 4 16 0 
6
Atoms. Timestep: 3087
N 67 19 0 
N 99 86 0 
N 3 71 0 
N 84 93 0 
N 94 70 0 
O 5 16 0 
6
Atoms. Timestep: 3088
N 66 19 0 
N 0 86 0 
N 4 71 0 
N 84 94 0 
N 95 70 0 
O 6 16 0 
6
Atoms. Timestep: 3089
N 66 20 0 
N 1 86 0 
N 5 71 0 
N 85 94 0 
N 96 70 0 
O 7 16 0 
6
Atoms. Timestep: 3090
N 66 19 0 
N 2 86 0 
N 6 71 0 
N 85 93 0 
N 97 70 0 
O 8 16 0 
6
Atoms. Timestep: 3091
N 66 18 0 
N 3 86 0 
N 7 71 0 
N 85 92 0 
N 98 70 0 
O 9 16 0 
6
Atoms. Timestep: 3092
N 65 18 0 
N 4 86 0 
N 8 71 0 
N 86 92 0 
N 99 70 0 
O 10 16 0 
6
Atoms. Timestep: 3093
N 66 18 0 
N 5 86 0 
N 9 71 0 
N 86 91 0 
N 98 70 0 
O 11 16 0 
6
Atoms. Timestep: 3094
N 66 19 0 
N 6 86 0 
N 10 71 0 
N 87 91 0 
N 98 71 0 
O 12 16 0 
6
Atoms. Timestep: 3095
N 66 18 0 
N 7 86 0 
N 11 71 0 
N 87 90 0 
N 99 71 0 
O 13 16 0 
6
Atoms. Timestep: 3096
N 65 18 0 
N 8 86 0 
N 12 71 0 
N 88 90 0 
N 0 71 0 
O 14 16 0 
6
Atoms. Timestep: 3097
N 65 17 0 
N 9 86 0 
N 13 71 0 
N 89 90 0 
N 1 71 0 
O 15 16 0 
6
Atoms. Timestep: 3098
N 65 16 0 
N 10 86 0 
N 14 71 0 
N 90 90 0 
N 2 71 0 
O 16 16 0 
6
Atoms. Timestep: 3099
N 65 17 0 
N 11 86 0 
N 15 71 0 
N 90 89 0 
N 3 71 0 
O 17 16 0 
6
Atoms. Timestep: 3100
N 64 17 0 
N 12 86 0 
N 16 71 0 
N 90 88 0 
N 4 71 0 
O 18 16 0 
6
Atoms. Timestep: 3101
N 63 17 0 
N 13 86 0 
N 17 71 0 
N 91 88 0 
N 5 71 0 
O 19 16 0 
6
Atoms. Timestep: 3102
N 63 18 0 
N 14 86 0 
N 18 71 0 
N 91 87 0 
N 6 71 0 
O 20 16 0 
6
Atoms. Timestep: 3103
N 63 19 0 
N 15 86 0 
N 19 71 0 
N 91 86 0 
N 7 71 0 
O 21 16 0 
6
Atoms. Timestep: 3104
N 63 20 0 
N 16 86 0 
N 20 71 0 
N 92 86 0 
N 8 71 0 
O 22 16 0 
6
Atoms. Timestep: 3105
N 63 19 0 
N 17 86 0 
N 20 72 0 
N 93 86 0 
N 9 71 0 
O 23 16 0 
6
Atoms. Timestep: 3106
N 64 19 0 
N 18 86 0 
N 21 72 0 
N 94 86 0 
N 10 71 0 
O 24 16 0 
6
Atoms. Timestep: 3107
N 63 19 0 
N 19 86 0 
N 22 72 0 
N 94 87 0 
N 11 71 0 
O 25 16 0 
6
Atoms. Timestep: 3108
N 63 20 0 
N 20 86 0 
N 23 72 0 
N 94 86 0 
N 12 71 0 
O 26 16 0 
6
Atoms. Timestep: 3109
N 63 21 0 
N 21 86 0 
N 24 72 0 
N 94 85 0 
N 13 71 0 
O 27 16 0 
6
Atoms. Timestep: 3110
N 64 21 0 
N 22 86 0 
N 25 72 0 
N 94 84 0 
N 14 71 0 
O 28 16 0 
6
Atoms. Timestep: 3111
N 65 21 0 
N 23 86 0 
N 26 72 0 
N 94 83 0 
N 15 71 0 
O 29 16 0 
6
Atoms. Timestep: 3112
N 65 22 0 
N 24 86 0 
N 27 72 0 
N 94 82 0 
N 16 71 0 
O 29 15 0 
6
Atoms. Timestep: 3113
N 65 23 0 
N 25 86 0 
N 28 72 0 
N 94 81 0 
N 17 71 0 
O 30 15 0 
6
Atoms. Timestep: 3114
N 64 23 0 
N 26 86 0 
N 29 72 0 
N 94 80 0 
N 18 71 0 
O 31 15 0 
6
Atoms. Timestep: 3115
N 63 23 0 
N 27 86 0 
N 29 71 0 
N 94 79 0 
N 19 71 0 
O 31 14 0 
6
Atoms. Timestep: 3116
N 63 22 0 
N 28 86 0 
N 30 71 0 
N 94 78 0 
N 20 71 0 
O 31 13 0 
6
Atoms. Timestep: 3117
N 63 23 0 
N 29 86 0 
N 31 71 0 
N 94 77 0 
N 21 71 0 
O 32 13 0 
6
Atoms. Timestep: 3118
N 62 23 0 
N 30 86 0 
N 32 71 0 
N 94 76 0 
N 22 71 0 
O 33 13 0 
6
Atoms. Timestep: 3119
N 62 22 0 
N 31 86 0 
N 33 71 0 
N 94 75 0 
N 23 71 0 
O 34 13 0 
6
Atoms. Timestep: 3120
N 62 21 0 
N 32 86 0 
N 34 71 0 
N 94 74 0 
N 24 71 0 
O 34 12 0 
6
Atoms. Timestep: 3121
N 62 20 0 
N 33 86 0 
N 35 71 0 
N 94 73 0 
N 25 71 0 
O 35 12 0 
6
Atoms. Timestep: 3122
N 61 20 0 
N 34 86 0 
N 36 71 0 
N 94 72 0 
N 26 71 0 
O 36 12 0 
6
Atoms. Timestep: 3123
N 61 21 0 
N 35 86 0 
N 37 71 0 
N 94 71 0 
N 27 71 0 
O 37 12 0 
6
Atoms. Timestep: 3124
N 61 20 0 
N 36 86 0 
N 38 71 0 
N 94 70 0 
N 28 71 0 
O 38 12 0 
6
Atoms. Timestep: 3125
N 60 20 0 
N 37 86 0 
N 39 71 0 
N 94 69 0 
N 29 71 0 
O 39 12 0 
6
Atoms. Timestep: 3126
N 59 20 0 
N 38 86 0 
N 40 71 0 
N 94 68 0 
N 30 71 0 
O 40 12 0 
6
Atoms. Timestep: 3127
N 59 19 0 
N 39 86 0 
N 41 71 0 
N 94 67 0 
N 31 71 0 
O 41 12 0 
6
Atoms. Timestep: 3128
N 59 18 0 
N 40 86 0 
N 42 71 0 
N 94 66 0 
N 32 71 0 
O 42 12 0 
6
Atoms. Timestep: 3129
N 59 19 0 
N 41 86 0 
N 43 71 0 
N 94 65 0 
N 33 71 0 
O 43 12 0 
6
Atoms. Timestep: 3130
N 60 19 0 
N 42 86 0 
N 43 72 0 
N 94 64 0 
N 34 71 0 
O 44 12 0 
6
Atoms. Timestep: 3131
N 60 20 0 
N 43 86 0 
N 44 72 0 
N 94 63 0 
N 35 71 0 
O 45 12 0 
6
Atoms. Timestep: 3132
N 59 20 0 
N 44 86 0 
N 45 72 0 
N 95 63 0 
N 35 70 0 
O 46 12 0 
6
Atoms. Timestep: 3133
N 59 21 0 
N 45 86 0 
N 46 72 0 
N 96 63 0 
N 36 70 0 
O 47 12 0 
6
Atoms. Timestep: 3134
N 58 21 0 
N 46 86 0 
N 47 72 0 
N 95 63 0 
N 37 70 0 
O 48 12 0 
6
Atoms. Timestep: 3135
N 57 21 0 
N 47 86 0 
N 48 72 0 
N 94 63 0 
N 38 70 0 
O 49 12 0 
6
Atoms. Timestep: 3136
N 57 22 0 
N 48 86 0 
N 49 72 0 
N 95 63 0 
N 39 70 0 
O 50 12 0 
6
Atoms. Timestep: 3137
N 57 21 0 
N 49 86 0 
N 50 72 0 
N 96 63 0 
N 40 70 0 
O 51 12 0 
6
Atoms. Timestep: 3138
N 57 20 0 
N 50 86 0 
N 51 72 0 
N 97 63 0 
N 41 70 0 
O 52 12 0 
6
Atoms. Timestep: 3139
N 57 19 0 
N 51 86 0 
N 51 73 0 
N 98 63 0 
N 42 70 0 
O 53 12 0 
6
Atoms. Timestep: 3140
N 56 19 0 
N 52 86 0 
N 52 73 0 
N 99 63 0 
N 43 70 0 
O 54 12 0 
6
Atoms. Timestep: 3141
N 56 20 0 
N 53 86 0 
N 53 73 0 
N 0 63 0 
N 44 70 0 
O 55 12 0 
6
Atoms. Timestep: 3142
N 56 19 0 
N 54 86 0 
N 54 73 0 
N 1 63 0 
N 45 70 0 
O 56 12 0 
6
Atoms. Timestep: 3143
N 55 19 0 
N 55 86 0 
N 55 73 0 
N 2 63 0 
N 46 70 0 
O 57 12 0 
6
Atoms. Timestep: 3144
N 56 19 0 
N 56 86 0 
N 56 73 0 
N 3 63 0 
N 47 70 0 
O 58 12 0 
6
Atoms. Timestep: 3145
N 55 19 0 
N 57 86 0 
N 57 73 0 
N 2 63 0 
N 48 70 0 
O 59 12 0 
6
Atoms. Timestep: 3146
N 55 18 0 
N 58 86 0 
N 58 73 0 
N 3 63 0 
N 49 70 0 
O 60 12 0 
6
Atoms. Timestep: 3147
N 54 18 0 
N 59 86 0 
N 59 73 0 
N 4 63 0 
N 50 70 0 
O 61 12 0 
6
Atoms. Timestep: 3148
N 54 17 0 
N 60 86 0 
N 60 73 0 
N 5 63 0 
N 51 70 0 
O 62 12 0 
6
Atoms. Timestep: 3149
N 53 17 0 
N 61 86 0 
N 61 73 0 
N 6 63 0 
N 52 70 0 
O 63 12 0 
6
Atoms. Timestep: 3150
N 53 18 0 
N 62 86 0 
N 62 73 0 
N 6 62 0 
N 53 70 0 
O 64 12 0 
6
Atoms. Timestep: 3151
N 52 18 0 
N 63 86 0 
N 63 73 0 
N 7 62 0 
N 54 70 0 
O 65 12 0 
6
Atoms. Timestep: 3152
N 53 18 0 
N 64 86 0 
N 64 73 0 
N 8 62 0 
N 55 70 0 
O 66 12 0 
6
Atoms. Timestep: 3153
N 52 18 0 
N 65 86 0 
N 65 73 0 
N 8 63 0 
N 56 70 0 
O 67 12 0 
6
Atoms. Timestep: 3154
N 51 18 0 
N 66 86 0 
N 66 73 0 
N 9 63 0 
N 57 70 0 
O 68 12 0 
6
Atoms. Timestep: 3155
N 51 17 0 
N 67 86 0 
N 67 73 0 
N 10 63 0 
N 58 70 0 
O 69 12 0 
6
Atoms. Timestep: 3156
N 52 17 0 
N 68 86 0 
N 68 73 0 
N 11 63 0 
N 59 70 0 
O 70 12 0 
6
Atoms. Timestep: 3157
N 53 17 0 
N 69 86 0 
N 69 73 0 
N 12 63 0 
N 60 70 0 
O 71 12 0 
6
Atoms. Timestep: 3158
N 54 17 0 
N 70 86 0 
N 70 73 0 
N 13 63 0 
N 59 70 0 
O 72 12 0 
6
Atoms. Timestep: 3159
N 54 16 0 
N 71 86 0 
N 71 73 0 
N 14 63 0 
N 60 70 0 
O 73 12 0 
6
Atoms. Timestep: 3160
N 55 16 0 
N 72 86 0 
N 72 73 0 
N 15 63 0 
N 61 70 0 
O 74 12 0 
6
Atoms. Timestep: 3161
N 55 15 0 
N 73 86 0 
N 73 73 0 
N 16 63 0 
N 62 70 0 
O 75 12 0 
6
Atoms. Timestep: 3162
N 56 15 0 
N 74 86 0 
N 74 73 0 
N 17 63 0 
N 63 70 0 
O 76 12 0 
6
Atoms. Timestep: 3163
N 55 15 0 
N 75 86 0 
N 75 73 0 
N 18 63 0 
N 64 70 0 
O 77 12 0 
6
Atoms. Timestep: 3164
N 55 16 0 
N 76 86 0 
N 76 73 0 
N 19 63 0 
N 65 70 0 
O 78 12 0 
6
Atoms. Timestep: 3165
N 54 16 0 
N 77 86 0 
N 77 73 0 
N 20 63 0 
N 66 70 0 
O 79 12 0 
6
Atoms. Timestep: 3166
N 53 16 0 
N 78 86 0 
N 78 73 0 
N 21 63 0 
N 67 70 0 
O 80 12 0 
6
Atoms. Timestep: 3167
N 53 15 0 
N 79 86 0 
N 79 73 0 
N 22 63 0 
N 68 70 0 
O 81 12 0 
6
Atoms. Timestep: 3168
N 53 14 0 
N 80 86 0 
N 80 73 0 
N 23 63 0 
N 69 70 0 
O 82 12 0 
6
Atoms. Timestep: 3169
N 53 15 0 
N 81 86 0 
N 81 73 0 
N 24 63 0 
N 70 70 0 
O 83 12 0 
6
Atoms. Timestep: 3170
N 54 15 0 
N 82 86 0 
N 82 73 0 
N 25 63 0 
N 71 70 0 
O 84 12 0 
6
Atoms. Timestep: 3171
N 53 15 0 
N 82 85 0 
N 83 73 0 
N 24 63 0 
N 72 70 0 
O 85 12 0 
6
Atoms. Timestep: 3172
N 54 15 0 
N 83 85 0 
N 84 73 0 
N 25 63 0 
N 73 70 0 
O 86 12 0 
6
Atoms. Timestep: 3173
N 53 15 0 
N 84 85 0 
N 85 73 0 
N 26 63 0 
N 74 70 0 
O 87 12 0 
6
Atoms. Timestep: 3174
N 53 16 0 
N 85 85 0 
N 86 73 0 
N 27 63 0 
N 75 70 0 
O 88 12 0 
6
Atoms. Timestep: 3175
N 54 16 0 
N 86 85 0 
N 87 73 0 
N 28 63 0 
N 76 70 0 
O 89 12 0 
6
Atoms. Timestep: 3176
N 54 17 0 
N 87 85 0 
N 88 73 0 
N 29 63 0 
N 77 70 0 
O 90 12 0 
6
Atoms. Timestep: 3177
N 54 18 0 
N 88 85 0 
N 89 73 0 
N 30 63 0 
N 78 70 0 
O 91 12 0 
6
Atoms. Timestep: 3178
N 54 17 0 
N 89 85 0 
N 90 73 0 
N 31 63 0 
N 79 70 0 
O 92 12 0 
6
Atoms. Timestep: 3179
N 54 18 0 
N 90 85 0 
N 91 73 0 
N 32 63 0 
N 80 70 0 
O 93 12 0 
6
Atoms. Timestep: 3180
N 54 17 0 
N 91 85 0 
N 92 73 0 
N 33 63 0 
N 81 70 0 
O 94 12 0 
6
Atoms. Timestep: 3181
N 55 17 0 
N 92 85 0 
N 93 73 0 
N 34 63 0 
N 82 70 0 
O 95 12 0 
6
Atoms. Timestep: 3182
N 54 17 0 
N 93 85 0 
N 94 73 0 
N 35 63 0 
N 83 70 0 
O 96 12 0 
6
Atoms. Timestep: 3183
N 53 17 0 
N 94 85 0 
N 95 73 0 
N 36 63 0 
N 83 71 0 
O 97 12 0 
6
Atoms. Timestep: 3184
N 53 16 0 
N 95 85 0 
N 94 73 0 
N 37 63 0 
N 84 71 0 
O 98 12 0 
6
Atoms. Timestep: 3185
N 52 16 0 
N 96 85 0 
N 95 73 0 
N 38 63 0 
N 85 71 0 
O 99 12 0 
6
Atoms. Timestep: 3186
N 52 17 0 
N 97 85 0 
N 96 73 0 
N 39 63 0 
N 85 70 0 
O 0 12 0 
6
Atoms. Timestep: 3187
N 52 16 0 
N 98 85 0 
N 97 73 0 
N 40 63 0 
N 86 70 0 
O 1 12 0 
6
Atoms. Timestep: 3188
N 53 16 0 
N 99 85 0 
N 98 73 0 
N 41 63 0 
N 87 70 0 
O 2 12 0 
6
Atoms. Timestep: 3189
N 53 15 0 
N 0 85 0 
N 99 73 0 
N 42 63 0 
N 88 70 0 
O 3 12 0 
6
Atoms. Timestep: 3190
N 54 15 0 
N 1 85 0 
N 0 73 0 
N 43 63 0 
N 89 70 0 
O 4 12 0 
6
Atoms. Timestep: 3191
N 54 16 0 
N 2 85 0 
N 1 73 0 
N 44 63 0 
N 90 70 0 
O 5 12 0 
6
Atoms. Timestep: 3192
N 55 16 0 
N 3 85 0 
N 2 73 0 
N 45 63 0 
N 91 70 0 
O 6 12 0 
6
Atoms. Timestep: 3193
N 55 15 0 
N 4 85 0 
N 3 73 0 
N 46 63 0 
N 92 70 0 
O 7 12 0 
6
Atoms. Timestep: 3194
N 55 16 0 
N 5 85 0 
N 4 73 0 
N 47 63 0 
N 93 70 0 
O 8 12 0 
6
Atoms. Timestep: 3195
N 56 16 0 
N 6 85 0 
N 5 73 0 
N 48 63 0 
N 94 70 0 
O 9 12 0 
6
Atoms. Timestep: 3196
N 56 15 0 
N 7 85 0 
N 6 73 0 
N 49 63 0 
N 95 70 0 
O 10 12 0 
6
Atoms. Timestep: 3197
N 57 15 0 
N 8 85 0 
N 7 73 0 
N 50 63 0 
N 96 70 0 
O 11 12 0 
6
Atoms. Timestep: 3198
N 58 15 0 
N 9 85 0 
N 8 73 0 
N 51 63 0 
N 97 70 0 
O 12 12 0 
6
Atoms. Timestep: 3199
N 58 14 0 
N 10 85 0 
N 9 73 0 
N 52 63 0 
N 96 70 0 
O 13 12 0 
6
Atoms. Timestep: 3200
N 58 13 0 
N 11 85 0 
N 10 73 0 
N 53 63 0 
N 97 70 0 
O 14 12 0 
6
Atoms. Timestep: 3201
N 58 12 0 
N 12 85 0 
N 11 73 0 
N 54 63 0 
N 98 70 0 
O 15 12 0 
6
Atoms. Timestep: 3202
N 58 13 0 
N 13 85 0 
N 12 73 0 
N 55 63 0 
N 99 70 0 
O 16 12 0 
6
Atoms. Timestep: 3203
N 59 13 0 
N 14 85 0 
N 13 73 0 
N 56 63 0 
N 0 70 0 
O 17 12 0 
6
Atoms. Timestep: 3204
N 58 13 0 
N 15 85 0 
N 14 73 0 
N 57 63 0 
N 1 70 0 
O 18 12 0 
6
Atoms. Timestep: 3205
N 57 13 0 
N 16 85 0 
N 15 73 0 
N 58 63 0 
N 2 70 0 
O 19 12 0 
6
Atoms. Timestep: 3206
N 57 14 0 
N 17 85 0 
N 16 73 0 
N 59 63 0 
N 3 70 0 
O 20 12 0 
6
Atoms. Timestep: 3207
N 56 14 0 
N 18 85 0 
N 17 73 0 
N 60 63 0 
N 4 70 0 
O 21 12 0 
6
Atoms. Timestep: 3208
N 56 15 0 
N 19 85 0 
N 18 73 0 
N 61 63 0 
N 5 70 0 
O 22 12 0 
6
Atoms. Timestep: 3209
N 56 16 0 
N 20 85 0 
N 19 73 0 
N 62 63 0 
N 6 70 0 
O 23 12 0 
6
Atoms. Timestep: 3210
N 55 16 0 
N 21 85 0 
N 20 73 0 
N 63 63 0 
N 7 70 0 
O 24 12 0 
6
Atoms. Timestep: 3211
N 56 16 0 
N 22 85 0 
N 21 73 0 
N 64 63 0 
N 8 70 0 
O 25 12 0 
6
Atoms. Timestep: 3212
N 56 17 0 
N 23 85 0 
N 22 73 0 
N 65 63 0 
N 9 70 0 
O 26 12 0 
6
Atoms. Timestep: 3213
N 57 17 0 
N 24 85 0 
N 23 73 0 
N 66 63 0 
N 10 70 0 
O 27 12 0 
6
Atoms. Timestep: 3214
N 58 17 0 
N 25 85 0 
N 24 73 0 
N 67 63 0 
N 11 70 0 
O 28 12 0 
6
Atoms. Timestep: 3215
N 58 16 0 
N 26 85 0 
N 25 73 0 
N 68 63 0 
N 12 70 0 
O 29 12 0 
6
Atoms. Timestep: 3216
N 57 16 0 
N 27 85 0 
N 26 73 0 
N 69 63 0 
N 13 70 0 
O 30 12 0 
6
Atoms. Timestep: 3217
N 57 17 0 
N 28 85 0 
N 27 73 0 
N 70 63 0 
N 14 70 0 
O 31 12 0 
6
Atoms. Timestep: 3218
N 58 17 0 
N 29 85 0 
N 28 73 0 
N 71 63 0 
N 15 70 0 
O 32 12 0 
6
Atoms. Timestep: 3219
N 58 16 0 
N 30 85 0 
N 29 73 0 
N 72 63 0 
N 16 70 0 
O 33 12 0 
6
Atoms. Timestep: 3220
N 58 17 0 
N 31 85 0 
N 30 73 0 
N 73 63 0 
N 17 70 0 
O 34 12 0 
6
Atoms. Timestep: 3221
N 59 17 0 
N 32 85 0 
N 31 73 0 
N 74 63 0 
N 18 70 0 
O 35 12 0 
6
Atoms. Timestep: 3222
N 59 16 0 
N 33 85 0 
N 32 73 0 
N 75 63 0 
N 19 70 0 
O 36 12 0 
6
Atoms. Timestep: 3223
N 58 16 0 
N 34 85 0 
N 33 73 0 
N 76 63 0 
N 20 70 0 
O 37 12 0 
6
Atoms. Timestep: 3224
N 57 16 0 
N 35 85 0 
N 34 73 0 
N 77 63 0 
N 21 70 0 
O 38 12 0 
6
Atoms. Timestep: 3225
N 58 16 0 
N 36 85 0 
N 35 73 0 
N 78 63 0 
N 21 69 0 
O 39 12 0 
6
Atoms. Timestep: 3226
N 58 17 0 
N 37 85 0 
N 36 73 0 
N 79 63 0 
N 22 69 0 
O 40 12 0 
6
Atoms. Timestep: 3227
N 59 17 0 
N 38 85 0 
N 37 73 0 
N 80 63 0 
N 23 69 0 
O 41 12 0 
6
Atoms. Timestep: 3228
N 59 16 0 
N 39 85 0 
N 38 73 0 
N 81 63 0 
N 24 69 0 
O 42 12 0 
6
Atoms. Timestep: 3229
N 58 16 0 
N 40 85 0 
N 39 73 0 
N 82 63 0 
N 25 69 0 
O 43 12 0 
6
Atoms. Timestep: 3230
N 58 15 0 
N 41 85 0 
N 40 73 0 
N 83 63 0 
N 26 69 0 
O 44 12 0 
6
Atoms. Timestep: 3231
N 58 16 0 
N 42 85 0 
N 41 73 0 
N 84 63 0 
N 27 69 0 
O 45 12 0 
6
Atoms. Timestep: 3232
N 57 16 0 
N 43 85 0 
N 42 73 0 
N 85 63 0 
N 28 69 0 
O 46 12 0 
6
Atoms. Timestep: 3233
N 57 15 0 
N 44 85 0 
N 43 73 0 
N 86 63 0 
N 29 69 0 
O 47 12 0 
6
Atoms. Timestep: 3234
N 58 15 0 
N 45 85 0 
N 44 73 0 
N 85 63 0 
N 30 69 0 
O 48 12 0 
6
Atoms. Timestep: 3235
N 58 16 0 
N 46 85 0 
N 45 73 0 
N 86 63 0 
N 31 69 0 
O 49 12 0 
6
Atoms. Timestep: 3236
N 58 17 0 
N 47 85 0 
N 46 73 0 
N 87 63 0 
N 32 69 0 
O 50 12 0 
6
Atoms. Timestep: 3237
N 59 17 0 
N 48 85 0 
N 47 73 0 
N 88 63 0 
N 33 69 0 
O 51 12 0 
6
Atoms. Timestep: 3238
N 59 18 0 
N 49 85 0 
N 48 73 0 
N 89 63 0 
N 34 69 0 
O 52 12 0 
6
Atoms. Timestep: 3239
N 58 18 0 
N 50 85 0 
N 49 73 0 
N 90 63 0 
N 35 69 0 
O 53 12 0 
6
Atoms. Timestep: 3240
N 58 19 0 
N 51 85 0 
N 50 73 0 
N 91 63 0 
N 36 69 0 
O 54 12 0 
6
Atoms. Timestep: 3241
N 57 19 0 
N 52 85 0 
N 51 73 0 
N 92 63 0 
N 37 69 0 
O 55 12 0 
6
Atoms. Timestep: 3242
N 57 18 0 
N 53 85 0 
N 52 73 0 
N 93 63 0 
N 38 69 0 
O 56 12 0 
6
Atoms. Timestep: 3243
N 57 17 0 
N 54 85 0 
N 53 73 0 
N 94 63 0 
N 39 69 0 
O 57 12 0 
6
Atoms. Timestep: 3244
N 57 18 0 
N 55 85 0 
N 54 73 0 
N 95 63 0 
N 40 69 0 
O 58 12 0 
6
Atoms. Timestep: 3245
N 56 18 0 
N 56 85 0 
N 55 73 0 
N 96 63 0 
N 41 69 0 
O 59 12 0 
6
Atoms. Timestep: 3246
N 56 17 0 
N 57 85 0 
N 56 73 0 
N 97 63 0 
N 42 69 0 
O 60 12 0 
6
Atoms. Timestep: 3247
N 55 17 0 
N 58 85 0 
N 57 73 0 
N 98 63 0 
N 43 69 0 
O 61 12 0 
6
Atoms. Timestep: 3248
N 54 17 0 
N 59 85 0 
N 58 73 0 
N 99 63 0 
N 44 69 0 
O 62 12 0 
6
Atoms. Timestep: 3249
N 54 18 0 
N 60 85 0 
N 59 73 0 
N 99 64 0 
N 45 69 0 
O 63 12 0 
6
Atoms. Timestep: 3250
N 53 18 0 
N 61 85 0 
N 60 73 0 
N 0 64 0 
N 46 69 0 
O 64 12 0 
6
Atoms. Timestep: 3251
N 52 18 0 
N 62 85 0 
N 61 73 0 
N 1 64 0 
N 47 69 0 
O 65 12 0 
6
Atoms. Timestep: 3252
N 51 18 0 
N 63 85 0 
N 62 73 0 
N 2 64 0 
N 47 70 0 
O 66 12 0 
6
Atoms. Timestep: 3253
N 52 18 0 
N 64 85 0 
N 63 73 0 
N 3 64 0 
N 48 70 0 
O 67 12 0 
6
Atoms. Timestep: 3254
N 52 17 0 
N 65 85 0 
N 64 73 0 
N 4 64 0 
N 49 70 0 
O 68 12 0 
6
Atoms. Timestep: 3255
N 52 18 0 
N 66 85 0 
N 65 73 0 
N 5 64 0 
N 50 70 0 
O 69 12 0 
6
Atoms. Timestep: 3256
N 53 18 0 
N 67 85 0 
N 66 73 0 
N 6 64 0 
N 51 70 0 
O 70 12 0 
6
Atoms. Timestep: 3257
N 52 18 0 
N 68 85 0 
N 67 73 0 
N 7 64 0 
N 52 70 0 
O 71 12 0 
6
Atoms. Timestep: 3258
N 53 18 0 
N 69 85 0 
N 68 73 0 
N 8 64 0 
N 53 70 0 
O 72 12 0 
6
Atoms. Timestep: 3259
N 53 19 0 
N 70 85 0 
N 69 73 0 
N 9 64 0 
N 54 70 0 
O 73 12 0 
6
Atoms. Timestep: 3260
N 52 19 0 
N 71 85 0 
N 70 73 0 
N 10 64 0 
N 55 70 0 
O 74 12 0 
6
Atoms. Timestep: 3261
N 52 20 0 
N 72 85 0 
N 71 73 0 
N 11 64 0 
N 55 71 0 
O 75 12 0 
6
Atoms. Timestep: 3262
N 52 21 0 
N 73 85 0 
N 72 73 0 
N 12 64 0 
N 56 71 0 
O 76 12 0 
6
Atoms. Timestep: 3263
N 53 21 0 
N 74 85 0 
N 73 73 0 
N 13 64 0 
N 55 71 0 
O 77 12 0 
6
Atoms. Timestep: 3264
N 53 20 0 
N 75 85 0 
N 74 73 0 
N 14 64 0 
N 56 71 0 
O 78 12 0 
6
Atoms. Timestep: 3265
N 53 19 0 
N 76 85 0 
N 75 73 0 
N 15 64 0 
N 57 71 0 
O 79 12 0 
6
Atoms. Timestep: 3266
N 52 19 0 
N 77 85 0 
N 76 73 0 
N 16 64 0 
N 58 71 0 
O 80 12 0 
6
Atoms. Timestep: 3267
N 51 19 0 
N 78 85 0 
N 76 74 0 
N 17 64 0 
N 59 71 0 
O 81 12 0 
6
Atoms. Timestep: 3268
N 52 19 0 
N 79 85 0 
N 77 74 0 
N 18 64 0 
N 60 71 0 
O 82 12 0 
6
Atoms. Timestep: 3269
N 52 20 0 
N 80 85 0 
N 78 74 0 
N 19 64 0 
N 61 71 0 
O 83 12 0 
6
Atoms. Timestep: 3270
N 52 19 0 
N 81 85 0 
N 79 74 0 
N 20 64 0 
N 62 71 0 
O 84 12 0 
6
Atoms. Timestep: 3271
N 51 19 0 
N 82 85 0 
N 80 74 0 
N 21 64 0 
N 63 71 0 
O 85 12 0 
6
Atoms. Timestep: 3272
N 51 20 0 
N 83 85 0 
N 81 74 0 
N 22 64 0 
N 64 71 0 
O 86 12 0 
6
Atoms. Timestep: 3273
N 52 20 0 
N 84 85 0 
N 82 74 0 
N 23 64 0 
N 65 71 0 
O 87 12 0 
6
Atoms. Timestep: 3274
N 51 20 0 
N 85 85 0 
N 83 74 0 
N 24 64 0 
N 64 71 0 
O 88 12 0 
6
Atoms. Timestep: 3275
N 52 20 0 
N 86 85 0 
N 84 74 0 
N 25 64 0 
N 65 71 0 
O 89 12 0 
6
Atoms. Timestep: 3276
N 53 20 0 
N 87 85 0 
N 85 74 0 
N 26 64 0 
N 66 71 0 
O 90 12 0 
6
Atoms. Timestep: 3277
N 53 21 0 
N 88 85 0 
N 86 74 0 
N 27 64 0 
N 67 71 0 
O 91 12 0 
6
Atoms. Timestep: 3278
N 54 21 0 
N 89 85 0 
N 87 74 0 
N 28 64 0 
N 68 71 0 
O 92 12 0 
6
Atoms. Timestep: 3279
N 54 20 0 
N 90 85 0 
N 88 74 0 
N 29 64 0 
N 69 71 0 
O 93 12 0 
6
Atoms. Timestep: 3280
N 53 20 0 
N 91 85 0 
N 89 74 0 
N 30 64 0 
N 70 71 0 
O 94 12 0 
6
Atoms. Timestep: 3281
N 53 19 0 
N 92 85 0 
N 90 74 0 
N 31 64 0 
N 71 71 0 
O 95 12 0 
6
Atoms. Timestep: 3282
N 54 19 0 
N 93 85 0 
N 91 74 0 
N 32 64 0 
N 72 71 0 
O 96 12 0 
6
Atoms. Timestep: 3283
N 53 19 0 
N 94 85 0 
N 92 74 0 
N 33 64 0 
N 73 71 0 
O 97 12 0 
6
Atoms. Timestep: 3284
N 54 19 0 
N 95 85 0 
N 93 74 0 
N 34 64 0 
N 74 71 0 
O 98 12 0 
6
Atoms. Timestep: 3285
N 53 19 0 
N 96 85 0 
N 94 74 0 
N 35 64 0 
N 75 71 0 
O 99 12 0 
6
Atoms. Timestep: 3286
N 54 19 0 
N 97 85 0 
N 95 74 0 
N 36 64 0 
N 76 71 0 
O 0 12 0 
6
Atoms. Timestep: 3287
N 54 20 0 
N 98 85 0 
N 96 74 0 
N 37 64 0 
N 77 71 0 
O 1 12 0 
6
Atoms. Timestep: 3288
N 54 19 0 
N 99 85 0 
N 97 74 0 
N 38 64 0 
N 78 71 0 
O 2 12 0 
6
Atoms. Timestep: 3289
N 53 19 0 
N 0 85 0 
N 98 74 0 
N 38 65 0 
N 79 71 0 
O 3 12 0 
6
Atoms. Timestep: 3290
N 53 20 0 
N 1 85 0 
N 99 74 0 
N 39 65 0 
N 80 71 0 
O 4 12 0 
6
Atoms. Timestep: 3291
N 52 20 0 
N 2 85 0 
N 0 74 0 
N 40 65 0 
N 81 71 0 
O 5 12 0 
6
Atoms. Timestep: 3292
N 52 19 0 
N 3 85 0 
N 1 74 0 
N 39 65 0 
N 82 71 0 
O 6 12 0 
6
Atoms. Timestep: 3293
N 53 19 0 
N 4 85 0 
N 2 74 0 
N 40 65 0 
N 82 70 0 
O 7 12 0 
6
Atoms. Timestep: 3294
N 52 19 0 
N 5 85 0 
N 3 74 0 
N 41 65 0 
N 83 70 0 
O 8 12 0 
6
Atoms. Timestep: 3295
N 52 18 0 
N 6 85 0 
N 4 74 0 
N 40 65 0 
N 84 70 0 
O 9 12 0 
6
Atoms. Timestep: 3296
N 53 18 0 
N 7 85 0 
N 5 74 0 
N 41 65 0 
N 85 70 0 
O 10 12 0 
6
Atoms. Timestep: 3297
N 54 18 0 
N 7 86 0 
N 6 74 0 
N 42 65 0 
N 86 70 0 
O 11 12 0 
6
Atoms. Timestep: 3298
N 55 18 0 
N 8 86 0 
N 7 74 0 
N 43 65 0 
N 87 70 0 
O 12 12 0 
6
Atoms. Timestep: 3299
N 55 19 0 
N 9 86 0 
N 8 74 0 
N 44 65 0 
N 88 70 0 
O 13 12 0 
6
Atoms. Timestep: 3300
N 54 19 0 
N 10 86 0 
N 9 74 0 
N 45 65 0 
N 89 70 0 
O 14 12 0 
6
Atoms. Timestep: 3301
N 54 20 0 
N 11 86 0 
N 10 74 0 
N 46 65 0 
N 90 70 0 
O 15 12 0 
6
Atoms. Timestep: 3302
N 54 21 0 
N 12 86 0 
N 11 74 0 
N 47 65 0 
N 91 70 0 
O 16 12 0 
6
Atoms. Timestep: 3303
N 54 22 0 
N 13 86 0 
N 11 75 0 
N 48 65 0 
N 92 70 0 
O 17 12 0 
6
Atoms. Timestep: 3304
N 54 23 0 
N 14 86 0 
N 12 75 0 
N 49 65 0 
N 93 70 0 
O 18 12 0 
6
Atoms. Timestep: 3305
N 53 23 0 
N 15 86 0 
N 13 75 0 
N 50 65 0 
N 94 70 0 
O 19 12 0 
6
Atoms. Timestep: 3306
N 53 22 0 
N 16 86 0 
N 14 75 0 
N 51 65 0 
N 95 70 0 
O 20 12 0 
6
Atoms. Timestep: 3307
N 52 22 0 
N 17 86 0 
N 15 75 0 
N 52 65 0 
N 96 70 0 
O 21 12 0 
6
Atoms. Timestep: 3308
N 53 22 0 
N 18 86 0 
N 16 75 0 
N 53 65 0 
N 97 70 0 
O 22 12 0 
6
Atoms. Timestep: 3309
N 53 21 0 
N 19 86 0 
N 17 75 0 
N 54 65 0 
N 98 70 0 
O 23 12 0 
6
Atoms. Timestep: 3310
N 53 22 0 
N 20 86 0 
N 18 75 0 
N 55 65 0 
N 99 70 0 
O 24 12 0 
6
Atoms. Timestep: 3311
N 53 21 0 
N 21 86 0 
N 19 75 0 
N 56 65 0 
N 0 70 0 
O 25 12 0 
6
Atoms. Timestep: 3312
N 52 21 0 
N 22 86 0 
N 20 75 0 
N 57 65 0 
N 1 70 0 
O 26 12 0 
6
Atoms. Timestep: 3313
N 52 20 0 
N 23 86 0 
N 21 75 0 
N 58 65 0 
N 2 70 0 
O 27 12 0 
6
Atoms. Timestep: 3314
N 51 20 0 
N 24 86 0 
N 22 75 0 
N 59 65 0 
N 3 70 0 
O 28 12 0 
6
Atoms. Timestep: 3315
N 52 20 0 
N 25 86 0 
N 23 75 0 
N 60 65 0 
N 4 70 0 
O 29 12 0 
6
Atoms. Timestep: 3316
N 52 19 0 
N 26 86 0 
N 24 75 0 
N 61 65 0 
N 5 70 0 
O 30 12 0 
6
Atoms. Timestep: 3317
N 52 20 0 
N 27 86 0 
N 25 75 0 
N 62 65 0 
N 5 69 0 
O 31 12 0 
6
Atoms. Timestep: 3318
N 52 19 0 
N 28 86 0 
N 26 75 0 
N 63 65 0 
N 6 69 0 
O 32 12 0 
6
Atoms. Timestep: 3319
N 51 19 0 
N 29 86 0 
N 27 75 0 
N 64 65 0 
N 7 69 0 
O 33 12 0 
6
Atoms. Timestep: 3320
N 50 19 0 
N 30 86 0 
N 28 75 0 
N 65 65 0 
N 8 69 0 
O 34 12 0 
6
Atoms. Timestep: 3321
N 49 19 0 
N 31 86 0 
N 27 75 0 
N 66 65 0 
N 9 69 0 
O 35 12 0 
6
Atoms. Timestep: 3322
N 50 19 0 
N 32 86 0 
N 28 75 0 
N 67 65 0 
N 10 69 0 
O 36 12 0 
6
Atoms. Timestep: 3323
N 49 19 0 
N 33 86 0 
N 29 75 0 
N 68 65 0 
N 11 69 0 
O 37 12 0 
6
Atoms. Timestep: 3324
N 48 19 0 
N 34 86 0 
N 30 75 0 
N 69 65 0 
N 12 69 0 
O 38 12 0 
6
Atoms. Timestep: 3325
N 47 19 0 
N 35 86 0 
N 31 75 0 
N 70 65 0 
N 13 69 0 
O 39 12 0 
6
Atoms. Timestep: 3326
N 47 20 0 
N 36 86 0 
N 32 75 0 
N 71 65 0 
N 14 69 0 
O 40 12 0 
6
Atoms. Timestep: 3327
N 48 20 0 
N 37 86 0 
N 33 75 0 
N 72 65 0 
N 15 69 0 
O 41 12 0 
6
Atoms. Timestep: 3328
N 47 20 0 
N 38 86 0 
N 34 75 0 
N 73 65 0 
N 16 69 0 
O 42 12 0 
6
Atoms. Timestep: 3329
N 48 20 0 
N 39 86 0 
N 35 75 0 
N 74 65 0 
N 17 69 0 
O 43 12 0 
6
Atoms. Timestep: 3330
N 48 21 0 
N 40 86 0 
N 36 75 0 
N 75 65 0 
N 18 69 0 
O 44 12 0 
6
Atoms. Timestep: 3331
N 48 20 0 
N 41 86 0 
N 36 76 0 
N 76 65 0 
N 19 69 0 
O 45 12 0 
6
Atoms. Timestep: 3332
N 48 19 0 
N 42 86 0 
N 37 76 0 
N 77 65 0 
N 20 69 0 
O 46 12 0 
6
Atoms. Timestep: 3333
N 48 20 0 
N 43 86 0 
N 38 76 0 
N 78 65 0 
N 21 69 0 
O 47 12 0 
6
Atoms. Timestep: 3334
N 48 19 0 
N 44 86 0 
N 39 76 0 
N 79 65 0 
N 22 69 0 
O 48 12 0 
6
Atoms. Timestep: 3335
N 47 19 0 
N 45 86 0 
N 40 76 0 
N 80 65 0 
N 23 69 0 
O 49 12 0 
6
Atoms. Timestep: 3336
N 47 18 0 
N 45 87 0 
N 41 76 0 
N 81 65 0 
N 24 69 0 
O 50 12 0 
6
Atoms. Timestep: 3337
N 46 18 0 
N 46 87 0 
N 42 76 0 
N 82 65 0 
N 25 69 0 
O 51 12 0 
6
Atoms. Timestep: 3338
N 45 18 0 
N 47 87 0 
N 43 76 0 
N 83 65 0 
N 26 69 0 
O 52 12 0 
6
Atoms. Timestep: 3339
N 44 18 0 
N 48 87 0 
N 42 76 0 
N 84 65 0 
N 27 69 0 
O 53 12 0 
6
Atoms. Timestep: 3340
N 44 19 0 
N 49 87 0 
N 43 76 0 
N 85 65 0 
N 28 69 0 
O 54 12 0 
6
Atoms. Timestep: 3341
N 45 19 0 
N 49 88 0 
N 44 76 0 
N 86 65 0 
N 29 69 0 
O 55 12 0 
6
Atoms. Timestep: 3342
N 46 19 0 
N 50 88 0 
N 45 76 0 
N 87 65 0 
N 30 69 0 
O 56 12 0 
6
Atoms. Timestep: 3343
N 47 19 0 
N 51 88 0 
N 46 76 0 
N 88 65 0 
N 31 69 0 
O 57 12 0 
6
Atoms. Timestep: 3344
N 47 18 0 
N 52 88 0 
N 47 76 0 
N 89 65 0 
N 32 69 0 
O 58 12 0 
6
Atoms. Timestep: 3345
N 46 18 0 
N 53 88 0 
N 48 76 0 
N 90 65 0 
N 33 69 0 
O 59 12 0 
6
Atoms. Timestep: 3346
N 46 19 0 
N 54 88 0 
N 49 76 0 
N 91 65 0 
N 34 69 0 
O 60 12 0 
6
Atoms. Timestep: 3347
N 46 20 0 
N 55 88 0 
N 50 76 0 
N 92 65 0 
N 35 69 0 
O 61 12 0 
6
Atoms. Timestep: 3348
N 46 19 0 
N 56 88 0 
N 51 76 0 
N 93 65 0 
N 36 69 0 
O 62 12 0 
6
Atoms. Timestep: 3349
N 46 20 0 
N 57 88 0 
N 52 76 0 
N 94 65 0 
N 37 69 0 
O 63 12 0 
6
Atoms. Timestep: 3350
N 47 20 0 
N 58 88 0 
N 53 76 0 
N 95 65 0 
N 38 69 0 
O 64 12 0 
6
Atoms. Timestep: 3351
N 48 20 0 
N 59 88 0 
N 54 76 0 
N 96 65 0 
N 39 69 0 
O 65 12 0 
6
Atoms. Timestep: 3352
N 47 20 0 
N 60 88 0 
N 55 76 0 
N 97 65 0 
N 40 69 0 
O 66 12 0 
6
Atoms. Timestep: 3353
N 46 20 0 
N 61 88 0 
N 56 76 0 
N 98 65 0 
N 41 69 0 
O 67 12 0 
6
Atoms. Timestep: 3354
N 46 21 0 
N 62 88 0 
N 57 76 0 
N 99 65 0 
N 42 69 0 
O 68 12 0 
6
Atoms. Timestep: 3355
N 46 22 0 
N 63 88 0 
N 57 75 0 
N 0 65 0 
N 43 69 0 
O 69 12 0 
6
Atoms. Timestep: 3356
N 47 22 0 
N 64 88 0 
N 58 75 0 
N 1 65 0 
N 44 69 0 
O 70 12 0 
6
Atoms. Timestep: 3357
N 47 21 0 
N 65 88 0 
N 59 75 0 
N 2 65 0 
N 45 69 0 
O 71 12 0 
6
Atoms. Timestep: 3358
N 47 22 0 
N 66 88 0 
N 60 75 0 
N 3 65 0 
N 46 69 0 
O 72 12 0 
6
Atoms. Timestep: 3359
N 47 21 0 
N 67 88 0 
N 61 75 0 
N 4 65 0 
N 47 69 0 
O 73 12 0 
6
Atoms. Timestep: 3360
N 48 21 0 
N 68 88 0 
N 62 75 0 
N 5 65 0 
N 48 69 0 
O 74 12 0 
6
Atoms. Timestep: 3361
N 49 21 0 
N 69 88 0 
N 63 75 0 
N 6 65 0 
N 49 69 0 
O 75 12 0 
6
Atoms. Timestep: 3362
N 48 21 0 
N 70 88 0 
N 64 75 0 
N 7 65 0 
N 50 69 0 
O 76 12 0 
6
Atoms. Timestep: 3363
N 49 21 0 
N 71 88 0 
N 65 75 0 
N 8 65 0 
N 51 69 0 
O 77 12 0 
6
Atoms. Timestep: 3364
N 49 20 0 
N 72 88 0 
N 66 75 0 
N 9 65 0 
N 52 69 0 
O 78 12 0 
6
Atoms. Timestep: 3365
N 49 19 0 
N 73 88 0 
N 67 75 0 
N 10 65 0 
N 53 69 0 
O 79 12 0 
6
Atoms. Timestep: 3366
N 49 18 0 
N 74 88 0 
N 67 74 0 
N 11 65 0 
N 54 69 0 
O 80 12 0 
6
Atoms. Timestep: 3367
N 48 18 0 
N 75 88 0 
N 68 74 0 
N 12 65 0 
N 55 69 0 
O 81 12 0 
6
Atoms. Timestep: 3368
N 47 18 0 
N 76 88 0 
N 69 74 0 
N 13 65 0 
N 56 69 0 
O 82 12 0 
6
Atoms. Timestep: 3369
N 47 17 0 
N 77 88 0 
N 70 74 0 
N 14 65 0 
N 57 69 0 
O 83 12 0 
6
Atoms. Timestep: 3370
N 47 16 0 
N 78 88 0 
N 71 74 0 
N 15 65 0 
N 58 69 0 
O 84 12 0 
6
Atoms. Timestep: 3371
N 48 16 0 
N 79 88 0 
N 72 74 0 
N 16 65 0 
N 59 69 0 
O 85 12 0 
6
Atoms. Timestep: 3372
N 48 17 0 
N 80 88 0 
N 73 74 0 
N 17 65 0 
N 60 69 0 
O 86 12 0 
6
Atoms. Timestep: 3373
N 48 16 0 
N 81 88 0 
N 74 74 0 
N 18 65 0 
N 61 69 0 
O 87 12 0 
6
Atoms. Timestep: 3374
N 48 17 0 
N 82 88 0 
N 75 74 0 
N 19 65 0 
N 62 69 0 
O 88 12 0 
6
Atoms. Timestep: 3375
N 47 17 0 
N 83 88 0 
N 76 74 0 
N 20 65 0 
N 61 69 0 
O 89 12 0 
6
Atoms. Timestep: 3376
N 48 17 0 
N 84 88 0 
N 77 74 0 
N 21 65 0 
N 62 69 0 
O 90 12 0 
6
Atoms. Timestep: 3377
N 47 17 0 
N 85 88 0 
N 78 74 0 
N 22 65 0 
N 63 69 0 
O 91 12 0 
6
Atoms. Timestep: 3378
N 47 16 0 
N 86 88 0 
N 79 74 0 
N 23 65 0 
N 64 69 0 
O 92 12 0 
6
Atoms. Timestep: 3379
N 46 16 0 
N 87 88 0 
N 80 74 0 
N 24 65 0 
N 65 69 0 
O 93 12 0 
6
Atoms. Timestep: 3380
N 46 17 0 
N 88 88 0 
N 81 74 0 
N 24 66 0 
N 66 69 0 
O 94 12 0 
6
Atoms. Timestep: 3381
N 46 18 0 
N 89 88 0 
N 82 74 0 
N 25 66 0 
N 67 69 0 
O 95 12 0 
6
Atoms. Timestep: 3382
N 47 18 0 
N 90 88 0 
N 83 74 0 
N 26 66 0 
N 68 69 0 
O 96 12 0 
6
Atoms. Timestep: 3383
N 46 18 0 
N 91 88 0 
N 84 74 0 
N 27 66 0 
N 69 69 0 
O 97 12 0 
6
Atoms. Timestep: 3384
N 46 17 0 
N 92 88 0 
N 85 74 0 
N 28 66 0 
N 70 69 0 
O 98 12 0 
6
Atoms. Timestep: 3385
N 45 17 0 
N 93 88 0 
N 86 74 0 
N 29 66 0 
N 71 69 0 
O 99 12 0 
6
Atoms. Timestep: 3386
N 44 17 0 
N 94 88 0 
N 87 74 0 
N 30 66 0 
N 72 69 0 
O 0 12 0 
6
Atoms. Timestep: 3387
N 45 17 0 
N 95 88 0 
N 88 74 0 
N 31 66 0 
N 73 69 0 
O 1 12 0 
6
Atoms. Timestep: 3388
N 44 17 0 
N 96 88 0 
N 89 74 0 
N 32 66 0 
N 74 69 0 
O 2 12 0 
6
Atoms. Timestep: 3389
N 43 17 0 
N 97 88 0 
N 88 74 0 
N 33 66 0 
N 75 69 0 
O 3 12 0 
6
Atoms. Timestep: 3390
N 43 16 0 
N 98 88 0 
N 89 74 0 
N 34 66 0 
N 76 69 0 
O 4 12 0 
6
Atoms. Timestep: 3391
N 44 16 0 
N 99 88 0 
N 90 74 0 
N 35 66 0 
N 77 69 0 
O 5 12 0 
6
Atoms. Timestep: 3392
N 45 16 0 
N 0 88 0 
N 91 74 0 
N 36 66 0 
N 78 69 0 
O 6 12 0 
6
Atoms. Timestep: 3393
N 46 16 0 
N 1 88 0 
N 92 74 0 
N 37 66 0 
N 79 69 0 
O 7 12 0 
6
Atoms. Timestep: 3394
N 46 15 0 
N 2 88 0 
N 93 74 0 
N 38 66 0 
N 80 69 0 
O 8 12 0 
6
Atoms. Timestep: 3395
N 46 16 0 
N 3 88 0 
N 94 74 0 
N 39 66 0 
N 81 69 0 
O 9 12 0 
6
Atoms. Timestep: 3396
N 47 16 0 
N 4 88 0 
N 95 74 0 
N 40 66 0 
N 82 69 0 
O 10 12 0 
6
Atoms. Timestep: 3397
N 47 15 0 
N 5 88 0 
N 96 74 0 
N 41 66 0 
N 83 69 0 
O 11 12 0 
6
Atoms. Timestep: 3398
N 47 14 0 
N 6 88 0 
N 97 74 0 
N 42 66 0 
N 84 69 0 
O 12 12 0 
6
Atoms. Timestep: 3399
N 47 13 0 
N 7 88 0 
N 98 74 0 
N 43 66 0 
N 85 69 0 
O 13 12 0 
6
Atoms. Timestep: 3400
N 47 14 0 
N 8 88 0 
N 99 74 0 
N 44 66 0 
N 86 69 0 
O 14 12 0 
6
Atoms. Timestep: 3401
N 46 14 0 
N 9 88 0 
N 0 74 0 
N 45 66 0 
N 86 70 0 
O 15 12 0 
6
Atoms. Timestep: 3402
N 47 14 0 
N 8 88 0 
N 1 74 0 
N 46 66 0 
N 87 70 0 
O 16 12 0 
6
Atoms. Timestep: 3403
N 47 13 0 
N 9 88 0 
N 2 74 0 
N 47 66 0 
N 88 70 0 
O 17 12 0 
6
Atoms. Timestep: 3404
N 48 13 0 
N 10 88 0 
N 3 74 0 
N 48 66 0 
N 89 70 0 
O 18 12 0 
6
Atoms. Timestep: 3405
N 47 13 0 
N 11 88 0 
N 4 74 0 
N 49 66 0 
N 90 70 0 
O 19 12 0 
6
Atoms. Timestep: 3406
N 47 14 0 
N 12 88 0 
N 5 74 0 
N 50 66 0 
N 91 70 0 
O 20 12 0 
6
Atoms. Timestep: 3407
N 47 13 0 
N 13 88 0 
N 6 74 0 
N 51 66 0 
N 92 70 0 
O 21 12 0 
6
Atoms. Timestep: 3408
N 47 12 0 
N 14 88 0 
N 7 74 0 
N 52 66 0 
N 93 70 0 
O 22 12 0 
6
Atoms. Timestep: 3409
N 46 12 0 
N 15 88 0 
N 8 74 0 
N 53 66 0 
N 94 70 0 
O 23 12 0 
6
Atoms. Timestep: 3410
N 47 12 0 
N 16 88 0 
N 9 74 0 
N 54 66 0 
N 95 70 0 
O 24 12 0 
6
Atoms. Timestep: 3411
N 46 12 0 
N 17 88 0 
N 10 74 0 
N 55 66 0 
N 96 70 0 
O 25 12 0 
6
Atoms. Timestep: 3412
N 45 12 0 
N 18 88 0 
N 11 74 0 
N 56 66 0 
N 97 70 0 
O 26 12 0 
6
Atoms. Timestep: 3413
N 45 11 0 
N 19 88 0 
N 12 74 0 
N 57 66 0 
N 98 70 0 
O 27 12 0 
6
Atoms. Timestep: 3414
N 45 10 0 
N 20 88 0 
N 13 74 0 
N 58 66 0 
N 99 70 0 
O 28 12 0 
6
Atoms. Timestep: 3415
N 45 11 0 
N 21 88 0 
N 14 74 0 
N 59 66 0 
N 0 70 0 
O 29 12 0 
6
Atoms. Timestep: 3416
N 46 11 0 
N 22 88 0 
N 15 74 0 
N 60 66 0 
N 1 70 0 
O 30 12 0 
6
Atoms. Timestep: 3417
N 46 10 0 
N 23 88 0 
N 16 74 0 
N 61 66 0 
N 2 70 0 
O 31 12 0 
6
Atoms. Timestep: 3418
N 47 10 0 
N 24 88 0 
N 17 74 0 
N 62 66 0 
N 3 70 0 
O 32 12 0 
6
Atoms. Timestep: 3419
N 46 10 0 
N 25 88 0 
N 18 74 0 
N 63 66 0 
N 4 70 0 
O 33 12 0 
6
Atoms. Timestep: 3420
N 46 11 0 
N 26 88 0 
N 19 74 0 
N 64 66 0 
N 5 70 0 
O 34 12 0 
6
Atoms. Timestep: 3421
N 46 12 0 
N 27 88 0 
N 20 74 0 
N 65 66 0 
N 5 71 0 
O 35 12 0 
6
Atoms. Timestep: 3422
N 45 12 0 
N 28 88 0 
N 21 74 0 
N 66 66 0 
N 6 71 0 
O 36 12 0 
6
Atoms. Timestep: 3423
N 46 12 0 
N 29 88 0 
N 22 74 0 
N 67 66 0 
N 7 71 0 
O 37 12 0 
6
Atoms. Timestep: 3424
N 46 11 0 
N 30 88 0 
N 22 75 0 
N 66 66 0 
N 8 71 0 
O 38 12 0 
6
Atoms. Timestep: 3425
N 45 11 0 
N 31 88 0 
N 23 75 0 
N 67 66 0 
N 9 71 0 
O 39 12 0 
6
Atoms. Timestep: 3426
N 45 12 0 
N 32 88 0 
N 24 75 0 
N 68 66 0 
N 10 71 0 
O 40 12 0 
6
Atoms. Timestep: 3427
N 45 13 0 
N 32 87 0 
N 25 75 0 
N 69 66 0 
N 11 71 0 
O 41 12 0 
6
Atoms. Timestep: 3428
N 44 13 0 
N 33 87 0 
N 26 75 0 
N 70 66 0 
N 12 71 0 
O 42 12 0 
6
Atoms. Timestep: 3429
N 44 14 0 
N 34 87 0 
N 27 75 0 
N 71 66 0 
N 11 71 0 
O 43 12 0 
6
Atoms. Timestep: 3430
N 44 13 0 
N 35 87 0 
N 28 75 0 
N 72 66 0 
N 12 71 0 
O 44 12 0 
5
Atoms. Timestep: 3431
N 44 12 0 
N 36 87 0 
N 29 75 0 
N 73 66 0 
N 12 70 0 
