1375
Atoms. Timestep: 1
N 6 25 0 
N 76 62 0 
N 82 56 0 
N 12 21 0 
N 16 16 0 
N 20 28 0 
N 8 8 0 
N 12 93 0 
N 4 10 0 
N 20 49 0 
N 64 34 0 
N 35 76 0 
N 26 30 0 
N 80 33 0 
N 53 72 0 
N 32 36 0 
N 22 69 0 
N 62 38 0 
N 23 73 0 
N 44 79 0 
N 95 5 0 
N 98 40 0 
N 26 26 0 
N 82 28 0 
N 15 28 0 
N 34 76 0 
N 25 30 0 
N 2 31 0 
N 35 52 0 
N 72 70 0 
N 1 56 0 
N 13 61 0 
N 84 29 0 
N 49 9 0 
N 38 43 0 
N 95 92 0 
N 68 37 0 
N 71 10 0 
N 1 48 0 
N 84 65 0 
N 52 53 0 
N 50 33 0 
N 42 82 0 
N 61 54 0 
N 48 86 0 
N 24 8 0 
N 82 89 0 
N 15 99 0 
N 31 99 0 
N 95 66 0 
N 38 5 0 
N 60 92 0 
N 17 80 0 
N 59 49 0 
N 90 51 0 
N 4 61 0 
N 47 56 0 
N 14 11 0 
N 92 22 0 
N 43 69 0 
N 75 39 0 
N 1 46 0 
N 37 42 0 
N 61 77 0 
N 5 62 0 
N 3 11 0 
N 28 97 0 
N 81 78 0 
N 33 39 0 
N 76 54 0 
N 71 78 0 
N 24 80 0 
N 62 72 0 
N 69 54 0 
N 90 36 0 
N 14 47 0 
N 26 88 0 
N 4 95 0 
N 40 3 0 
N 82 45 0 
N 35 36 0 
N 4 53 0 
N 79 72 0 
N 73 27 0 
N 8 80 0 
N 21 17 0 
N 55 75 0 
N 47 28 0 
N 29 87 0 
N 8 40 0 
N 47 24 0 
N 97 85 0 
N 68 16 0 
N 10 44 0 
N 81 6 0 
N 78 68 0 
N 47 11 0 
N 72 17 0 
N 1 76 0 
N 0 35 0 
N 59 2 0 
N 54 22 0 
N 0 31 0 
N 34 83 0 
N 20 72 0 
N 37 51 0 
N 39 77 0 
N 86 38 0 
N 12 51 0 
N 79 15 0 
N 5 71 0 
N 63 63 0 
N 75 32 0 
N 22 20 0 
N 51 90 0 
N 71 32 0 
N 92 81 0 
N 52 89 0 
N 67 50 0 
N 89 16 0 
N 39 63 0 
N 18 42 0 
N 70 37 0 
N 8 60 0 
N 93 43 0 
N 4 33 0 
N 78 53 0 
N 15 12 0 
N 15 56 0 
N 62 68 0 
N 56 40 0 
N 25 81 0 
N 77 5 0 
N 67 74 0 
N 89 22 0 
N 69 39 0 
N 89 44 0 
N 15 45 0 
N 50 81 0 
N 68 98 0 
N 33 70 0 
N 64 62 0 
N 43 10 0 
N 29 98 0 
N 61 11 0 
N 74 27 0 
N 13 92 0 
N 12 92 0 
N 72 52 0 
N 23 71 0 
N 92 44 0 
N 82 93 0 
N 0 85 0 
N 52 61 0 
N 11 63 0 
N 38 51 0 
N 20 47 0 
N 7 75 0 
N 7 10 0 
N 52 25 0 
N 66 86 0 
N 26 94 0 
N 18 29 0 
N 90 20 0 
N 95 69 0 
N 29 75 0 
N 26 41 0 
N 13 34 0 
N 69 5 0 
N 14 28 0 
N 84 38 0 
N 52 46 0 
N 10 72 0 
N 89 34 0 
N 23 17 0 
N 41 17 0 
N 81 93 0 
N 42 90 0 
N 12 56 0 
N 49 95 0 
N 96 72 0 
N 1 35 0 
N 18 34 0 
N 28 24 0 
N 81 27 0 
N 89 5 0 
N 98 99 0 
N 15 83 0 
N 25 34 0 
N 62 28 0 
N 97 54 0 
N 76 34 0 
N 19 80 0 
N 12 71 0 
N 17 29 0 
N 33 30 0 
N 79 4 0 
N 97 65 0 
N 63 16 0 
N 23 3 0 
N 88 62 0 
N 57 14 0 
N 31 96 0 
N 59 25 0 
N 89 17 0 
N 97 98 0 
N 96 96 0 
N 20 84 0 
N 68 6 0 
N 2 35 0 
N 4 57 0 
N 79 58 0 
N 93 86 0 
N 34 88 0 
N 63 47 0 
N 72 47 0 
N 7 5 0 
N 63 42 0 
N 45 97 0 
N 29 36 0 
N 68 36 0 
N 84 56 0 
N 70 21 0 
N 97 74 0 
N 60 67 0 
N 16 77 0 
N 86 37 0 
N 31 87 0 
N 18 71 0 
N 84 70 0 
N 27 43 0 
N 86 42 0 
N 39 79 0 
N 75 88 0 
N 76 23 0 
N 81 19 0 
N 14 13 0 
N 7 49 0 
N 54 39 0 
N 60 39 0 
N 95 24 0 
N 16 36 0 
N 37 17 0 
N 87 46 0 
N 14 55 0 
N 95 1 0 
N 15 68 0 
N 86 62 0 
N 19 14 0 
N 43 72 0 
N 73 70 0 
N 79 69 0 
N 6 72 0 
N 67 54 0 
N 10 62 0 
N 38 97 0 
N 7 12 0 
N 45 19 0 
N 61 56 0 
N 33 23 0 
N 89 3 0 
N 51 48 0 
N 77 80 0 
N 87 96 0 
N 64 28 0 
N 9 94 0 
N 84 82 0 
N 80 72 0 
N 5 46 0 
N 53 69 0 
N 54 26 0 
N 65 37 0 
N 77 45 0 
N 92 1 0 
N 91 25 0 
N 28 29 0 
N 25 6 0 
N 52 4 0 
N 94 78 0 
N 94 22 0 
N 64 24 0 
N 80 97 0 
N 9 98 0 
N 59 46 0 
N 22 86 0 
N 81 12 0 
N 18 1 0 
N 50 17 0 
N 32 38 0 
N 27 84 0 
N 50 30 0 
N 11 56 0 
N 99 50 0 
N 50 84 0 
N 77 16 0 
N 4 98 0 
N 61 58 0 
N 61 79 0 
N 30 60 0 
N 84 13 0 
N 39 18 0 
N 64 74 0 
N 59 91 0 
N 85 52 0 
N 20 90 0 
N 40 2 0 
N 13 48 0 
N 15 84 0 
N 50 3 0 
N 51 98 0 
N 37 72 0 
N 60 19 0 
N 43 28 0 
N 87 16 0 
N 14 48 0 
N 30 79 0 
N 59 11 0 
N 42 39 0 
N 2 5 0 
N 85 77 0 
N 91 37 0 
N 57 34 0 
N 55 62 0 
N 28 54 0 
N 43 93 0 
N 99 46 0 
N 34 70 0 
N 49 37 0 
N 48 29 0 
N 42 22 0 
N 67 25 0 
N 40 77 0 
N 78 95 0 
N 48 74 0 
N 23 9 0 
N 79 1 0 
N 27 94 0 
N 55 34 0 
N 11 78 0 
N 81 87 0 
N 91 47 0 
N 25 97 0 
N 50 59 0 
N 23 29 0 
N 69 73 0 
N 33 38 0 
N 99 55 0 
N 51 56 0 
N 29 38 0 
N 18 15 0 
N 44 60 0 
N 61 25 0 
N 75 74 0 
N 48 79 0 
N 56 7 0 
N 94 41 0 
N 1 45 0 
N 70 44 0 
N 33 83 0 
N 73 36 0 
N 40 99 0 
N 61 67 0 
N 67 90 0 
N 46 49 0 
N 76 44 0 
N 3 7 0 
N 13 2 0 
N 64 78 0 
N 7 24 0 
N 11 52 0 
N 4 87 0 
N 92 69 0 
N 33 35 0 
N 63 28 0 
N 41 68 0 
N 67 49 0 
N 24 55 0 
N 52 28 0 
N 22 43 0 
N 58 98 0 
N 94 39 0 
N 54 96 0 
N 40 62 0 
N 33 25 0 
N 47 52 0 
N 59 21 0 
N 19 2 0 
N 90 72 0 
N 37 36 0 
N 20 12 0 
N 34 4 0 
N 80 6 0 
N 41 40 0 
N 49 43 0 
N 7 37 0 
N 77 82 0 
N 38 25 0 
N 95 75 0 
N 5 51 0 
N 52 11 0 
N 80 30 0 
N 6 13 0 
N 81 77 0 
N 51 64 0 
N 57 9 0 
N 46 22 0 
N 57 74 0 
N 93 72 0 
N 30 23 0 
N 42 56 0 
N 77 64 0 
N 78 55 0 
N 76 41 0 
N 85 60 0 
N 80 74 0 
N 41 84 0 
N 97 42 0 
N 63 23 0 
N 40 19 0 
N 8 59 0 
N 3 48 0 
N 17 60 0 
N 32 49 0 
N 57 49 0 
N 43 16 0 
N 77 25 0 
N 80 58 0 
N 57 99 0 
N 70 25 0 
N 87 40 0 
N 67 28 0 
N 29 96 0 
N 8 56 0 
N 52 20 0 
N 4 35 0 
N 56 45 0 
N 13 42 0 
N 3 27 0 
N 28 45 0 
N 96 75 0 
N 30 93 0 
N 86 29 0 
N 95 10 0 
N 0 41 0 
N 63 20 0 
N 33 14 0 
N 45 91 0 
N 57 55 0 
N 73 11 0 
N 71 34 0 
N 38 26 0 
N 70 85 0 
N 22 39 0 
N 22 48 0 
N 83 14 0 
N 12 15 0 
N 58 58 0 
N 86 10 0 
N 24 4 0 
N 35 16 0 
N 78 28 0 
N 6 95 0 
N 23 55 0 
N 64 56 0 
N 45 51 0 
N 5 93 0 
N 93 98 0 
N 54 25 0 
N 19 66 0 
N 68 89 0 
N 91 57 0 
N 54 43 0 
N 23 75 0 
N 24 49 0 
N 72 10 0 
N 64 70 0 
N 93 74 0 
N 69 50 0 
N 38 7 0 
N 68 42 0 
N 29 51 0 
N 55 71 0 
N 6 56 0 
N 81 61 0 
N 45 71 0 
N 4 80 0 
N 27 59 0 
N 78 56 0 
N 20 14 0 
N 55 55 0 
N 43 23 0 
N 98 20 0 
N 64 35 0 
N 21 31 0 
N 7 68 0 
N 69 8 0 
N 55 90 0 
N 7 56 0 
N 97 3 0 
N 72 74 0 
C 0 0 0 
C 25 0 0 
C 50 0 0 
C 75 0 0 
C 100 0 0 
C 0 25 0 
C 25 25 0 
C 50 25 0 
C 75 25 0 
C 100 25 0 
C 0 50 0 
C 25 50 0 
C 50 50 0 
C 75 50 0 
C 100 50 0 
C 0 75 0 
C 25 75 0 
C 50 75 0 
C 75 75 0 
C 100 75 0 
C 0 100 0 
C 25 100 0 
C 50 100 0 
C 75 100 0 
C 100 100 0 
O 23 53 0 
O 40 35 0 
O 24 16 0 
O 91 22 0 
O 18 95 0 
O 65 11 0 
O 55 98 0 
O 52 78 0 
O 41 61 0 
O 14 34 0 
O 5 20 0 
O 17 28 0 
O 38 13 0 
O 76 66 0 
O 68 55 0 
O 22 56 0 
O 95 98 0 
O 94 90 0 
O 37 82 0 
O 99 20 0 
O 87 44 0 
O 9 60 0 
O 52 99 0 
O 97 48 0 
O 62 62 0 
O 19 98 0 
O 83 51 0 
O 68 91 0 
O 20 34 0 
O 40 68 0 
O 43 66 0 
O 83 27 0 
O 71 92 0 
O 84 31 0 
O 80 76 0 
O 87 58 0 
O 50 20 0 
O 53 40 0 
O 51 4 0 
O 32 74 0 
O 73 23 0 
O 79 38 0 
O 95 29 0 
O 97 96 0 
O 56 61 0 
O 19 63 0 
O 97 67 0 
O 65 42 0 
O 38 40 0 
O 59 95 0 
O 74 10 0 
O 25 10 0 
O 72 62 0 
O 55 80 0 
O 87 66 0 
O 84 75 0 
O 0 83 0 
O 45 13 0 
O 59 72 0 
O 39 91 0 
O 76 33 0 
O 47 43 0 
O 11 9 0 
O 21 22 0 
O 87 77 0 
O 41 27 0 
O 64 47 0 
O 26 32 0 
O 15 20 0 
O 33 32 0 
O 20 89 0 
O 24 38 0 
O 25 67 0 
O 22 71 0 
O 55 41 0 
O 69 90 0 
O 65 58 0 
O 25 89 0 
O 23 60 0 
O 21 23 0 
O 84 12 0 
O 69 14 0 
O 47 66 0 
O 82 10 0 
O 67 83 0 
O 90 58 0 
O 70 17 0 
O 95 6 0 
O 18 26 0 
O 58 92 0 
O 58 56 0 
O 63 51 0 
O 38 99 0 
O 77 49 0 
O 55 8 0 
O 98 84 0 
O 16 93 0 
O 65 34 0 
O 32 59 0 
O 42 47 0 
O 73 25 0 
O 66 59 0 
O 14 98 0 
O 88 36 0 
O 47 35 0 
O 90 30 0 
O 5 68 0 
O 16 6 0 
O 30 73 0 
O 80 55 0 
O 31 75 0 
O 18 61 0 
O 41 37 0 
O 58 1 0 
O 35 65 0 
O 39 22 0 
O 10 46 0 
O 79 54 0 
O 70 97 0 
O 0 2 0 
O 64 1 0 
O 92 61 0 
O 51 52 0 
O 59 30 0 
O 4 83 0 
O 18 48 0 
O 29 78 0 
O 1 27 0 
O 76 63 0 
O 34 82 0 
O 30 28 0 
O 69 80 0 
O 47 47 0 
O 99 61 0 
O 66 96 0 
O 42 95 0 
O 13 22 0 
O 63 90 0 
O 48 37 0 
O 52 75 0 
O 30 46 0 
O 54 14 0 
O 47 34 0 
O 15 11 0 
O 69 56 0 
O 78 83 0 
O 31 30 0 
O 49 4 0 
O 23 80 0 
O 28 9 0 
O 11 15 0 
O 35 17 0 
O 10 53 0 
O 96 48 0 
O 61 88 0 
O 15 64 0 
O 66 85 0 
O 46 44 0 
O 51 12 0 
O 99 40 0 
O 62 22 0 
O 3 46 0 
O 61 52 0 
O 12 78 0 
O 64 53 0 
O 74 3 0 
O 81 90 0 
O 27 72 0 
O 80 22 0 
O 36 64 0 
O 32 62 0 
O 15 65 0 
O 70 15 0 
O 83 57 0 
O 2 71 0 
O 50 99 0 
O 3 9 0 
O 36 28 0 
O 58 53 0 
O 3 36 0 
O 5 32 0 
O 72 69 0 
O 35 51 0 
O 32 78 0 
O 20 69 0 
O 60 49 0 
O 8 20 0 
O 34 53 0 
O 22 54 0 
O 95 14 0 
O 58 33 0 
O 94 12 0 
O 87 48 0 
O 46 29 0 
O 87 27 0 
O 36 98 0 
O 60 44 0 
O 43 18 0 
O 32 90 0 
O 0 57 0 
O 46 10 0 
O 77 19 0 
O 50 68 0 
O 82 41 0 
O 67 52 0 
O 81 37 0 
O 82 58 0 
O 39 55 0 
O 35 22 0 
O 46 2 0 
O 9 23 0 
O 35 82 0 
O 10 95 0 
O 74 23 0 
O 1 8 0 
O 65 40 0 
O 29 7 0 
O 69 99 0 
O 36 56 0 
O 90 89 0 
O 9 71 0 
O 17 88 0 
O 50 18 0 
O 68 85 0 
O 13 80 0 
O 61 33 0 
O 46 74 0 
O 89 78 0 
O 93 58 0 
O 46 47 0 
O 84 86 0 
O 65 21 0 
O 5 2 0 
O 30 56 0 
O 87 69 0 
O 6 10 0 
O 7 25 0 
O 78 9 0 
O 68 4 0 
O 18 57 0 
O 29 8 0 
O 56 83 0 
O 86 80 0 
O 48 51 0 
O 99 12 0 
O 60 55 0 
O 69 51 0 
O 27 83 0 
O 2 13 0 
O 48 22 0 
O 87 24 0 
O 1 78 0 
O 77 29 0 
O 33 60 0 
O 56 53 0 
O 70 77 0 
O 89 32 0 
O 51 82 0 
O 44 4 0 
O 95 31 0 
O 23 20 0 
O 96 12 0 
O 76 69 0 
O 53 74 0 
O 31 70 0 
O 67 82 0 
O 25 12 0 
O 30 95 0 
O 10 27 0 
O 22 49 0 
O 6 38 0 
O 75 24 0 
O 37 88 0 
O 75 64 0 
O 56 54 0 
O 21 96 0 
O 13 36 0 
O 78 98 0 
O 60 12 0 
O 80 56 0 
O 40 80 0 
O 2 75 0 
O 76 96 0 
O 2 46 0 
O 86 4 0 
O 84 88 0 
O 33 19 0 
O 48 99 0 
O 65 63 0 
O 30 19 0 
O 7 26 0 
O 84 9 0 
O 21 93 0 
O 56 10 0 
O 59 68 0 
O 36 50 0 
O 84 16 0 
O 73 92 0 
O 93 21 0 
O 64 68 0 
O 89 15 0 
O 24 74 0 
O 93 28 0 
O 54 5 0 
O 77 78 0 
O 3 85 0 
O 78 54 0 
O 68 49 0 
O 22 95 0 
O 10 59 0 
O 35 12 0 
O 14 57 0 
O 24 31 0 
O 60 87 0 
O 7 3 0 
O 32 91 0 
O 53 44 0 
O 44 20 0 
O 85 29 0 
O 29 22 0 
O 38 59 0 
O 73 64 0 
O 15 4 0 
O 12 4 0 
O 54 80 0 
O 0 4 0 
O 44 65 0 
O 68 51 0 
O 95 76 0 
O 60 97 0 
O 46 42 0 
O 91 85 0 
O 81 92 0 
O 83 44 0 
O 54 88 0 
O 10 36 0 
O 77 2 0 
O 98 27 0 
O 95 80 0 
O 75 95 0 
O 27 56 0 
O 71 11 0 
O 87 37 0 
O 60 47 0 
O 58 68 0 
O 1 2 0 
O 7 1 0 
O 19 60 0 
O 15 86 0 
O 89 88 0 
O 65 85 0 
O 74 95 0 
O 15 26 0 
O 30 80 0 
O 40 83 0 
O 9 22 0 
O 37 98 0 
O 15 61 0 
O 63 9 0 
O 3 24 0 
O 94 73 0 
O 73 95 0 
O 37 11 0 
O 38 55 0 
O 31 31 0 
O 51 60 0 
O 27 68 0 
O 73 77 0 
O 28 48 0 
O 54 38 0 
O 28 74 0 
O 11 45 0 
O 60 22 0 
O 93 18 0 
O 70 6 0 
O 24 64 0 
O 69 86 0 
O 83 60 0 
O 68 60 0 
O 48 77 0 
O 95 21 0 
O 97 9 0 
O 47 86 0 
O 55 86 0 
O 84 81 0 
O 66 42 0 
O 37 12 0 
O 86 90 0 
O 18 46 0 
O 55 78 0 
O 49 46 0 
O 46 14 0 
O 17 43 0 
O 54 68 0 
O 76 46 0 
O 21 66 0 
O 9 15 0 
O 11 65 0 
O 36 6 0 
O 71 69 0 
O 88 12 0 
O 46 35 0 
O 93 82 0 
O 20 85 0 
O 39 0 0 
O 31 50 0 
O 79 40 0 
O 86 54 0 
O 23 84 0 
O 13 57 0 
O 19 4 0 
O 49 24 0 
O 29 21 0 
O 55 76 0 
O 21 5 0 
O 42 27 0 
O 5 85 0 
O 79 50 0 
O 45 64 0 
O 92 57 0 
O 82 1 0 
O 26 51 0 
O 52 14 0 
O 48 69 0 
O 51 6 0 
O 91 29 0 
O 46 72 0 
O 8 92 0 
O 12 77 0 
O 15 37 0 
O 34 89 0 
O 99 78 0 
O 86 91 0 
O 36 37 0 
O 17 7 0 
O 95 74 0 
O 75 35 0 
O 28 58 0 
O 65 38 0 
O 62 93 0 
O 65 88 0 
O 7 50 0 
O 35 13 0 
O 20 45 0 
O 70 46 0 
O 17 15 0 
O 18 12 0 
O 33 71 0 
O 34 74 0 
O 33 53 0 
O 34 41 0 
O 2 12 0 
O 94 5 0 
O 1 5 0 
O 28 37 0 
O 96 79 0 
O 75 98 0 
O 78 5 0 
O 28 56 0 
O 30 30 0 
O 36 76 0 
O 1 60 0 
O 96 26 0 
O 91 89 0 
O 62 85 0 
O 52 16 0 
O 48 71 0 
O 27 92 0 
O 53 59 0 
O 31 3 0 
O 77 9 0 
O 7 46 0 
O 51 58 0 
O 6 11 0 
O 7 22 0 
O 95 33 0 
O 46 4 0 
O 71 75 0 
O 25 24 0 
O 69 21 0 
O 59 39 0 
O 41 13 0 
O 76 91 0 
O 58 88 0 
O 66 15 0 
O 76 47 0 
O 84 67 0 
O 4 18 0 
O 97 30 0 
O 84 98 0 
O 75 1 0 
O 58 82 0 
O 27 23 0 
O 16 24 0 
O 64 87 0 
O 78 65 0 
O 24 13 0 
O 67 5 0 
O 85 20 0 
O 48 70 0 
O 5 81 0 
O 68 74 0 
O 55 67 0 
O 64 60 0 
O 30 91 0 
O 9 10 0 
O 6 90 0 
O 99 3 0 
O 59 3 0 
O 44 92 0 
O 33 11 0 
O 5 44 0 
O 26 60 0 
O 17 55 0 
O 3 16 0 
O 76 8 0 
O 41 60 0 
O 41 24 0 
O 94 32 0 
O 5 38 0 
O 39 19 0 
O 28 79 0 
O 58 75 0 
O 44 93 0 
O 54 56 0 
O 40 21 0 
O 43 60 0 
O 37 3 0 
O 9 3 0 
O 70 33 0 
O 57 58 0 
O 77 69 0 
O 17 94 0 
O 8 25 0 
O 17 5 0 
O 91 31 0 
O 92 76 0 
O 41 63 0 
O 20 99 0 
O 88 27 0 
O 97 57 0 
O 30 88 0 
O 2 16 0 
O 65 84 0 
O 56 98 0 
O 10 31 0 
O 15 73 0 
O 64 20 0 
O 14 20 0 
O 69 19 0 
O 71 58 0 
O 21 83 0 
O 36 84 0 
O 63 94 0 
O 62 15 0 
O 40 66 0 
O 70 62 0 
O 96 28 0 
O 4 37 0 
O 78 89 0 
O 24 63 0 
O 92 27 0 
O 78 6 0 
O 30 97 0 
O 86 3 0 
O 81 55 0 
O 75 19 0 
O 25 72 0 
O 32 83 0 
O 87 25 0 
O 28 50 0 
O 11 47 0 
O 85 6 0 
O 66 60 0 
O 11 66 0 
O 54 91 0 
O 90 26 0 
O 95 77 0 
O 3 87 0 
O 34 20 0 
O 24 53 0 
O 39 39 0 
O 41 65 0 
O 36 22 0 
O 99 18 0 
O 16 66 0 
O 81 82 0 
O 85 41 0 
O 45 93 0 
O 94 94 0 
O 0 61 0 
O 80 17 0 
O 30 39 0 
O 58 22 0 
O 71 88 0 
O 33 99 0 
O 63 3 0 
O 43 47 0 
O 71 53 0 
O 80 71 0 
O 13 63 0 
O 91 49 0 
O 1 19 0 
O 1 87 0 
O 94 51 0 
O 41 33 0 
O 11 98 0 
O 77 71 0 
O 85 32 0 
O 18 45 0 
O 34 13 0 
O 35 61 0 
O 19 27 0 
O 80 60 0 
O 72 50 0 
O 9 85 0 
O 76 2 0 
O 88 79 0 
O 66 19 0 
O 14 44 0 
O 79 11 0 
O 51 0 0 
O 91 13 0 
O 6 44 0 
O 59 86 0 
O 71 89 0 
O 0 49 0 
O 86 97 0 
O 1 44 0 
O 0 54 0 
O 17 56 0 
O 47 33 0 
O 48 82 0 
O 60 16 0 
O 76 82 0 
O 69 38 0 
O 24 22 0 
O 31 48 0 
O 57 79 0 
O 51 99 0 
O 47 72 0 
O 44 72 0 
O 13 82 0 
O 58 18 0 
O 57 13 0 
O 55 36 0 
O 62 9 0 
O 87 51 0 
O 5 41 0 
O 0 59 0 
O 37 6 0 
O 59 93 0 
O 5 75 0 
O 99 58 0 
O 30 34 0 
O 93 55 0 
O 70 16 0 
O 89 86 0 
O 38 93 0 
O 58 41 0 
O 61 73 0 
O 58 19 0 
O 23 24 0 
O 88 97 0 
O 26 48 0 
O 49 19 0 
O 3 51 0 
O 85 25 0 
O 26 42 0 
O 22 74 0 
O 38 74 0 
O 59 96 0 
O 9 99 0 
O 3 91 0 
O 71 1 0 
O 0 18 0 
O 13 33 0 
O 29 2 0 
O 36 65 0 
O 38 19 0 
O 29 17 0 
O 28 62 0 
O 67 81 0 
O 82 60 0 
O 11 84 0 
O 48 94 0 
O 1 99 0 
O 80 13 0 
O 4 14 0 
O 68 33 0 
O 71 5 0 
O 83 36 0 
O 87 94 0 
O 69 53 0 
O 16 18 0 
O 59 83 0 
O 20 16 0 
O 69 68 0 
O 41 72 0 
O 37 47 0 
O 76 87 0 
O 99 73 0 
O 98 97 0 
O 41 21 0 
O 33 45 0 
O 63 67 0 
O 80 32 0 
O 94 82 0 
O 96 34 0 
O 26 83 0 
O 57 83 0 
O 95 44 0 
O 25 54 0 
O 88 5 0 
O 88 15 0 
O 93 64 0 
O 5 70 0 
O 76 98 0 
O 96 25 0 
O 90 99 0 
O 15 23 0 
O 4 85 0 
O 47 36 0 
O 0 74 0 
O 42 58 0 
O 75 15 0 
O 6 42 0 
O 2 1 0 
O 65 83 0 
O 16 4 0 
O 4 94 0 
O 6 3 0 
O 36 77 0 
O 48 2 0 
O 28 32 0 
O 36 80 0 
O 12 42 0 
O 94 96 0 
O 37 24 0 
O 53 19 0 
O 82 34 0 
O 25 64 0 
O 0 29 0 
O 69 55 0 
O 89 26 0 
O 43 40 0 
O 30 50 0 
O 2 22 0 
O 19 71 0 
O 93 87 0 
O 72 25 0 
O 14 97 0 
O 66 29 0 
O 31 82 0 
O 36 73 0 
O 5 99 0 
O 98 30 0 
O 51 63 0 
O 96 62 0 
O 1 89 0 
O 84 99 0 
O 99 31 0 
O 22 47 0 
O 0 21 0 
O 83 1 0 
O 98 26 0 
O 77 32 0 
O 50 41 0 
O 28 18 0 
O 38 49 0 
O 73 18 0 
O 79 5 0 
O 9 39 0 
O 80 49 0 
O 35 71 0 
O 24 79 0 
O 4 92 0 
O 20 43 0 
O 19 75 0 
O 33 97 0 
O 39 60 0 
O 8 34 0 
O 43 61 0 
O 42 9 0 
O 49 3 0 
O 31 42 0 
O 68 41 0 
O 87 55 0 
O 48 55 0 
O 40 10 0 
O 77 84 0 
O 63 39 0 
O 81 59 0 
O 49 21 0 
O 70 92 0 
O 57 82 0 
O 63 77 0 
O 7 86 0 
O 84 61 0 
O 14 26 0 
O 69 46 0 
O 41 23 0 
O 62 10 0 
O 98 41 0 
O 78 47 0 
O 62 44 0 
O 89 28 0 
O 3 59 0 
O 6 15 0 
O 27 8 0 
O 69 29 0 
O 24 5 0 
O 25 18 0 
O 52 69 0 
O 99 90 0 
O 26 10 0 
O 26 67 0 
O 84 6 0 
O 54 0 0 
O 9 91 0 
O 62 64 0 
O 91 30 0 
O 44 33 0 
O 95 64 0 
O 74 5 0 
O 24 20 0 
O 1 81 0 
O 23 62 0 
O 61 46 0 
O 42 57 0 
O 26 64 0 
O 64 66 0 
O 48 46 0 
O 36 82 0 
O 87 64 0 
O 34 44 0 
O 44 73 0 
O 78 34 0 
O 85 71 0 
O 85 16 0 
O 21 20 0 
O 57 33 0 
O 46 61 0 
O 60 10 0 
O 1 88 0 
O 36 23 0 
O 28 93 0 
O 45 89 0 
O 24 59 0 
O 98 49 0 
1282
Atoms. Timestep: 2
N 6 26 0 
N 76 63 0 
N 82 57 0 
N 13 21 0 
N 17 16 0 
N 20 27 0 
N 8 9 0 
N 13 93 0 
N 4 9 0 
N 19 49 0 
N 65 34 0 
N 36 76 0 
N 26 31 0 
N 80 32 0 
N 53 73 0 
N 31 36 0 
N 21 69 0 
N 63 38 0 
N 23 74 0 
N 44 80 0 
N 95 6 0 
N 99 40 0 
N 25 26 0 
N 83 28 0 
N 15 27 0 
N 34 75 0 
N 24 30 0 
N 3 31 0 
N 35 51 0 
N 72 69 0 
N 0 56 0 
N 14 61 0 
N 84 30 0 
N 50 9 0 
N 38 42 0 
N 94 92 0 
N 68 36 0 
N 71 11 0 
N 1 49 0 
N 84 66 0 
N 52 52 0 
N 49 33 0 
N 41 82 0 
N 61 53 0 
N 47 86 0 
N 24 9 0 
N 82 90 0 
N 15 98 0 
N 32 99 0 
N 95 65 0 
N 37 5 0 
N 60 92 0 
N 16 80 0 
N 60 49 0 
N 90 50 0 
N 3 61 0 
N 48 56 0 
N 14 10 0 
N 91 22 0 
N 43 68 0 
N 75 38 0 
N 2 46 0 
N 37 41 0 
N 62 77 0 
N 4 62 0 
N 3 10 0 
N 28 97 0 
N 80 78 0 
N 34 39 0 
N 77 54 0 
N 70 78 0 
N 23 80 0 
N 62 73 0 
N 69 53 0 
N 89 36 0 
N 13 47 0 
N 26 89 0 
N 4 94 0 
N 39 3 0 
N 82 44 0 
N 35 37 0 
N 4 52 0 
N 79 71 0 
N 73 26 0 
N 7 80 0 
N 20 17 0 
N 55 76 0 
N 46 28 0 
N 30 87 0 
N 8 39 0 
N 48 24 0 
N 97 84 0 
N 69 16 0 
N 10 45 0 
N 80 6 0 
N 77 68 0 
N 46 11 0 
N 71 17 0 
N 1 77 0 
N 0 36 0 
N 59 3 0 
N 55 22 0 
N 1 31 0 
N 34 82 0 
N 20 71 0 
N 36 51 0 
N 38 77 0 
N 86 37 0 
N 12 52 0 
N 79 16 0 
N 5 70 0 
N 62 63 0 
N 76 32 0 
N 23 20 0 
N 51 91 0 
N 71 33 0 
N 93 81 0 
N 53 89 0 
N 67 51 0 
N 89 15 0 
N 40 63 0 
N 17 42 0 
N 70 36 0 
N 9 60 0 
N 94 43 0 
N 4 32 0 
N 79 53 0 
N 15 11 0 
N 15 57 0 
N 63 68 0 
N 56 41 0 
N 24 81 0 
N 78 5 0 
N 68 74 0 
N 89 23 0 
N 69 38 0 
N 88 44 0 
N 15 44 0 
N 51 81 0 
N 68 99 0 
N 34 70 0 
N 63 62 0 
N 43 9 0 
N 29 97 0 
N 60 11 0 
N 74 26 0 
N 14 92 0 
N 11 92 0 
N 71 52 0 
N 22 71 0 
N 93 44 0 
N 82 92 0 
N 0 84 0 
N 51 61 0 
N 11 64 0 
N 38 50 0 
N 20 46 0 
N 6 75 0 
N 6 10 0 
N 52 24 0 
N 66 85 0 
N 27 94 0 
N 18 28 0 
N 91 20 0 
N 96 69 0 
N 30 75 0 
N 26 42 0 
N 14 34 0 
N 69 4 0 
N 14 27 0 
N 83 38 0 
N 53 46 0 
N 10 71 0 
N 89 33 0 
N 24 17 0 
N 41 18 0 
N 81 92 0 
N 42 91 0 
N 13 56 0 
N 48 95 0 
N 95 72 0 
N 1 36 0 
N 19 34 0 
N 28 23 0 
N 82 27 0 
N 88 5 0 
N 98 98 0 
N 15 84 0 
N 26 34 0 
N 61 28 0 
N 97 55 0 
N 76 33 0 
N 20 80 0 
N 11 71 0 
N 17 28 0 
N 33 31 0 
N 79 5 0 
N 97 64 0 
N 63 15 0 
N 22 3 0 
N 87 62 0 
N 57 13 0 
N 31 95 0 
N 60 25 0 
N 89 17 0 
N 96 98 0 
N 97 96 0 
N 20 85 0 
N 68 5 0 
N 2 36 0 
N 3 57 0 
N 80 58 0 
N 93 87 0 
N 34 89 0 
N 64 47 0 
N 71 47 0 
N 7 4 0 
N 64 42 0 
N 45 96 0 
N 28 36 0 
N 69 36 0 
N 83 56 0 
N 69 21 0 
N 96 74 0 
N 60 68 0 
N 15 77 0 
N 87 37 0 
N 31 88 0 
N 19 71 0 
N 85 70 0 
N 27 42 0 
N 86 41 0 
N 40 79 0 
N 76 88 0 
N 75 23 0 
N 80 19 0 
N 15 13 0 
N 7 50 0 
N 54 38 0 
N 59 39 0 
N 95 25 0 
N 15 36 0 
N 38 17 0 
N 87 45 0 
N 14 56 0 
N 95 2 0 
N 15 67 0 
N 85 62 0 
N 18 14 0 
N 44 72 0 
N 73 69 0 
N 78 69 0 
N 5 72 0 
N 68 54 0 
N 9 62 0 
N 38 98 0 
N 7 11 0 
N 45 20 0 
N 60 56 0 
N 34 23 0 
N 88 3 0 
N 51 49 0 
N 77 79 0 
N 87 97 0 
N 65 28 0 
N 10 94 0 
N 84 81 0 
N 80 71 0 
N 4 46 0 
N 52 69 0 
N 53 26 0 
N 65 38 0 
N 77 46 0 
N 92 2 0 
N 91 24 0 
N 29 29 0 
N 25 7 0 
N 51 4 0 
N 95 78 0 
N 93 22 0 
N 64 23 0 
N 79 97 0 
N 9 99 0 
N 60 46 0 
N 22 85 0 
N 80 12 0 
N 18 2 0 
N 50 18 0 
N 31 38 0 
N 27 83 0 
N 49 30 0 
N 11 57 0 
N 99 49 0 
N 51 84 0 
N 77 17 0 
N 4 99 0 
N 62 58 0 
N 60 79 0 
N 31 60 0 
N 84 12 0 
N 38 18 0 
N 65 74 0 
N 59 92 0 
N 85 51 0 
N 20 89 0 
N 41 2 0 
N 12 48 0 
N 15 85 0 
N 49 3 0 
N 51 99 0 
N 37 73 0 
N 59 19 0 
N 42 28 0 
N 88 16 0 
N 15 48 0 
N 30 80 0 
N 59 12 0 
N 43 39 0 
N 1 5 0 
N 86 77 0 
N 91 36 0 
N 57 33 0 
N 55 61 0 
N 28 55 0 
N 44 93 0 
N 98 46 0 
N 34 71 0 
N 48 37 0 
N 47 29 0 
N 42 21 0 
N 68 25 0 
N 40 78 0 
N 78 96 0 
N 47 74 0 
N 23 10 0 
N 78 1 0 
N 27 95 0 
N 55 35 0 
N 12 78 0 
N 81 88 0 
N 91 48 0 
N 24 97 0 
N 50 60 0 
N 23 30 0 
N 68 73 0 
N 34 38 0 
N 98 55 0 
N 51 57 0 
N 28 38 0 
N 19 15 0 
N 43 60 0 
N 62 25 0 
N 76 74 0 
N 48 78 0 
N 56 8 0 
N 94 42 0 
N 1 44 0 
N 70 45 0 
N 32 83 0 
N 74 36 0 
N 39 99 0 
N 62 67 0 
N 67 91 0 
N 46 48 0 
N 76 45 0 
N 3 8 0 
N 12 2 0 
N 63 78 0 
N 7 25 0 
N 11 53 0 
N 3 87 0 
N 91 69 0 
N 33 34 0 
N 63 29 0 
N 40 68 0 
N 68 49 0 
N 24 54 0 
N 51 28 0 
N 21 43 0 
N 57 98 0 
N 94 40 0 
N 54 97 0 
N 41 62 0 
N 34 25 0 
N 48 52 0 
N 59 22 0 
N 19 3 0 
N 91 72 0 
N 36 36 0 
N 19 12 0 
N 34 5 0 
N 79 6 0 
N 42 40 0 
N 48 43 0 
N 7 38 0 
N 76 82 0 
N 38 24 0 
N 95 76 0 
N 6 51 0 
N 52 12 0 
N 80 31 0 
N 6 12 0 
N 81 76 0 
N 51 63 0 
N 56 9 0 
N 47 22 0 
N 57 75 0 
N 94 72 0 
N 30 22 0 
N 42 57 0 
N 77 63 0 
N 78 54 0 
N 77 41 0 
N 84 60 0 
N 80 75 0 
N 40 84 0 
N 98 42 0 
N 62 23 0 
N 39 19 0 
N 9 59 0 
N 3 47 0 
N 18 60 0 
N 32 50 0 
N 58 49 0 
N 43 17 0 
N 76 25 0 
N 81 58 0 
N 56 99 0 
N 71 25 0 
N 87 39 0 
N 66 28 0 
N 30 96 0 
N 8 57 0 
N 51 20 0 
N 4 36 0 
N 56 44 0 
N 12 42 0 
N 2 27 0 
N 29 45 0 
N 96 76 0 
N 30 94 0 
N 85 29 0 
N 95 11 0 
N 0 40 0 
N 64 20 0 
N 33 13 0 
N 45 92 0 
N 57 56 0 
N 74 11 0 
N 70 34 0 
N 37 26 0 
N 69 85 0 
N 22 38 0 
N 22 49 0 
N 83 13 0 
N 11 15 0 
N 57 58 0 
N 86 9 0 
N 24 5 0 
N 35 17 0 
N 78 29 0 
N 6 94 0 
N 23 54 0 
N 64 57 0 
N 46 51 0 
N 5 94 0 
N 94 98 0 
N 54 24 0 
N 20 66 0 
N 68 90 0 
N 92 57 0 
N 54 44 0 
N 24 75 0 
N 23 49 0 
N 73 10 0 
N 64 69 0 
N 93 73 0 
N 69 51 0 
N 38 6 0 
N 68 41 0 
N 28 51 0 
N 54 71 0 
N 5 56 0 
N 80 61 0 
N 45 70 0 
N 5 80 0 
N 27 58 0 
N 79 56 0 
N 20 15 0 
N 56 55 0 
N 42 23 0 
N 99 20 0 
N 65 35 0 
N 22 31 0 
N 6 68 0 
N 70 8 0 
N 55 91 0 
N 7 57 0 
N 98 3 0 
N 72 75 0 
C 0 0 0 
C 25 0 0 
C 50 0 0 
C 75 0 0 
C 100 0 0 
C 0 25 0 
C 25 25 0 
C 50 25 0 
C 75 25 0 
C 100 25 0 
C 0 50 0 
C 25 50 0 
C 50 50 0 
C 75 50 0 
C 100 50 0 
C 0 75 0 
C 25 75 0 
C 50 75 0 
C 75 75 0 
C 100 75 0 
C 0 100 0 
C 25 100 0 
C 50 100 0 
C 75 100 0 
C 100 100 0 
O 24 53 0 
O 40 36 0 
O 24 15 0 
O 18 96 0 
O 65 10 0 
O 56 98 0 
O 51 78 0 
O 40 61 0 
O 5 19 0 
O 38 14 0 
O 76 67 0 
O 68 56 0 
O 22 55 0 
O 95 97 0 
O 94 91 0 
O 37 83 0 
O 87 43 0 
O 53 99 0 
O 98 48 0 
O 61 62 0 
O 18 98 0 
O 84 51 0 
O 68 92 0 
O 21 34 0 
O 44 66 0 
O 83 26 0 
O 71 91 0 
O 84 32 0 
O 80 77 0 
O 88 58 0 
O 49 20 0 
O 52 40 0 
O 32 75 0 
O 74 23 0 
O 79 39 0 
O 95 30 0 
O 57 61 0 
O 18 63 0 
O 97 66 0 
O 65 43 0 
O 39 40 0 
O 59 96 0 
O 75 10 0 
O 26 10 0 
O 72 63 0 
O 54 80 0 
O 86 66 0 
O 84 76 0 
O 99 83 0 
O 44 13 0 
O 59 73 0 
O 40 91 0 
O 47 42 0 
O 12 9 0 
O 20 22 0 
O 87 76 0 
O 42 27 0 
O 26 33 0 
O 15 19 0 
O 33 33 0 
O 24 39 0 
O 25 68 0 
O 55 40 0 
O 70 90 0 
O 65 59 0 
O 25 88 0 
O 23 61 0 
O 20 23 0 
O 69 15 0 
O 48 66 0 
O 82 11 0 
O 66 83 0 
O 89 58 0 
O 69 17 0 
O 19 26 0 
O 58 91 0 
O 58 55 0 
O 62 51 0 
O 37 99 0 
O 77 48 0 
O 55 7 0 
O 99 84 0 
O 16 92 0 
O 31 59 0 
O 43 47 0 
O 72 25 0 
O 66 58 0 
O 14 99 0 
O 88 37 0 
O 47 36 0 
O 91 30 0 
O 5 67 0 
O 16 5 0 
O 30 74 0 
O 79 55 0 
O 31 74 0 
O 18 62 0 
O 41 36 0 
O 58 0 0 
O 34 65 0 
O 40 22 0 
O 9 46 0 
O 80 54 0 
O 70 96 0 
O 0 1 0 
O 64 2 0 
O 93 61 0 
O 51 53 0 
O 59 29 0 
O 4 82 0 
O 17 48 0 
O 29 79 0 
O 1 26 0 
O 29 28 0 
O 70 80 0 
O 48 47 0 
O 99 62 0 
O 65 96 0 
O 43 95 0 
O 12 22 0 
O 64 90 0 
O 53 75 0 
O 29 46 0 
O 53 14 0 
O 47 33 0 
O 70 56 0 
O 79 83 0 
O 30 30 0 
O 48 4 0 
O 28 10 0 
O 9 53 0 
O 96 49 0 
O 62 88 0 
O 15 63 0 
O 46 43 0 
O 50 12 0 
O 63 22 0 
O 3 45 0 
O 62 52 0 
O 64 52 0 
O 74 2 0 
O 81 91 0 
O 28 72 0 
O 80 23 0 
O 35 64 0 
O 32 61 0 
O 14 65 0 
O 71 15 0 
O 84 57 0 
O 1 71 0 
O 50 98 0 
O 2 9 0 
O 37 28 0 
O 59 53 0 
O 3 35 0 
O 5 33 0 
O 31 78 0 
O 20 68 0 
O 8 19 0 
O 33 53 0 
O 22 53 0 
O 95 15 0 
O 59 33 0 
O 95 12 0 
O 86 48 0 
O 46 30 0 
O 87 28 0 
O 37 98 0 
O 60 45 0 
O 44 18 0 
O 31 90 0 
O 1 57 0 
O 47 10 0 
O 77 18 0 
O 50 69 0 
O 81 41 0 
O 67 53 0 
O 80 37 0 
O 83 58 0 
O 39 54 0 
O 36 22 0 
O 47 2 0 
O 9 24 0 
O 36 82 0 
O 10 96 0 
O 74 22 0 
O 1 9 0 
O 64 40 0 
O 28 7 0 
O 70 99 0 
O 36 57 0 
O 89 89 0 
O 9 70 0 
O 18 88 0 
O 68 86 0 
O 13 81 0 
O 61 34 0 
O 46 75 0 
O 89 77 0 
O 93 57 0 
O 46 46 0 
O 85 86 0 
O 64 21 0 
O 6 2 0 
O 29 56 0 
O 87 68 0 
O 78 8 0 
O 68 3 0 
O 18 56 0 
O 29 9 0 
O 57 83 0 
O 85 80 0 
O 48 50 0 
O 99 11 0 
O 59 55 0 
O 1 13 0 
O 48 23 0 
O 86 24 0 
O 0 78 0 
O 77 28 0 
O 33 59 0 
O 55 53 0 
O 71 77 0 
O 88 32 0 
O 50 82 0 
O 44 3 0 
O 94 31 0 
O 96 13 0 
O 75 69 0 
O 52 74 0 
O 31 69 0 
O 66 82 0 
O 26 12 0 
O 29 95 0 
O 10 28 0 
O 5 38 0 
O 76 24 0 
O 36 88 0 
O 75 63 0 
O 57 54 0 
O 22 96 0 
O 13 37 0 
O 78 99 0 
O 60 13 0 
O 80 57 0 
O 39 80 0 
O 1 75 0 
O 76 95 0 
O 87 4 0 
O 84 87 0 
O 33 18 0 
O 49 99 0 
O 65 64 0 
O 31 19 0 
O 7 27 0 
O 84 8 0 
O 22 93 0 
O 55 10 0 
O 59 67 0 
O 35 50 0 
O 85 16 0 
O 74 92 0 
O 93 20 0 
O 64 67 0 
O 24 73 0 
O 93 27 0 
O 54 6 0 
O 78 78 0 
O 3 86 0 
O 21 95 0 
O 10 58 0 
O 35 11 0 
O 14 58 0 
O 23 31 0 
O 61 87 0 
O 8 3 0 
O 32 92 0 
O 52 44 0 
O 44 19 0 
O 29 21 0 
O 37 59 0 
O 73 63 0 
O 16 4 0 
O 12 3 0 
O 54 81 0 
O 99 4 0 
O 43 65 0 
O 68 52 0 
O 60 98 0 
O 45 42 0 
O 91 86 0 
O 83 45 0 
O 54 89 0 
O 11 36 0 
O 76 2 0 
O 97 27 0 
O 95 79 0 
O 75 94 0 
O 27 57 0 
O 61 47 0 
O 58 69 0 
O 1 3 0 
O 7 2 0 
O 19 61 0 
O 15 87 0 
O 89 87 0 
O 64 85 0 
O 73 95 0 
O 15 26 0 
O 39 83 0 
O 8 22 0 
O 37 97 0 
O 16 61 0 
O 62 9 0 
O 4 24 0 
O 95 73 0 
O 72 95 0 
O 36 11 0 
O 37 55 0 
O 30 31 0 
O 51 59 0 
O 27 69 0 
O 72 77 0 
O 28 49 0 
O 27 74 0 
O 11 44 0 
O 60 21 0 
O 92 18 0 
O 70 7 0 
O 23 64 0 
O 70 86 0 
O 83 59 0 
O 67 60 0 
O 49 77 0 
O 95 22 0 
O 97 8 0 
O 55 87 0 
O 66 41 0 
O 38 12 0 
O 86 89 0 
O 18 45 0 
O 55 77 0 
O 50 46 0 
O 46 15 0 
O 17 44 0 
O 54 69 0 
O 75 46 0 
O 22 66 0 
O 10 15 0 
O 12 65 0 
O 36 7 0 
O 71 70 0 
O 88 13 0 
O 45 35 0 
O 93 83 0 
O 38 0 0 
O 31 51 0 
O 80 40 0 
O 86 53 0 
O 23 85 0 
O 13 58 0 
O 20 4 0 
O 49 25 0 
O 29 20 0 
O 20 5 0 
O 42 26 0 
O 5 84 0 
O 79 51 0 
O 46 64 0 
O 83 1 0 
O 27 51 0 
O 52 13 0 
O 48 68 0 
O 51 5 0 
O 92 29 0 
O 45 72 0 
O 7 92 0 
O 11 77 0 
O 14 37 0 
O 98 78 0 
O 87 91 0 
O 36 38 0 
O 16 7 0 
O 94 74 0 
O 76 35 0 
O 29 58 0 
O 63 93 0 
O 66 88 0 
O 36 13 0 
O 19 45 0 
O 71 46 0 
O 17 14 0 
O 18 11 0 
O 33 72 0 
O 35 74 0 
O 32 53 0 
O 34 40 0 
O 3 12 0 
O 93 5 0 
O 27 37 0 
O 96 80 0 
O 76 98 0 
O 28 57 0 
O 30 29 0 
O 1 59 0 
O 95 26 0 
O 92 89 0 
O 62 84 0 
O 52 17 0 
O 48 70 0 
O 28 92 0 
O 54 59 0 
O 31 4 0 
O 77 10 0 
O 6 46 0 
O 50 58 0 
O 5 11 0 
O 7 21 0 
O 95 32 0 
O 45 4 0 
O 71 74 0 
O 24 24 0 
O 41 14 0 
O 76 92 0 
O 58 89 0 
O 65 15 0 
O 75 47 0 
O 85 67 0 
O 5 18 0 
O 97 29 0 
O 85 98 0 
O 75 2 0 
O 58 81 0 
O 27 22 0 
O 16 25 0 
O 65 87 0 
O 79 65 0 
O 25 13 0 
O 67 6 0 
O 85 19 0 
O 47 70 0 
O 6 81 0 
O 54 67 0 
O 64 61 0 
O 30 92 0 
O 8 10 0 
O 5 90 0 
O 0 3 0 
O 43 92 0 
O 33 12 0 
O 5 45 0 
O 25 60 0 
O 17 54 0 
O 4 16 0 
O 77 8 0 
O 41 59 0 
O 41 23 0 
O 94 33 0 
O 5 37 0 
O 27 79 0 
O 58 74 0 
O 55 56 0 
O 39 21 0 
O 36 3 0 
O 9 4 0 
O 70 32 0 
O 77 69 0 
O 17 93 0 
O 8 24 0 
O 17 6 0 
O 92 31 0 
O 92 77 0 
O 42 63 0 
O 20 0 0 
O 88 26 0 
O 97 56 0 
O 29 88 0 
O 2 17 0 
O 66 84 0 
O 56 97 0 
O 11 31 0 
O 16 73 0 
O 13 20 0 
O 70 19 0 
O 71 59 0 
O 20 83 0 
O 36 85 0 
O 62 94 0 
O 61 15 0 
O 41 66 0 
O 71 62 0 
O 97 28 0 
O 3 37 0 
O 77 89 0 
O 23 63 0 
O 91 27 0 
O 77 6 0 
O 30 98 0 
O 87 3 0 
O 81 54 0 
O 76 19 0 
O 25 71 0 
O 88 25 0 
O 27 50 0 
O 11 46 0 
O 84 6 0 
O 66 61 0 
O 10 66 0 
O 54 92 0 
O 89 26 0 
O 94 77 0 
O 34 21 0 
O 25 53 0 
O 40 39 0 
O 41 64 0 
O 37 22 0 
O 99 17 0 
O 16 67 0 
O 80 82 0 
O 84 41 0 
O 45 94 0 
O 94 93 0 
O 0 60 0 
O 80 16 0 
O 29 39 0 
O 57 22 0 
O 70 88 0 
O 33 98 0 
O 63 2 0 
O 43 46 0 
O 71 54 0 
O 13 64 0 
O 92 49 0 
O 1 20 0 
O 2 87 0 
O 95 51 0 
O 40 33 0 
O 11 99 0 
O 77 70 0 
O 85 31 0 
O 17 45 0 
O 34 12 0 
O 34 61 0 
O 19 28 0 
O 79 60 0 
O 72 51 0 
O 9 86 0 
O 76 1 0 
O 89 79 0 
O 65 19 0 
O 13 44 0 
O 78 11 0 
O 52 0 0 
O 90 13 0 
O 6 43 0 
O 58 86 0 
O 71 90 0 
O 0 48 0 
O 86 96 0 
O 0 55 0 
O 16 56 0 
O 48 33 0 
O 49 82 0 
O 60 15 0 
O 25 22 0 
O 31 47 0 
O 58 79 0 
O 48 72 0 
O 14 82 0 
O 58 19 0 
O 56 36 0 
O 62 10 0 
O 87 52 0 
O 4 41 0 
O 99 59 0 
O 37 7 0 
O 60 93 0 
O 5 74 0 
O 99 57 0 
O 31 34 0 
O 93 54 0 
O 71 16 0 
O 89 85 0 
O 38 94 0 
O 59 41 0 
O 60 73 0 
O 58 20 0 
O 22 24 0 
O 88 96 0 
O 27 48 0 
O 50 19 0 
O 2 51 0 
O 85 24 0 
O 22 75 0 
O 37 74 0 
O 58 96 0 
O 4 91 0 
O 71 2 0 
O 0 19 0 
O 13 32 0 
O 30 2 0 
O 36 66 0 
O 38 20 0 
O 29 16 0 
O 28 61 0 
O 68 81 0 
O 81 60 0 
O 12 84 0 
O 48 93 0 
O 2 99 0 
O 80 14 0 
O 4 15 0 
O 69 33 0 
O 71 6 0 
O 83 35 0 
O 88 94 0 
O 16 19 0 
O 58 83 0 
O 19 16 0 
O 68 68 0 
O 40 72 0 
O 38 47 0 
O 76 86 0 
O 98 73 0 
O 97 97 0 
O 41 20 0 
O 33 44 0 
O 63 66 0 
O 95 82 0 
O 95 34 0 
O 26 84 0 
O 57 82 0 
O 96 44 0 
O 25 55 0 
O 88 14 0 
O 92 64 0 
O 76 97 0 
O 97 25 0 
O 90 0 0 
O 15 22 0 
O 4 86 0 
O 48 36 0 
O 99 74 0 
O 43 58 0 
O 74 15 0 
O 5 42 0 
O 3 1 0 
O 64 83 0 
O 17 4 0 
O 5 3 0 
O 35 77 0 
O 49 2 0 
O 29 32 0 
O 37 80 0 
O 95 96 0 
O 37 25 0 
O 52 19 0 
O 82 33 0 
O 25 65 0 
O 99 29 0 
O 70 55 0 
O 89 27 0 
O 44 40 0 
O 30 51 0 
O 1 22 0 
O 72 26 0 
O 15 97 0 
O 65 29 0 
O 30 82 0 
O 36 74 0 
O 5 0 0 
O 98 31 0 
O 97 62 0 
O 2 89 0 
O 83 99 0 
O 0 31 0 
O 23 47 0 
O 0 20 0 
O 83 0 0 
O 98 25 0 
O 78 32 0 
O 50 40 0 
O 28 19 0 
O 38 48 0 
O 72 18 0 
O 9 38 0 
O 80 50 0 
O 35 72 0 
O 24 80 0 
O 5 92 0 
O 19 43 0 
O 19 76 0 
O 32 97 0 
O 38 60 0 
O 8 35 0 
O 44 61 0 
O 42 8 0 
O 30 42 0 
O 86 55 0 
O 48 54 0 
O 41 10 0 
O 78 84 0 
O 64 39 0 
O 80 59 0 
O 48 21 0 
O 70 93 0 
O 56 82 0 
O 63 76 0 
O 7 85 0 
O 85 61 0 
O 14 26 0 
O 68 46 0 
O 40 23 0 
O 62 11 0 
O 99 41 0 
O 78 48 0 
O 61 44 0 
O 89 29 0 
O 2 59 0 
O 6 14 0 
O 28 8 0 
O 70 29 0 
O 26 18 0 
O 98 90 0 
O 26 11 0 
O 27 67 0 
O 83 6 0 
O 54 1 0 
O 10 91 0 
O 62 65 0 
O 92 30 0 
O 44 32 0 
O 96 64 0 
O 75 5 0 
O 25 20 0 
O 2 81 0 
O 24 62 0 
O 61 45 0 
O 27 64 0 
O 64 65 0 
O 47 46 0 
O 36 83 0 
O 86 64 0 
O 34 43 0 
O 44 74 0 
O 78 33 0 
O 85 72 0 
O 85 15 0 
O 22 20 0 
O 46 60 0 
O 61 10 0 
O 2 88 0 
O 36 24 0 
O 28 94 0 
O 46 89 0 
O 24 58 0 
O 97 49 0 
1199
Atoms. Timestep: 3
N 6 27 0 
N 75 63 0 
N 83 57 0 
N 13 20 0 
N 16 16 0 
N 19 27 0 
N 8 10 0 
N 12 93 0 
N 4 9 0 
N 18 49 0 
N 64 34 0 
N 35 76 0 
N 25 31 0 
N 79 32 0 
N 53 74 0 
N 31 35 0 
N 20 69 0 
N 63 39 0 
N 23 73 0 
N 43 80 0 
N 95 5 0 
N 99 41 0 
N 24 26 0 
N 83 27 0 
N 15 26 0 
N 33 75 0 
N 25 30 0 
N 2 31 0 
N 35 50 0 
N 72 70 0 
N 0 55 0 
N 15 61 0 
N 84 31 0 
N 50 10 0 
N 39 42 0 
N 94 91 0 
N 69 36 0 
N 70 11 0 
N 1 48 0 
N 85 66 0 
N 52 53 0 
N 48 33 0 
N 41 83 0 
N 61 52 0 
N 46 86 0 
N 25 9 0 
N 82 89 0 
N 15 97 0 
N 32 98 0 
N 96 65 0 
N 37 6 0 
N 60 93 0 
N 16 81 0 
N 60 48 0 
N 91 50 0 
N 2 61 0 
N 48 55 0 
N 13 10 0 
N 92 22 0 
N 43 67 0 
N 76 38 0 
N 2 45 0 
N 38 41 0 
N 62 76 0 
N 5 62 0 
N 2 10 0 
N 28 96 0 
N 80 77 0 
N 34 40 0 
N 78 54 0 
N 70 79 0 
N 23 79 0 
N 61 73 0 
N 68 53 0 
N 89 35 0 
N 13 46 0 
N 25 89 0 
N 4 93 0 
N 38 3 0 
N 82 45 0 
N 35 37 0 
N 4 51 0 
N 79 70 0 
N 72 26 0 
N 7 81 0 
N 20 18 0 
N 55 77 0 
N 46 28 0 
N 30 88 0 
N 9 39 0 
N 48 23 0 
N 96 84 0 
N 69 15 0 
N 10 46 0 
N 80 6 0 
N 77 67 0 
N 47 11 0 
N 71 16 0 
N 1 78 0 
N 0 35 0 
N 58 3 0 
N 56 22 0 
N 0 31 0 
N 35 82 0 
N 20 70 0 
N 36 50 0 
N 37 77 0 
N 86 36 0 
N 12 53 0 
N 80 16 0 
N 5 69 0 
N 61 63 0 
N 77 32 0 
N 22 20 0 
N 52 91 0 
N 71 32 0 
N 93 82 0 
N 54 89 0 
N 67 52 0 
N 89 14 0 
N 40 63 0 
N 17 43 0 
N 70 35 0 
N 10 60 0 
N 95 43 0 
N 5 32 0 
N 80 53 0 
N 16 11 0 
N 15 58 0 
N 63 68 0 
N 55 41 0 
N 24 80 0 
N 77 5 0 
N 69 74 0 
N 89 24 0 
N 69 38 0 
N 88 43 0 
N 16 44 0 
N 50 81 0 
N 69 99 0 
N 33 70 0 
N 62 62 0 
N 43 8 0 
N 29 97 0 
N 60 11 0 
N 74 26 0 
N 15 92 0 
N 11 91 0 
N 71 53 0 
N 23 71 0 
N 94 44 0 
N 83 92 0 
N 1 84 0 
N 51 61 0 
N 11 65 0 
N 38 49 0 
N 19 46 0 
N 6 74 0 
N 5 10 0 
N 52 25 0 
N 66 84 0 
N 28 94 0 
N 19 28 0 
N 92 20 0 
N 96 68 0 
N 30 74 0 
N 27 42 0 
N 14 35 0 
N 69 3 0 
N 14 26 0 
N 83 37 0 
N 52 46 0 
N 10 70 0 
N 88 33 0 
N 24 16 0 
N 41 19 0 
N 81 91 0 
N 41 91 0 
N 13 57 0 
N 48 94 0 
N 95 73 0 
N 2 36 0 
N 20 34 0 
N 27 23 0 
N 82 26 0 
N 87 5 0 
N 98 97 0 
N 15 85 0 
N 26 33 0 
N 61 29 0 
N 97 56 0 
N 76 34 0 
N 20 81 0 
N 11 70 0 
N 17 28 0 
N 32 31 0 
N 79 6 0 
N 96 64 0 
N 64 15 0 
N 22 4 0 
N 87 63 0 
N 58 13 0 
N 30 95 0 
N 60 24 0 
N 89 18 0 
N 97 98 0 
N 97 97 0 
N 20 84 0 
N 68 4 0 
N 2 35 0 
N 2 57 0 
N 80 57 0 
N 92 87 0 
N 34 88 0 
N 63 47 0 
N 71 46 0 
N 8 4 0 
N 64 43 0 
N 45 95 0 
N 28 37 0 
N 69 37 0 
N 84 56 0 
N 69 20 0 
N 96 73 0 
N 60 67 0 
N 14 77 0 
N 88 37 0 
N 31 89 0 
N 19 70 0 
N 85 71 0 
N 28 42 0 
N 85 41 0 
N 40 80 0 
N 76 89 0 
N 74 23 0 
N 80 18 0 
N 15 12 0 
N 8 50 0 
N 54 39 0 
N 58 39 0 
N 95 26 0 
N 15 37 0 
N 38 16 0 
N 87 44 0 
N 14 57 0 
N 95 3 0 
N 16 67 0 
N 85 61 0 
N 17 14 0 
N 45 72 0 
N 74 69 0 
N 77 69 0 
N 5 73 0 
N 68 55 0 
N 9 61 0 
N 37 98 0 
N 7 11 0 
N 44 20 0 
N 59 56 0 
N 35 23 0 
N 87 3 0 
N 51 50 0 
N 77 78 0 
N 86 97 0 
N 65 29 0 
N 10 95 0 
N 84 80 0 
N 80 70 0 
N 4 45 0 
N 51 69 0 
N 53 25 0 
N 64 38 0 
N 77 47 0 
N 93 2 0 
N 91 25 0 
N 29 28 0 
N 26 7 0 
N 51 5 0 
N 95 79 0 
N 93 21 0 
N 64 22 0 
N 79 98 0 
N 10 99 0 
N 60 45 0 
N 23 85 0 
N 80 13 0 
N 18 3 0 
N 50 19 0 
N 31 39 0 
N 27 84 0 
N 48 30 0 
N 11 58 0 
N 98 49 0 
N 50 84 0 
N 77 18 0 
N 3 99 0 
N 63 58 0 
N 61 79 0 
N 31 59 0 
N 84 11 0 
N 38 19 0 
N 65 75 0 
N 59 91 0 
N 84 51 0 
N 20 88 0 
N 42 2 0 
N 12 47 0 
N 15 86 0 
N 49 2 0 
N 52 99 0 
N 37 74 0 
N 58 19 0 
N 42 27 0 
N 88 15 0 
N 16 48 0 
N 30 79 0 
N 60 12 0 
N 44 39 0 
N 1 4 0 
N 86 76 0 
N 90 36 0 
N 58 33 0 
N 56 61 0 
N 29 55 0 
N 43 93 0 
N 98 47 0 
N 34 72 0 
N 48 36 0 
N 46 29 0 
N 42 22 0 
N 69 25 0 
N 39 78 0 
N 78 97 0 
N 46 74 0 
N 24 10 0 
N 78 2 0 
N 27 96 0 
N 55 36 0 
N 12 77 0 
N 81 89 0 
N 92 48 0 
N 24 96 0 
N 51 60 0 
N 22 30 0 
N 69 73 0 
N 35 38 0 
N 98 56 0 
N 51 58 0 
N 27 38 0 
N 19 16 0 
N 43 59 0 
N 63 25 0 
N 75 74 0 
N 49 78 0 
N 55 8 0 
N 95 42 0 
N 2 44 0 
N 71 45 0 
N 31 83 0 
N 75 36 0 
N 38 99 0 
N 63 67 0 
N 67 92 0 
N 46 47 0 
N 76 46 0 
N 3 9 0 
N 12 3 0 
N 63 77 0 
N 7 26 0 
N 11 54 0 
N 3 86 0 
N 90 69 0 
N 33 33 0 
N 64 29 0 
N 41 68 0 
N 68 50 0 
N 24 53 0 
N 51 27 0 
N 20 43 0 
N 57 97 0 
N 94 41 0 
N 54 96 0 
N 40 62 0 
N 35 25 0 
N 49 52 0 
N 60 22 0 
N 19 4 0 
N 92 72 0 
N 36 37 0 
N 18 12 0 
N 34 6 0 
N 78 6 0 
N 43 40 0 
N 47 43 0 
N 6 38 0 
N 77 82 0 
N 37 24 0 
N 94 76 0 
N 5 51 0 
N 52 13 0 
N 79 31 0 
N 6 11 0 
N 81 77 0 
N 51 62 0 
N 56 10 0 
N 47 23 0 
N 57 74 0 
N 94 72 0 
N 29 22 0 
N 43 57 0 
N 77 63 0 
N 79 54 0 
N 78 41 0 
N 84 59 0 
N 80 76 0 
N 39 84 0 
N 98 41 0 
N 62 22 0 
N 39 20 0 
N 10 59 0 
N 3 46 0 
N 18 61 0 
N 32 51 0 
N 59 49 0 
N 43 18 0 
N 76 24 0 
N 82 58 0 
N 56 98 0 
N 72 25 0 
N 87 38 0 
N 66 29 0 
N 29 96 0 
N 9 57 0 
N 50 20 0 
N 3 36 0 
N 55 44 0 
N 12 43 0 
N 2 26 0 
N 29 46 0 
N 96 77 0 
N 29 94 0 
N 85 30 0 
N 95 12 0 
N 1 40 0 
N 64 21 0 
N 33 12 0 
N 44 92 0 
N 58 56 0 
N 75 11 0 
N 70 33 0 
N 37 25 0 
N 68 85 0 
N 23 38 0 
N 22 48 0 
N 83 12 0 
N 10 15 0 
N 57 59 0 
N 85 9 0 
N 23 5 0 
N 35 18 0 
N 77 29 0 
N 6 93 0 
N 23 53 0 
N 64 58 0 
N 46 50 0 
N 5 93 0 
N 94 97 0 
N 54 23 0 
N 20 67 0 
N 68 91 0 
N 93 57 0 
N 53 44 0 
N 24 74 0 
N 23 48 0 
N 74 10 0 
N 64 68 0 
N 94 73 0 
N 69 52 0 
N 38 7 0 
N 67 41 0 
N 27 51 0 
N 54 70 0 
N 5 57 0 
N 79 61 0 
N 45 71 0 
N 5 81 0 
N 27 57 0 
N 79 55 0 
N 20 16 0 
N 57 55 0 
N 41 23 0 
N 98 20 0 
N 64 35 0 
N 23 31 0 
N 5 68 0 
N 70 7 0 
N 55 92 0 
N 7 58 0 
N 98 4 0 
N 72 76 0 
C 0 0 0 
C 25 0 0 
C 50 0 0 
C 75 0 0 
C 100 0 0 
C 0 25 0 
C 25 25 0 
C 50 25 0 
C 75 25 0 
C 100 25 0 
C 0 50 0 
C 25 50 0 
C 50 50 0 
C 75 50 0 
C 100 50 0 
C 0 75 0 
C 25 75 0 
C 50 75 0 
C 75 75 0 
C 100 75 0 
C 0 100 0 
C 25 100 0 
C 50 100 0 
C 75 100 0 
C 100 100 0 
O 39 36 0 
O 25 15 0 
O 19 96 0 
O 65 11 0 
O 51 79 0 
O 39 61 0 
O 5 20 0 
O 37 14 0 
O 76 68 0 
O 67 56 0 
O 21 55 0 
O 96 97 0 
O 36 83 0 
O 86 43 0 
O 53 98 0 
O 99 48 0 
O 60 62 0 
O 19 98 0 
O 69 92 0 
O 21 35 0 
O 44 67 0 
O 83 25 0 
O 71 92 0 
O 84 33 0 
O 89 58 0 
O 49 21 0 
O 51 40 0 
O 32 76 0 
O 78 39 0 
O 95 29 0 
O 57 62 0 
O 19 63 0 
O 97 67 0 
O 66 43 0 
O 40 40 0 
O 59 97 0 
O 75 9 0 
O 27 10 0 
O 72 64 0 
O 54 81 0 
O 86 65 0 
O 84 77 0 
O 98 83 0 
O 44 14 0 
O 58 73 0 
O 40 90 0 
O 48 42 0 
O 12 10 0 
O 20 23 0 
O 87 75 0 
O 15 20 0 
O 23 39 0 
O 24 68 0 
O 54 40 0 
O 70 91 0 
O 65 60 0 
O 25 87 0 
O 23 62 0 
O 21 23 0 
O 48 65 0 
O 82 12 0 
O 66 82 0 
O 90 58 0 
O 68 17 0 
O 19 25 0 
O 58 92 0 
O 59 55 0 
O 61 51 0 
O 36 99 0 
O 78 48 0 
O 56 7 0 
O 0 84 0 
O 16 93 0 
O 44 47 0 
O 67 58 0 
O 14 98 0 
O 47 37 0 
O 90 30 0 
O 5 66 0 
O 16 6 0 
O 31 75 0 
O 17 62 0 
O 41 37 0 
O 58 1 0 
O 33 65 0 
O 41 22 0 
O 9 47 0 
O 81 54 0 
O 71 96 0 
O 1 1 0 
O 64 1 0 
O 94 61 0 
O 51 54 0 
O 59 30 0 
O 3 82 0 
O 17 47 0 
O 29 80 0 
O 0 26 0 
O 71 80 0 
O 49 47 0 
O 98 62 0 
O 66 96 0 
O 42 95 0 
O 11 22 0 
O 65 90 0 
O 52 75 0 
O 53 13 0 
O 47 32 0 
O 69 56 0 
O 78 83 0 
O 30 31 0 
O 49 4 0 
O 29 10 0 
O 10 53 0 
O 96 48 0 
O 63 88 0 
O 14 63 0 
O 46 44 0 
O 51 12 0 
O 63 23 0 
O 3 44 0 
O 62 53 0 
O 64 53 0 
O 74 1 0 
O 27 72 0 
O 79 23 0 
O 35 65 0 
O 33 61 0 
O 14 66 0 
O 70 15 0 
O 85 57 0 
O 2 71 0 
O 50 99 0 
O 1 9 0 
O 37 29 0 
O 58 53 0 
O 3 34 0 
O 4 33 0 
O 31 77 0 
O 19 68 0 
O 7 19 0 
O 34 53 0 
O 21 53 0 
O 96 15 0 
O 59 34 0 
O 85 48 0 
O 47 30 0 
O 87 27 0 
O 44 19 0 
O 31 91 0 
O 1 56 0 
O 48 10 0 
O 50 68 0 
O 81 40 0 
O 67 54 0 
O 80 38 0 
O 84 58 0 
O 39 55 0 
O 36 21 0 
O 46 2 0 
O 10 24 0 
O 37 82 0 
O 9 96 0 
O 73 22 0 
O 1 8 0 
O 65 40 0 
O 27 7 0 
O 70 98 0 
O 36 58 0 
O 88 89 0 
O 9 69 0 
O 19 88 0 
O 68 87 0 
O 14 81 0 
O 62 34 0 
O 46 76 0 
O 89 76 0 
O 45 46 0 
O 86 86 0 
O 6 1 0 
O 28 56 0 
O 88 68 0 
O 77 8 0 
O 68 2 0 
O 18 55 0 
O 28 9 0 
O 56 83 0 
O 85 81 0 
O 49 50 0 
O 0 11 0 
O 59 54 0 
O 0 13 0 
O 85 24 0 
O 0 79 0 
O 76 28 0 
O 33 60 0 
O 54 53 0 
O 71 76 0 
O 88 31 0 
O 49 82 0 
O 44 2 0 
O 93 31 0 
O 96 14 0 
O 75 70 0 
O 51 74 0 
O 31 68 0 
O 66 81 0 
O 26 13 0 
O 28 95 0 
O 11 28 0 
O 4 38 0 
O 36 89 0 
O 56 54 0 
O 22 95 0 
O 12 37 0 
O 78 98 0 
O 61 13 0 
O 39 81 0 
O 2 75 0 
O 76 94 0 
O 88 4 0 
O 83 87 0 
O 33 17 0 
O 49 98 0 
O 65 65 0 
O 30 19 0 
O 8 27 0 
O 83 8 0 
O 23 93 0 
O 55 11 0 
O 59 68 0 
O 85 17 0 
O 75 92 0 
O 94 20 0 
O 65 67 0 
O 24 72 0 
O 93 28 0 
O 53 6 0 
O 78 77 0 
O 21 96 0 
O 9 58 0 
O 36 11 0 
O 14 59 0 
O 61 88 0 
O 8 2 0 
O 31 92 0 
O 52 45 0 
O 43 19 0 
O 28 21 0 
O 37 58 0 
O 73 62 0 
O 15 4 0 
O 54 82 0 
O 0 4 0 
O 43 66 0 
O 68 51 0 
O 60 99 0 
O 45 41 0 
O 90 86 0 
O 84 45 0 
O 11 35 0 
O 75 2 0 
O 98 27 0 
O 74 94 0 
O 62 47 0 
O 57 69 0 
O 2 3 0 
O 7 3 0 
O 19 62 0 
O 15 88 0 
O 89 88 0 
O 63 85 0 
O 72 95 0 
O 39 82 0 
O 8 23 0 
O 38 97 0 
O 17 61 0 
O 63 9 0 
O 3 24 0 
O 72 94 0 
O 36 10 0 
O 37 54 0 
O 30 32 0 
O 50 59 0 
O 27 68 0 
O 72 78 0 
O 29 49 0 
O 28 74 0 
O 11 43 0 
O 61 21 0 
O 92 17 0 
O 23 63 0 
O 69 86 0 
O 82 59 0 
O 67 59 0 
O 49 76 0 
O 96 22 0 
O 97 7 0 
O 56 87 0 
O 66 40 0 
O 38 13 0 
O 86 88 0 
O 18 46 0 
O 50 47 0 
O 47 15 0 
O 17 45 0 
O 54 68 0 
O 75 45 0 
O 21 66 0 
O 13 65 0 
O 35 7 0 
O 71 71 0 
O 87 13 0 
O 45 34 0 
O 94 83 0 
O 37 0 0 
O 30 51 0 
O 80 41 0 
O 86 54 0 
O 12 58 0 
O 21 4 0 
O 49 26 0 
O 30 20 0 
O 21 5 0 
O 42 25 0 
O 5 85 0 
O 80 51 0 
O 46 65 0 
O 83 0 0 
O 48 69 0 
O 92 28 0 
O 8 92 0 
O 11 76 0 
O 14 38 0 
O 98 77 0 
O 87 90 0 
O 37 38 0 
O 15 7 0 
O 95 74 0 
O 75 35 0 
O 30 58 0 
O 62 93 0 
O 67 88 0 
O 36 12 0 
O 20 45 0 
O 18 10 0 
O 32 72 0 
O 36 74 0 
O 32 52 0 
O 3 13 0 
O 93 4 0 
O 27 36 0 
O 96 79 0 
O 76 97 0 
O 28 58 0 
O 31 29 0 
O 2 59 0 
O 93 89 0 
O 62 85 0 
O 52 16 0 
O 48 71 0 
O 28 93 0 
O 53 59 0 
O 32 4 0 
O 76 10 0 
O 7 46 0 
O 50 57 0 
O 5 12 0 
O 7 22 0 
O 94 32 0 
O 44 4 0 
O 71 73 0 
O 25 24 0 
O 42 14 0 
O 77 92 0 
O 58 88 0 
O 65 14 0 
O 74 47 0 
O 85 68 0 
O 5 17 0 
O 97 28 0 
O 85 99 0 
O 75 3 0 
O 57 81 0 
O 27 21 0 
O 17 25 0 
O 64 87 0 
O 78 65 0 
O 25 12 0 
O 67 5 0 
O 85 20 0 
O 46 70 0 
O 6 82 0 
O 55 67 0 
O 64 60 0 
O 29 92 0 
O 6 90 0 
O 0 2 0 
O 43 91 0 
O 5 46 0 
O 24 60 0 
O 17 53 0 
O 5 16 0 
O 77 7 0 
O 40 59 0 
O 94 34 0 
O 6 37 0 
O 27 80 0 
O 59 74 0 
O 56 56 0 
O 39 22 0 
O 37 3 0 
O 10 4 0 
O 70 31 0 
O 17 92 0 
O 8 25 0 
O 18 6 0 
O 92 32 0 
O 93 77 0 
O 43 63 0 
O 20 1 0 
O 88 25 0 
O 29 87 0 
O 2 18 0 
O 55 97 0 
O 12 31 0 
O 15 73 0 
O 69 19 0 
O 72 59 0 
O 19 83 0 
O 37 85 0 
O 61 94 0 
O 61 14 0 
O 40 66 0 
O 71 63 0 
O 98 28 0 
O 4 37 0 
O 77 88 0 
O 24 63 0 
O 92 27 0 
O 76 6 0 
O 30 99 0 
O 81 55 0 
O 77 19 0 
O 26 71 0 
O 87 25 0 
O 26 50 0 
O 11 45 0 
O 84 5 0 
O 65 61 0 
O 10 67 0 
O 53 92 0 
O 89 25 0 
O 95 77 0 
O 35 21 0 
O 26 53 0 
O 39 39 0 
O 41 63 0 
O 37 23 0 
O 0 17 0 
O 79 82 0 
O 84 42 0 
O 45 93 0 
O 95 93 0 
O 0 61 0 
O 28 39 0 
O 57 21 0 
O 69 88 0 
O 33 99 0 
O 63 3 0 
O 44 46 0 
O 71 55 0 
O 14 64 0 
O 93 49 0 
O 2 20 0 
O 2 86 0 
O 96 51 0 
O 39 33 0 
O 12 99 0 
O 77 71 0 
O 85 32 0 
O 16 45 0 
O 34 13 0 
O 35 61 0 
O 79 59 0 
O 72 50 0 
O 9 87 0 
O 75 1 0 
O 90 79 0 
O 66 19 0 
O 12 44 0 
O 78 12 0 
O 51 0 0 
O 90 12 0 
O 6 42 0 
O 59 86 0 
O 72 90 0 
O 0 49 0 
O 87 96 0 
O 15 56 0 
O 49 83 0 
O 60 16 0 
O 26 22 0 
O 31 46 0 
O 57 79 0 
O 49 72 0 
O 14 83 0 
O 56 37 0 
O 63 10 0 
O 86 52 0 
O 4 40 0 
O 0 59 0 
O 37 8 0 
O 5 75 0 
O 0 57 0 
O 30 34 0 
O 93 55 0 
O 89 86 0 
O 38 93 0 
O 58 41 0 
O 60 74 0 
O 57 20 0 
O 21 24 0 
O 88 97 0 
O 27 47 0 
O 3 51 0 
O 85 25 0 
O 23 75 0 
O 58 97 0 
O 4 90 0 
O 70 2 0 
O 0 18 0 
O 13 33 0 
O 30 1 0 
O 36 65 0 
O 38 21 0 
O 29 15 0 
O 28 62 0 
O 68 82 0 
O 81 61 0 
O 13 84 0 
O 49 93 0 
O 2 98 0 
O 79 14 0 
O 5 15 0 
O 69 34 0 
O 71 5 0 
O 82 35 0 
O 88 95 0 
O 17 19 0 
O 58 84 0 
O 67 68 0 
O 40 73 0 
O 38 48 0 
O 77 86 0 
O 98 74 0 
O 40 20 0 
O 32 44 0 
O 64 66 0 
O 96 82 0 
O 95 33 0 
O 26 85 0 
O 58 82 0 
O 96 45 0 
O 25 56 0 
O 87 14 0 
O 92 63 0 
O 75 97 0 
O 97 24 0 
O 90 1 0 
O 15 23 0 
O 4 87 0 
O 99 73 0 
O 42 58 0 
O 74 14 0 
O 5 43 0 
O 2 1 0 
O 64 84 0 
O 17 3 0 
O 5 2 0 
O 36 77 0 
O 29 33 0 
O 38 80 0 
O 96 96 0 
O 53 19 0 
O 83 33 0 
O 25 66 0 
O 0 29 0 
O 70 54 0 
O 90 27 0 
O 45 40 0 
O 29 51 0 
O 1 21 0 
O 29 82 0 
O 36 73 0 
O 4 0 0 
O 98 30 0 
O 96 62 0 
O 1 89 0 
O 82 99 0 
O 24 47 0 
O 99 20 0 
O 82 0 0 
O 98 24 0 
O 78 33 0 
O 49 40 0 
O 27 19 0 
O 37 48 0 
O 72 17 0 
O 9 37 0 
O 79 50 0 
O 36 72 0 
O 5 91 0 
O 19 44 0 
O 19 75 0 
O 33 97 0 
O 38 59 0 
O 8 34 0 
O 45 61 0 
O 42 7 0 
O 30 43 0 
O 86 56 0 
O 49 54 0 
O 41 11 0 
O 77 84 0 
O 65 39 0 
O 81 59 0 
O 48 22 0 
O 71 93 0 
O 56 81 0 
O 63 75 0 
O 8 85 0 
O 68 47 0 
O 40 24 0 
O 62 12 0 
O 78 49 0 
O 62 44 0 
O 89 28 0 
O 3 59 0 
O 7 14 0 
O 29 8 0 
O 70 28 0 
O 26 17 0 
O 97 90 0 
O 27 11 0 
O 28 67 0 
O 83 5 0 
O 54 0 0 
O 9 91 0 
O 61 65 0 
O 93 30 0 
O 44 31 0 
O 75 6 0 
O 26 20 0 
O 1 81 0 
O 24 61 0 
O 62 45 0 
O 26 64 0 
O 63 65 0 
O 47 45 0 
O 35 83 0 
O 85 64 0 
O 34 42 0 
O 44 73 0 
O 77 33 0 
O 86 72 0 
O 84 15 0 
O 47 60 0 
O 61 11 0 
O 3 88 0 
O 35 24 0 
O 46 90 0 
O 24 59 0 
O 97 48 0 
1141
Atoms. Timestep: 4
N 6 27 0 
N 74 63 0 
N 83 57 0 
N 14 20 0 
N 16 17 0 
N 19 26 0 
N 8 11 0 
N 13 93 0 
N 3 9 0 
N 17 49 0 
N 64 33 0 
N 34 76 0 
N 26 31 0 
N 79 33 0 
N 53 75 0 
N 30 35 0 
N 20 68 0 
N 63 39 0 
N 23 73 0 
N 43 81 0 
N 95 6 0 
N 99 40 0 
N 24 25 0 
N 83 26 0 
N 16 26 0 
N 32 75 0 
N 26 30 0 
N 2 32 0 
N 34 50 0 
N 71 70 0 
N 1 55 0 
N 15 62 0 
N 84 32 0 
N 49 10 0 
N 39 41 0 
N 93 91 0 
N 69 35 0 
N 69 11 0 
N 2 48 0 
N 85 65 0 
N 52 54 0 
N 47 33 0 
N 41 82 0 
N 60 52 0 
N 46 87 0 
N 26 9 0 
N 83 89 0 
N 15 98 0 
N 33 98 0 
N 96 66 0 
N 37 6 0 
N 61 93 0 
N 15 81 0 
N 61 48 0 
N 92 50 0 
N 2 60 0 
N 49 55 0 
N 12 10 0 
N 93 22 0 
N 44 67 0 
N 76 39 0 
N 2 46 0 
N 37 41 0 
N 62 75 0 
N 5 63 0 
N 1 10 0 
N 28 96 0 
N 79 77 0 
N 34 41 0 
N 79 54 0 
N 70 80 0 
N 23 78 0 
N 61 74 0 
N 68 54 0 
N 89 34 0 
N 12 46 0 
N 25 88 0 
N 4 92 0 
N 37 3 0 
N 83 45 0 
N 36 37 0 
N 3 51 0 
N 78 70 0 
N 72 27 0 
N 6 81 0 
N 19 18 0 
N 56 77 0 
N 47 28 0 
N 30 89 0 
N 9 38 0 
N 48 22 0 
N 96 83 0 
N 70 15 0 
N 10 47 0 
N 80 7 0 
N 77 68 0 
N 47 10 0 
N 71 15 0 
N 1 79 0 
N 1 35 0 
N 58 2 0 
N 56 21 0 
N 0 30 0 
N 35 83 0 
N 19 70 0 
N 37 50 0 
N 36 77 0 
N 85 36 0 
N 12 53 0 
N 80 15 0 
N 5 68 0 
N 60 63 0 
N 77 33 0 
N 22 21 0 
N 52 92 0 
N 71 31 0 
N 94 82 0 
N 55 89 0 
N 67 53 0 
N 89 14 0 
N 41 63 0 
N 17 44 0 
N 71 35 0 
N 11 60 0 
N 96 43 0 
N 4 32 0 
N 81 53 0 
N 17 11 0 
N 15 59 0 
N 64 68 0 
N 56 41 0 
N 25 80 0 
N 77 6 0 
N 70 74 0 
N 89 25 0 
N 69 38 0 
N 87 43 0 
N 16 45 0 
N 50 82 0 
N 70 99 0 
N 32 70 0 
N 61 62 0 
N 43 7 0 
N 29 98 0 
N 61 11 0 
N 74 27 0 
N 16 92 0 
N 10 91 0 
N 71 54 0 
N 23 72 0 
N 94 45 0 
N 83 91 0 
N 0 84 0 
N 51 60 0 
N 12 65 0 
N 38 48 0 
N 18 46 0 
N 6 75 0 
N 5 10 0 
N 52 26 0 
N 66 83 0 
N 28 95 0 
N 19 28 0 
N 93 20 0 
N 97 68 0 
N 31 74 0 
N 27 43 0 
N 13 35 0 
N 69 2 0 
N 14 25 0 
N 83 36 0 
N 52 45 0 
N 9 70 0 
N 88 32 0 
N 25 16 0 
N 41 20 0 
N 81 92 0 
N 41 90 0 
N 14 57 0 
N 48 93 0 
N 95 74 0 
N 2 35 0 
N 21 34 0 
N 27 22 0 
N 82 25 0 
N 88 5 0 
N 98 96 0 
N 15 86 0 
N 27 33 0 
N 60 29 0 
N 96 56 0 
N 75 34 0 
N 19 81 0 
N 11 69 0 
N 17 27 0 
N 31 31 0 
N 78 6 0 
N 96 63 0 
N 65 15 0 
N 21 4 0 
N 87 64 0 
N 59 13 0 
N 30 95 0 
N 61 24 0 
N 90 18 0 
N 97 97 0 
N 96 97 0 
N 19 84 0 
N 68 3 0 
N 2 34 0 
N 2 56 0 
N 81 57 0 
N 92 86 0 
N 34 89 0 
N 62 47 0 
N 72 46 0 
N 8 3 0 
N 65 43 0 
N 45 94 0 
N 27 37 0 
N 69 37 0 
N 84 57 0 
N 69 19 0 
N 96 74 0 
N 59 67 0 
N 14 78 0 
N 88 36 0 
N 31 90 0 
N 19 69 0 
N 86 71 0 
N 28 41 0 
N 85 42 0 
N 40 81 0 
N 76 88 0 
N 74 22 0 
N 80 17 0 
N 15 11 0 
N 9 50 0 
N 54 40 0 
N 58 40 0 
N 95 27 0 
N 14 37 0 
N 38 15 0 
N 86 44 0 
N 14 58 0 
N 94 3 0 
N 15 67 0 
N 85 62 0 
N 17 13 0 
N 45 73 0 
N 75 69 0 
N 76 69 0 
N 6 73 0 
N 67 55 0 
N 9 62 0 
N 36 98 0 
N 7 12 0 
N 44 19 0 
N 59 55 0 
N 35 22 0 
N 87 4 0 
N 51 50 0 
N 78 78 0 
N 86 96 0 
N 65 28 0 
N 10 96 0 
N 84 81 0 
N 80 71 0 
N 5 45 0 
N 50 69 0 
N 53 26 0 
N 64 39 0 
N 78 47 0 
N 93 3 0 
N 90 25 0 
N 30 28 0 
N 27 7 0 
N 50 5 0 
N 96 79 0 
N 94 21 0 
N 63 22 0 
N 79 97 0 
N 11 99 0 
N 61 45 0 
N 24 85 0 
N 80 14 0 
N 17 3 0 
N 50 20 0 
N 30 39 0 
N 28 84 0 
N 47 30 0 
N 12 58 0 
N 99 49 0 
N 50 85 0 
N 77 19 0 
N 2 99 0 
N 64 58 0 
N 60 79 0 
N 30 59 0 
N 83 11 0 
N 38 20 0 
N 64 75 0 
N 58 91 0 
N 84 52 0 
N 19 88 0 
N 43 2 0 
N 11 47 0 
N 15 87 0 
N 49 3 0 
N 52 98 0 
N 36 74 0 
N 57 19 0 
N 42 26 0 
N 88 14 0 
N 17 48 0 
N 30 80 0 
N 61 12 0 
N 45 39 0 
N 0 4 0 
N 86 75 0 
N 90 35 0 
N 58 34 0 
N 57 61 0 
N 29 56 0 
N 43 92 0 
N 98 48 0 
N 33 72 0 
N 48 37 0 
N 47 29 0 
N 42 23 0 
N 70 25 0 
N 38 78 0 
N 78 98 0 
N 46 75 0 
N 25 10 0 
N 77 2 0 
N 27 95 0 
N 56 36 0 
N 11 77 0 
N 81 88 0 
N 93 48 0 
N 23 96 0 
N 50 60 0 
N 22 31 0 
N 70 73 0 
N 36 38 0 
N 98 56 0 
N 51 59 0 
N 27 39 0 
N 18 16 0 
N 42 59 0 
N 63 24 0 
N 75 73 0 
N 49 77 0 
N 56 8 0 
N 96 42 0 
N 3 44 0 
N 72 45 0 
N 31 82 0 
N 75 37 0 
N 37 99 0 
N 63 67 0 
N 67 92 0 
N 45 47 0 
N 76 45 0 
N 2 9 0 
N 11 3 0 
N 63 76 0 
N 7 27 0 
N 11 53 0 
N 2 86 0 
N 90 68 0 
N 32 33 0 
N 64 30 0 
N 40 68 0 
N 68 51 0 
N 25 53 0 
N 51 26 0 
N 20 44 0 
N 58 97 0 
N 95 41 0 
N 55 96 0 
N 40 61 0 
N 35 24 0 
N 49 51 0 
N 60 21 0 
N 20 4 0 
N 93 72 0 
N 37 37 0 
N 18 11 0 
N 34 7 0 
N 78 7 0 
N 44 40 0 
N 47 42 0 
N 6 37 0 
N 78 82 0 
N 37 23 0 
N 94 77 0 
N 5 51 0 
N 53 13 0 
N 78 31 0 
N 5 11 0 
N 82 77 0 
N 50 62 0 
N 56 11 0 
N 47 22 0 
N 57 73 0 
N 94 73 0 
N 28 22 0 
N 42 57 0 
N 77 62 0 
N 80 54 0 
N 78 40 0 
N 84 58 0 
N 79 76 0 
N 39 83 0 
N 98 42 0 
N 62 23 0 
N 40 20 0 
N 11 59 0 
N 3 45 0 
N 17 61 0 
N 32 52 0 
N 59 48 0 
N 43 19 0 
N 76 23 0 
N 82 59 0 
N 55 98 0 
N 73 25 0 
N 87 39 0 
N 67 29 0 
N 29 96 0 
N 9 58 0 
N 50 21 0 
N 3 35 0 
N 54 44 0 
N 11 43 0 
N 1 26 0 
N 30 46 0 
N 95 77 0 
N 29 95 0 
N 85 31 0 
N 95 13 0 
N 2 40 0 
N 63 21 0 
N 34 12 0 
N 44 91 0 
N 58 55 0 
N 75 10 0 
N 70 32 0 
N 37 25 0 
N 68 86 0 
N 23 39 0 
N 22 47 0 
N 82 12 0 
N 10 14 0 
N 57 60 0 
N 85 8 0 
N 22 5 0 
N 35 17 0 
N 76 29 0 
N 7 93 0 
N 22 53 0 
N 64 59 0 
N 47 50 0 
N 5 92 0 
N 95 97 0 
N 55 23 0 
N 19 67 0 
N 68 92 0 
N 93 56 0 
N 53 45 0 
N 24 73 0 
N 23 47 0 
N 74 9 0 
N 64 67 0 
N 94 74 0 
N 68 52 0 
N 37 7 0 
N 66 41 0 
N 27 50 0 
N 54 69 0 
N 5 58 0 
N 79 60 0 
N 46 71 0 
N 5 82 0 
N 28 57 0 
N 80 55 0 
N 20 15 0 
N 57 54 0 
N 41 22 0 
N 99 20 0 
N 63 35 0 
N 23 32 0 
N 5 67 0 
N 71 7 0 
N 54 92 0 
N 8 58 0 
N 97 4 0 
N 71 76 0 
C 0 0 0 
C 25 0 0 
C 50 0 0 
C 75 0 0 
C 100 0 0 
C 0 25 0 
C 25 25 0 
C 50 25 0 
C 75 25 0 
C 100 25 0 
C 0 50 0 
C 25 50 0 
C 50 50 0 
C 75 50 0 
C 100 50 0 
C 0 75 0 
C 25 75 0 
C 50 75 0 
C 75 75 0 
C 100 75 0 
C 0 100 0 
C 25 100 0 
C 50 100 0 
C 75 100 0 
C 100 100 0 
O 40 36 0 
O 24 15 0 
O 19 95 0 
O 65 10 0 
O 51 78 0 
O 39 62 0 
O 5 21 0 
O 38 14 0 
O 76 67 0 
O 68 56 0 
O 20 55 0 
O 37 83 0 
O 85 43 0 
O 54 98 0 
O 99 47 0 
O 59 62 0 
O 18 98 0 
O 69 93 0 
O 21 36 0 
O 84 25 0 
O 72 92 0 
O 83 33 0 
O 90 58 0 
O 49 22 0 
O 50 40 0 
O 33 76 0 
O 77 39 0 
O 96 29 0 
O 57 63 0 
O 19 62 0 
O 97 66 0 
O 67 43 0 
O 40 41 0 
O 59 98 0 
O 75 8 0 
O 27 11 0 
O 71 64 0 
O 54 82 0 
O 87 65 0 
O 85 77 0 
O 98 82 0 
O 44 13 0 
O 59 73 0 
O 40 89 0 
O 49 42 0 
O 19 23 0 
O 88 75 0 
O 16 20 0 
O 23 68 0 
O 70 92 0 
O 66 60 0 
O 25 86 0 
O 23 61 0 
O 22 23 0 
O 48 66 0 
O 65 82 0 
O 90 59 0 
O 67 17 0 
O 20 25 0 
O 57 92 0 
O 61 50 0 
O 35 99 0 
O 77 48 0 
O 57 7 0 
O 16 94 0 
O 44 48 0 
O 67 59 0 
O 14 99 0 
O 46 37 0 
O 90 31 0 
O 5 65 0 
O 16 5 0 
O 30 75 0 
O 18 62 0 
O 40 37 0 
O 59 1 0 
O 33 66 0 
O 9 46 0 
O 81 55 0 
O 71 97 0 
O 0 1 0 
O 64 0 0 
O 93 61 0 
O 51 53 0 
O 59 31 0 
O 3 81 0 
O 16 47 0 
O 28 80 0 
O 99 26 0 
O 71 79 0 
O 49 46 0 
O 99 62 0 
O 66 97 0 
O 42 94 0 
O 10 22 0 
O 65 89 0 
O 52 76 0 
O 48 32 0 
O 70 56 0 
O 77 83 0 
O 29 31 0 
O 48 4 0 
O 30 10 0 
O 10 52 0 
O 95 48 0 
O 64 88 0 
O 15 63 0 
O 47 44 0 
O 51 11 0 
O 64 23 0 
O 63 53 0 
O 64 54 0 
O 73 1 0 
O 27 73 0 
O 79 24 0 
O 35 66 0 
O 33 60 0 
O 13 66 0 
O 86 57 0 
O 3 71 0 
O 51 99 0 
O 0 9 0 
O 36 29 0 
O 59 53 0 
O 3 33 0 
O 4 34 0 
O 31 76 0 
O 18 68 0 
O 7 20 0 
O 35 53 0 
O 20 53 0 
O 95 15 0 
O 59 33 0 
O 85 47 0 
O 87 26 0 
O 31 92 0 
O 0 56 0 
O 48 9 0 
O 49 68 0 
O 82 40 0 
O 66 54 0 
O 81 38 0 
O 40 55 0 
O 36 22 0 
O 45 2 0 
O 9 24 0 
O 36 82 0 
O 9 97 0 
O 73 21 0 
O 2 8 0 
O 64 40 0 
O 71 98 0 
O 37 58 0 
O 88 90 0 
O 10 69 0 
O 69 87 0 
O 14 82 0 
O 62 35 0 
O 45 76 0 
O 88 76 0 
O 45 45 0 
O 86 85 0 
O 6 0 0 
O 27 56 0 
O 88 69 0 
O 76 8 0 
O 68 1 0 
O 18 54 0 
O 27 9 0 
O 56 84 0 
O 85 82 0 
O 49 49 0 
O 0 12 0 
O 58 54 0 
O 99 13 0 
O 86 24 0 
O 99 79 0 
O 77 28 0 
O 34 60 0 
O 54 52 0 
O 87 31 0 
O 49 83 0 
O 44 1 0 
O 92 31 0 
O 95 14 0 
O 76 70 0 
O 50 74 0 
O 32 68 0 
O 66 80 0 
O 25 13 0 
O 11 27 0 
O 3 38 0 
O 36 88 0 
O 56 55 0 
O 22 94 0 
O 11 37 0 
O 62 13 0 
O 38 81 0 
O 2 74 0 
O 76 95 0 
O 88 3 0 
O 82 87 0 
O 33 18 0 
O 50 98 0 
O 66 65 0 
O 31 19 0 
O 9 27 0 
O 83 7 0 
O 22 93 0 
O 54 11 0 
O 60 68 0 
O 84 17 0 
O 76 92 0 
O 94 19 0 
O 66 67 0 
O 25 72 0 
O 93 29 0 
O 52 6 0 
O 78 76 0 
O 21 95 0 
O 36 10 0 
O 13 59 0 
O 60 88 0 
O 8 1 0 
O 31 93 0 
O 28 20 0 
O 38 58 0 
O 74 62 0 
O 15 5 0 
O 53 82 0 
O 43 67 0 
O 60 0 0 
O 46 41 0 
O 90 87 0 
O 84 46 0 
O 12 35 0 
O 74 2 0 
O 99 27 0 
O 74 93 0 
O 58 69 0 
O 2 2 0 
O 7 2 0 
O 19 61 0 
O 14 88 0 
O 88 88 0 
O 63 86 0 
O 73 95 0 
O 38 82 0 
O 8 24 0 
O 37 97 0 
O 63 10 0 
O 3 23 0 
O 73 94 0 
O 35 10 0 
O 38 54 0 
O 30 33 0 
O 50 58 0 
O 27 69 0 
O 73 78 0 
O 28 49 0 
O 27 74 0 
O 61 20 0 
O 92 18 0 
O 24 63 0 
O 70 86 0 
O 67 60 0 
O 49 75 0 
O 96 21 0 
O 98 7 0 
O 56 88 0 
O 67 40 0 
O 37 13 0 
O 86 87 0 
O 50 48 0 
O 47 16 0 
O 18 45 0 
O 55 68 0 
O 74 45 0 
O 21 65 0 
O 13 64 0 
O 35 8 0 
O 72 71 0 
O 88 13 0 
O 44 34 0 
O 94 84 0 
O 38 0 0 
O 31 51 0 
O 80 42 0 
O 85 54 0 
O 49 25 0 
O 30 21 0 
O 21 6 0 
O 42 24 0 
O 4 85 0 
O 80 52 0 
O 47 65 0 
O 82 0 0 
O 47 69 0 
O 91 28 0 
O 8 91 0 
O 12 76 0 
O 15 38 0 
O 97 77 0 
O 87 89 0 
O 38 38 0 
O 14 7 0 
O 76 35 0 
O 31 58 0 
O 62 92 0 
O 67 87 0 
O 36 13 0 
O 21 45 0 
O 18 9 0 
O 32 73 0 
O 2 13 0 
O 94 4 0 
O 28 36 0 
O 77 97 0 
O 29 58 0 
O 32 29 0 
O 1 59 0 
O 93 90 0 
O 62 86 0 
O 52 15 0 
O 48 70 0 
O 28 92 0 
O 53 60 0 
O 31 4 0 
O 77 10 0 
O 7 45 0 
O 50 56 0 
O 6 12 0 
O 7 23 0 
O 95 32 0 
O 43 4 0 
O 71 72 0 
O 25 23 0 
O 43 14 0 
O 77 93 0 
O 58 89 0 
O 66 14 0 
O 74 48 0 
O 85 69 0 
O 4 17 0 
O 97 27 0 
O 86 99 0 
O 74 3 0 
O 56 81 0 
O 27 20 0 
O 17 26 0 
O 64 86 0 
O 79 65 0 
O 25 11 0 
O 67 6 0 
O 84 20 0 
O 47 70 0 
O 7 82 0 
O 55 66 0 
O 63 60 0 
O 29 91 0 
O 7 90 0 
O 99 2 0 
O 42 91 0 
O 5 47 0 
O 25 60 0 
O 16 53 0 
O 6 16 0 
O 77 7 0 
O 39 59 0 
O 94 33 0 
O 27 81 0 
O 58 74 0 
O 56 57 0 
O 39 21 0 
O 11 4 0 
O 70 30 0 
O 18 92 0 
O 7 25 0 
O 19 6 0 
O 91 32 0 
O 93 78 0 
O 42 63 0 
O 19 1 0 
O 88 26 0 
O 29 86 0 
O 2 17 0 
O 56 97 0 
O 12 30 0 
O 14 73 0 
O 72 58 0 
O 18 83 0 
O 37 84 0 
O 60 94 0 
O 62 14 0 
O 41 66 0 
O 70 63 0 
O 99 28 0 
O 4 36 0 
O 77 89 0 
O 24 62 0 
O 91 27 0 
O 76 7 0 
O 31 99 0 
O 81 56 0 
O 25 71 0 
O 87 24 0 
O 26 51 0 
O 11 46 0 
O 85 5 0 
O 64 61 0 
O 10 66 0 
O 53 93 0 
O 35 20 0 
O 26 54 0 
O 38 39 0 
O 99 17 0 
O 79 81 0 
O 84 43 0 
O 45 92 0 
O 96 93 0 
O 0 62 0 
O 29 39 0 
O 57 22 0 
O 69 89 0 
O 34 99 0 
O 62 3 0 
O 43 46 0 
O 71 56 0 
O 14 65 0 
O 94 49 0 
O 3 20 0 
O 97 51 0 
O 40 33 0 
O 12 98 0 
O 78 71 0 
O 86 32 0 
O 35 13 0 
O 35 62 0 
O 80 59 0 
O 73 50 0 
O 9 86 0 
O 76 1 0 
O 90 80 0 
O 67 19 0 
O 12 43 0 
O 78 13 0 
O 51 1 0 
O 90 11 0 
O 7 42 0 
O 58 86 0 
O 72 91 0 
O 1 49 0 
O 87 97 0 
O 14 56 0 
O 49 84 0 
O 61 16 0 
O 26 23 0 
O 31 47 0 
O 57 80 0 
O 49 71 0 
O 14 84 0 
O 56 38 0 
O 62 10 0 
O 86 53 0 
O 3 40 0 
O 0 60 0 
O 36 8 0 
O 5 76 0 
O 1 57 0 
O 29 34 0 
O 93 54 0 
O 88 86 0 
O 39 93 0 
O 57 41 0 
O 60 75 0 
O 58 20 0 
O 20 24 0 
O 89 97 0 
O 27 48 0 
O 85 26 0 
O 22 75 0 
O 5 90 0 
O 70 3 0 
O 1 18 0 
O 13 32 0 
O 30 2 0 
O 36 66 0 
O 37 21 0 
O 28 15 0 
O 28 61 0 
O 69 82 0 
O 81 62 0 
O 12 84 0 
O 50 93 0 
O 2 97 0 
O 78 14 0 
O 6 15 0 
O 69 33 0 
O 72 5 0 
O 81 35 0 
O 89 95 0 
O 16 19 0 
O 59 84 0 
O 67 69 0 
O 39 73 0 
O 77 87 0 
O 97 74 0 
O 32 45 0 
O 64 65 0 
O 97 82 0 
O 96 33 0 
O 26 86 0 
O 59 82 0 
O 96 44 0 
O 25 55 0 
O 86 14 0 
O 92 62 0 
O 75 98 0 
O 98 24 0 
O 91 1 0 
O 15 24 0 
O 5 87 0 
O 98 73 0 
O 43 58 0 
O 74 15 0 
O 6 43 0 
O 2 0 0 
O 63 84 0 
O 5 1 0 
O 28 33 0 
O 38 79 0 
O 97 96 0 
O 53 20 0 
O 83 34 0 
O 25 65 0 
O 0 28 0 
O 70 53 0 
O 90 26 0 
O 46 40 0 
O 29 52 0 
O 0 21 0 
O 29 81 0 
O 36 72 0 
O 4 1 0 
O 98 29 0 
O 97 62 0 
O 0 89 0 
O 83 99 0 
O 24 48 0 
O 82 1 0 
O 98 23 0 
O 78 34 0 
O 49 39 0 
O 28 19 0 
O 37 47 0 
O 72 18 0 
O 9 36 0 
O 80 50 0 
O 36 71 0 
O 6 91 0 
O 19 43 0 
O 18 75 0 
O 33 96 0 
O 37 59 0 
O 7 34 0 
O 44 61 0 
O 42 8 0 
O 31 43 0 
O 85 56 0 
O 49 53 0 
O 41 10 0 
O 78 84 0 
O 66 39 0 
O 81 58 0 
O 70 93 0 
O 55 81 0 
O 63 74 0 
O 8 86 0 
O 67 47 0 
O 40 23 0 
O 63 12 0 
O 77 49 0 
O 62 45 0 
O 88 28 0 
O 3 60 0 
O 7 13 0 
O 29 9 0 
O 70 29 0 
O 25 17 0 
O 97 89 0 
O 26 11 0 
O 27 67 0 
O 83 6 0 
O 53 0 0 
O 9 90 0 
O 61 64 0 
O 92 30 0 
O 45 31 0 
O 75 7 0 
O 26 21 0 
O 1 80 0 
O 25 61 0 
O 62 46 0 
O 26 65 0 
O 63 66 0 
O 47 46 0 
O 86 64 0 
O 34 43 0 
O 43 73 0 
O 86 73 0 
O 84 14 0 
O 47 59 0 
O 3 89 0 
O 47 90 0 
O 25 59 0 
O 97 47 0 
1088
Atoms. Timestep: 5
N 7 27 0 
N 74 62 0 
N 84 57 0 
N 14 21 0 
N 16 18 0 
N 20 26 0 
N 7 11 0 
N 13 94 0 
N 2 9 0 
N 17 48 0 
N 63 33 0 
N 33 76 0 
N 27 31 0 
N 79 34 0 
N 53 76 0 
N 30 34 0 
N 20 67 0 
N 63 40 0 
N 23 72 0 
N 42 81 0 
N 95 7 0 
N 98 40 0 
N 24 24 0 
N 84 26 0 
N 16 25 0 
N 32 76 0 
N 27 30 0 
N 2 32 0 
N 34 51 0 
N 71 71 0 
N 0 55 0 
N 15 63 0 
N 83 32 0 
N 48 10 0 
N 40 41 0 
N 93 90 0 
N 69 34 0 
N 69 10 0 
N 2 49 0 
N 86 65 0 
N 52 53 0 
N 47 32 0 
N 40 82 0 
N 60 53 0 
N 46 88 0 
N 27 9 0 
N 83 88 0 
N 15 99 0 
N 33 99 0 
N 97 66 0 
N 37 7 0 
N 62 93 0 
N 14 81 0 
N 61 49 0 
N 93 50 0 
N 3 60 0 
N 49 56 0 
N 11 10 0 
N 94 22 0 
N 43 67 0 
N 77 39 0 
N 2 47 0 
N 38 41 0 
N 61 75 0 
N 5 64 0 
N 0 10 0 
N 28 95 0 
N 79 78 0 
N 34 42 0 
N 78 54 0 
N 70 79 0 
N 22 78 0 
N 60 74 0 
N 68 54 0 
N 89 33 0 
N 12 46 0 
N 25 87 0 
N 4 91 0 
N 38 3 0 
N 84 45 0 
N 37 37 0 
N 3 50 0 
N 78 71 0 
N 72 28 0 
N 7 81 0 
N 19 19 0 
N 56 78 0 
N 47 29 0 
N 30 90 0 
N 9 37 0 
N 49 22 0 
N 96 82 0 
N 71 15 0 
N 9 47 0 
N 81 7 0 
N 76 68 0 
N 47 9 0 
N 72 15 0 
N 1 80 0 
N 1 34 0 
N 58 1 0 
N 56 22 0 
N 0 29 0 
N 36 83 0 
N 19 69 0 
N 37 49 0 
N 36 76 0 
N 85 37 0 
N 12 52 0 
N 79 15 0 
N 5 67 0 
N 59 63 0 
N 77 34 0 
N 22 22 0 
N 52 93 0 
N 71 30 0 
N 94 83 0 
N 56 89 0 
N 66 53 0 
N 88 14 0 
N 42 63 0 
N 18 44 0 
N 71 34 0 
N 11 59 0 
N 96 44 0 
N 3 32 0 
N 81 52 0 
N 18 11 0 
N 15 59 0 
N 64 67 0 
N 57 41 0 
N 26 80 0 
N 76 6 0 
N 70 73 0 
N 88 25 0 
N 68 38 0 
N 86 43 0 
N 16 46 0 
N 50 83 0 
N 70 98 0 
N 32 69 0 
N 60 62 0 
N 43 8 0 
N 29 99 0 
N 60 11 0 
N 74 28 0 
N 16 93 0 
N 9 91 0 
N 71 55 0 
N 24 72 0 
N 95 45 0 
N 82 91 0 
N 99 84 0 
N 52 60 0 
N 13 65 0 
N 37 48 0 
N 18 45 0 
N 5 75 0 
N 6 10 0 
N 52 25 0 
N 65 83 0 
N 28 94 0 
N 19 27 0 
N 93 19 0 
N 97 67 0 
N 31 75 0 
N 28 43 0 
N 12 35 0 
N 69 1 0 
N 14 24 0 
N 83 35 0 
N 52 46 0 
N 9 69 0 
N 88 31 0 
N 25 17 0 
N 41 21 0 
N 80 92 0 
N 41 89 0 
N 14 56 0 
N 49 93 0 
N 96 74 0 
N 3 35 0 
N 21 35 0 
N 27 21 0 
N 83 25 0 
N 88 4 0 
N 98 95 0 
N 15 87 0 
N 28 33 0 
N 60 30 0 
N 95 56 0 
N 75 35 0 
N 18 81 0 
N 10 69 0 
N 17 26 0 
N 30 31 0 
N 78 7 0 
N 97 63 0 
N 66 15 0 
N 21 5 0 
N 87 65 0 
N 60 13 0 
N 30 94 0 
N 62 24 0 
N 91 18 0 
N 97 96 0 
N 96 96 0 
N 19 83 0 
N 68 2 0 
N 2 33 0 
N 1 56 0 
N 81 56 0 
N 91 86 0 
N 35 89 0 
N 62 46 0 
N 71 46 0 
N 8 2 0 
N 66 43 0 
N 45 93 0 
N 27 36 0 
N 69 36 0 
N 85 57 0 
N 68 19 0 
N 97 74 0 
N 59 68 0 
N 14 79 0 
N 88 35 0 
N 31 91 0 
N 19 68 0 
N 86 70 0 
N 28 40 0 
N 85 43 0 
N 39 81 0 
N 77 88 0 
N 74 21 0 
N 81 17 0 
N 15 10 0 
N 9 51 0 
N 53 40 0 
N 58 41 0 
N 96 27 0 
N 14 38 0 
N 38 14 0 
N 85 44 0 
N 14 59 0 
N 94 4 0 
N 14 67 0 
N 85 63 0 
N 17 12 0 
N 44 73 0 
N 76 69 0 
N 76 70 0 
N 5 73 0 
N 68 55 0 
N 9 63 0 
N 35 98 0 
N 6 12 0 
N 44 18 0 
N 59 54 0 
N 36 22 0 
N 87 3 0 
N 51 51 0 
N 78 79 0 
N 86 97 0 
N 65 27 0 
N 9 96 0 
N 84 82 0 
N 79 71 0 
N 6 45 0 
N 50 68 0 
N 53 25 0 
N 65 39 0 
N 78 48 0 
N 93 4 0 
N 90 24 0 
N 31 28 0 
N 27 8 0 
N 49 5 0 
N 97 79 0 
N 94 20 0 
N 64 22 0 
N 78 97 0 
N 12 99 0 
N 62 45 0 
N 24 86 0 
N 79 14 0 
N 17 4 0 
N 49 20 0 
N 29 39 0 
N 29 84 0 
N 48 30 0 
N 13 58 0 
N 99 48 0 
N 50 84 0 
N 77 20 0 
N 2 98 0 
N 64 59 0 
N 60 80 0 
N 31 59 0 
N 83 10 0 
N 38 21 0 
N 64 74 0 
N 57 91 0 
N 84 53 0 
N 18 88 0 
N 44 2 0 
N 11 46 0 
N 14 87 0 
N 48 3 0 
N 52 99 0 
N 36 73 0 
N 58 19 0 
N 42 25 0 
N 88 13 0 
N 16 48 0 
N 29 80 0 
N 61 13 0 
N 46 39 0 
N 0 3 0 
N 87 75 0 
N 90 34 0 
N 58 33 0 
N 57 62 0 
N 28 56 0 
N 42 92 0 
N 98 47 0 
N 33 73 0 
N 47 37 0 
N 48 29 0 
N 42 24 0 
N 70 26 0 
N 38 79 0 
N 77 98 0 
N 45 75 0 
N 25 11 0 
N 77 1 0 
N 27 94 0 
N 56 37 0 
N 11 76 0 
N 82 88 0 
N 94 48 0 
N 23 95 0 
N 50 59 0 
N 22 32 0 
N 70 72 0 
N 36 38 0 
N 97 56 0 
N 51 58 0 
N 28 39 0 
N 17 16 0 
N 43 59 0 
N 64 24 0 
N 76 73 0 
N 49 76 0 
N 56 7 0 
N 96 42 0 
N 4 44 0 
N 73 45 0 
N 31 81 0 
N 75 36 0 
N 36 99 0 
N 63 66 0 
N 68 92 0 
N 44 47 0 
N 75 45 0 
N 2 8 0 
N 11 4 0 
N 63 75 0 
N 8 27 0 
N 10 53 0 
N 3 86 0 
N 90 69 0 
N 31 33 0 
N 63 30 0 
N 41 68 0 
N 69 51 0 
N 26 53 0 
N 51 25 0 
N 21 44 0 
N 59 97 0 
N 95 42 0 
N 55 97 0 
N 40 62 0 
N 36 24 0 
N 49 50 0 
N 61 21 0 
N 20 5 0 
N 93 71 0 
N 37 38 0 
N 18 10 0 
N 34 8 0 
N 77 7 0 
N 45 40 0 
N 48 42 0 
N 5 37 0 
N 77 82 0 
N 36 23 0 
N 94 78 0 
N 5 50 0 
N 54 13 0 
N 78 32 0 
N 5 12 0 
N 83 77 0 
N 50 61 0 
N 55 11 0 
N 47 22 0 
N 58 73 0 
N 95 73 0 
N 28 21 0 
N 42 58 0 
N 76 62 0 
N 80 53 0 
N 78 39 0 
N 85 58 0 
N 78 76 0 
N 38 83 0 
N 98 43 0 
N 63 23 0 
N 40 21 0 
N 12 59 0 
N 4 45 0 
N 18 61 0 
N 32 51 0 
N 59 47 0 
N 43 18 0 
N 77 23 0 
N 81 59 0 
N 54 98 0 
N 73 24 0 
N 87 40 0 
N 68 29 0 
N 30 96 0 
N 10 58 0 
N 49 21 0 
N 3 34 0 
N 54 43 0 
N 12 43 0 
N 2 26 0 
N 31 46 0 
N 96 77 0 
N 29 94 0 
N 86 31 0 
N 95 14 0 
N 3 40 0 
N 64 21 0 
N 34 13 0 
N 43 91 0 
N 58 56 0 
N 75 9 0 
N 70 31 0 
N 37 24 0 
N 68 87 0 
N 24 39 0 
N 21 47 0 
N 83 12 0 
N 9 14 0 
N 57 60 0 
N 84 8 0 
N 22 6 0 
N 34 17 0 
N 76 28 0 
N 8 93 0 
N 21 53 0 
N 63 59 0 
N 48 50 0 
N 5 91 0 
N 95 96 0 
N 56 23 0 
N 18 67 0 
N 68 93 0 
N 93 55 0 
N 53 46 0 
N 25 73 0 
N 24 47 0 
N 74 8 0 
N 65 67 0 
N 94 74 0 
N 69 52 0 
N 37 8 0 
N 66 40 0 
N 28 50 0 
N 54 68 0 
N 5 59 0 
N 79 59 0 
N 46 70 0 
N 6 82 0 
N 27 57 0 
N 81 55 0 
N 21 15 0 
N 58 54 0 
N 41 23 0 
N 98 20 0 
N 62 35 0 
N 23 33 0 
N 5 66 0 
N 71 6 0 
N 53 92 0 
N 8 59 0 
N 96 4 0 
N 71 77 0 
C 0 0 0 
C 25 0 0 
C 50 0 0 
C 75 0 0 
C 100 0 0 
C 0 25 0 
C 25 25 0 
C 50 25 0 
C 75 25 0 
C 100 25 0 
C 0 50 0 
C 25 50 0 
C 50 50 0 
C 75 50 0 
C 100 50 0 
C 0 75 0 
C 25 75 0 
C 50 75 0 
C 75 75 0 
C 100 75 0 
C 0 100 0 
C 25 100 0 
C 50 100 0 
C 75 100 0 
C 100 100 0 
O 41 36 0 
O 23 15 0 
O 19 94 0 
O 65 11 0 
O 52 78 0 
O 39 61 0 
O 4 21 0 
O 75 67 0 
O 68 57 0 
O 21 55 0 
O 37 84 0 
O 0 47 0 
O 58 62 0 
O 18 97 0 
O 69 92 0 
O 21 37 0 
O 84 24 0 
O 72 91 0 
O 84 33 0 
O 90 59 0 
O 50 41 0 
O 95 29 0 
O 56 63 0 
O 19 61 0 
O 67 44 0 
O 58 98 0 
O 76 8 0 
O 27 10 0 
O 70 64 0 
O 54 83 0 
O 85 76 0 
O 98 81 0 
O 44 12 0 
O 59 74 0 
O 39 89 0 
O 50 42 0 
O 19 24 0 
O 89 75 0 
O 17 20 0 
O 22 68 0 
O 70 93 0 
O 66 61 0 
O 25 85 0 
O 23 60 0 
O 23 23 0 
O 48 67 0 
O 64 82 0 
O 91 59 0 
O 67 18 0 
O 20 24 0 
O 56 92 0 
O 62 50 0 
O 34 99 0 
O 76 48 0 
O 57 8 0 
O 16 95 0 
O 44 49 0 
O 67 60 0 
O 14 98 0 
O 46 38 0 
O 90 30 0 
O 6 65 0 
O 15 5 0 
O 29 75 0 
O 17 62 0 
O 39 37 0 
O 59 0 0 
O 34 66 0 
O 8 46 0 
O 72 97 0 
O 0 2 0 
O 63 0 0 
O 92 61 0 
O 51 52 0 
O 60 31 0 
O 4 81 0 
O 15 47 0 
O 27 80 0 
O 99 27 0 
O 71 80 0 
O 49 45 0 
O 99 61 0 
O 66 98 0 
O 42 93 0 
O 10 21 0 
O 65 88 0 
O 52 77 0 
O 48 31 0 
O 70 57 0 
O 78 83 0 
O 29 30 0 
O 47 4 0 
O 31 10 0 
O 10 51 0 
O 95 47 0 
O 64 89 0 
O 46 44 0 
O 50 11 0 
O 65 23 0 
O 63 52 0 
O 65 54 0 
O 73 2 0 
O 27 72 0 
O 79 25 0 
O 35 65 0 
O 32 60 0 
O 12 66 0 
O 86 56 0 
O 3 72 0 
O 51 98 0 
O 1 9 0 
O 35 29 0 
O 59 52 0 
O 3 33 0 
O 4 33 0 
O 30 76 0 
O 18 69 0 
O 8 20 0 
O 34 53 0 
O 19 53 0 
O 94 15 0 
O 59 32 0 
O 86 47 0 
O 87 27 0 
O 31 93 0 
O 99 56 0 
O 48 8 0 
O 48 68 0 
O 82 41 0 
O 67 54 0 
O 82 38 0 
O 40 56 0 
O 46 2 0 
O 9 23 0 
O 37 82 0 
O 10 97 0 
O 73 22 0 
O 65 40 0 
O 72 98 0 
O 37 59 0 
O 88 91 0 
O 69 88 0 
O 15 82 0 
O 45 77 0 
O 87 76 0 
O 44 45 0 
O 86 86 0 
O 5 0 0 
O 27 55 0 
O 89 69 0 
O 76 7 0 
O 68 0 0 
O 19 54 0 
O 56 85 0 
O 86 82 0 
O 50 49 0 
O 0 11 0 
O 0 13 0 
O 85 24 0 
O 99 78 0 
O 77 29 0 
O 34 61 0 
O 54 53 0 
O 87 32 0 
O 48 83 0 
O 45 1 0 
O 92 32 0 
O 50 73 0 
O 31 68 0 
O 65 80 0 
O 26 13 0 
O 12 27 0 
O 3 37 0 
O 36 87 0 
O 56 56 0 
O 22 93 0 
O 10 37 0 
O 62 14 0 
O 37 81 0 
O 2 73 0 
O 77 95 0 
O 88 2 0 
O 82 86 0 
O 33 19 0 
O 49 98 0 
O 66 64 0 
O 31 20 0 
O 9 28 0 
O 84 7 0 
O 21 93 0 
O 54 10 0 
O 60 67 0 
O 84 18 0 
O 77 92 0 
O 94 18 0 
O 66 66 0 
O 25 71 0 
O 93 28 0 
O 52 5 0 
O 22 95 0 
O 36 11 0 
O 13 60 0 
O 59 88 0 
O 8 0 0 
O 30 93 0 
O 27 20 0 
O 38 57 0 
O 15 4 0 
O 53 81 0 
O 60 1 0 
O 47 41 0 
O 91 87 0 
O 84 47 0 
O 75 2 0 
O 99 28 0 
O 74 92 0 
O 58 70 0 
O 2 3 0 
O 6 2 0 
O 19 60 0 
O 13 88 0 
O 88 89 0 
O 63 85 0 
O 72 95 0 
O 39 82 0 
O 7 24 0 
O 37 98 0 
O 64 10 0 
O 2 23 0 
O 74 94 0 
O 35 9 0 
O 39 54 0 
O 29 33 0 
O 50 57 0 
O 27 68 0 
O 73 79 0 
O 27 49 0 
O 27 75 0 
O 60 20 0 
O 92 17 0 
O 23 63 0 
O 70 87 0 
O 67 61 0 
O 49 74 0 
O 96 22 0 
O 97 7 0 
O 57 88 0 
O 68 40 0 
O 38 13 0 
O 86 88 0 
O 49 48 0 
O 47 17 0 
O 55 69 0 
O 74 44 0 
O 21 64 0 
O 12 64 0 
O 35 7 0 
O 72 70 0 
O 44 33 0 
O 94 85 0 
O 39 0 0 
O 30 51 0 
O 81 42 0 
O 84 54 0 
O 48 25 0 
O 29 21 0 
O 21 7 0 
O 4 84 0 
O 80 51 0 
O 47 64 0 
O 83 0 0 
O 47 70 0 
O 91 27 0 
O 7 91 0 
O 12 75 0 
O 15 37 0 
O 97 76 0 
O 87 90 0 
O 38 39 0 
O 14 8 0 
O 76 34 0 
O 31 57 0 
O 63 92 0 
O 66 87 0 
O 36 12 0 
O 21 46 0 
O 17 9 0 
O 32 72 0 
O 2 14 0 
O 29 36 0 
O 77 96 0 
O 29 57 0 
O 31 29 0 
O 0 59 0 
O 61 86 0 
O 52 14 0 
O 48 69 0 
O 29 92 0 
O 54 60 0 
O 31 5 0 
O 77 9 0 
O 7 44 0 
O 50 55 0 
O 7 22 0 
O 96 32 0 
O 44 4 0 
O 71 73 0 
O 25 22 0 
O 44 14 0 
O 78 93 0 
O 58 88 0 
O 65 14 0 
O 73 48 0 
O 86 69 0 
O 3 17 0 
O 97 28 0 
O 85 99 0 
O 75 3 0 
O 57 81 0 
O 26 20 0 
O 64 87 0 
O 79 66 0 
O 68 6 0 
O 84 19 0 
O 47 71 0 
O 8 82 0 
O 55 67 0 
O 64 60 0 
O 28 91 0 
O 7 89 0 
O 99 1 0 
O 41 91 0 
O 6 47 0 
O 26 60 0 
O 15 53 0 
O 6 17 0 
O 38 59 0 
O 93 33 0 
O 27 82 0 
O 58 75 0 
O 55 57 0 
O 39 22 0 
O 70 29 0 
O 19 92 0 
O 8 25 0 
O 18 6 0 
O 90 32 0 
O 92 78 0 
O 18 1 0 
O 88 27 0 
O 29 87 0 
O 1 17 0 
O 56 98 0 
O 11 30 0 
O 14 74 0 
O 71 58 0 
O 18 82 0 
O 38 84 0 
O 59 94 0 
O 61 14 0 
O 42 66 0 
O 70 62 0 
O 99 29 0 
O 4 37 0 
O 77 90 0 
O 23 62 0 
O 90 27 0 
O 75 7 0 
O 30 99 0 
O 25 70 0 
O 87 23 0 
O 26 52 0 
O 86 5 0 
O 63 61 0 
O 10 67 0 
O 53 94 0 
O 36 20 0 
O 25 54 0 
O 38 40 0 
O 0 17 0 
O 79 80 0 
O 83 43 0 
O 45 91 0 
O 97 93 0 
O 1 62 0 
O 57 23 0 
O 68 89 0 
O 34 0 0 
O 61 3 0 
O 42 46 0 
O 71 57 0 
O 14 66 0 
O 94 50 0 
O 2 20 0 
O 97 52 0 
O 40 32 0 
O 11 98 0 
O 86 33 0 
O 35 14 0 
O 35 61 0 
O 80 58 0 
O 73 49 0 
O 10 86 0 
O 76 2 0 
O 90 81 0 
O 66 19 0 
O 78 12 0 
O 50 1 0 
O 90 12 0 
O 7 43 0 
O 59 86 0 
O 72 90 0 
O 1 48 0 
O 87 98 0 
O 48 84 0 
O 61 17 0 
O 27 23 0 
O 31 48 0 
O 56 80 0 
O 50 71 0 
O 15 84 0 
O 56 39 0 
O 62 11 0 
O 85 53 0 
O 99 60 0 
O 36 9 0 
O 6 76 0 
O 0 57 0 
O 28 34 0 
O 93 53 0 
O 88 87 0 
O 40 93 0 
O 60 76 0 
O 58 21 0 
O 20 23 0 
O 89 98 0 
O 28 48 0 
O 86 26 0 
O 22 76 0 
O 4 90 0 
O 70 4 0 
O 2 18 0 
O 13 31 0 
O 30 3 0 
O 37 66 0 
O 37 20 0 
O 27 15 0 
O 27 61 0 
O 68 82 0 
O 81 61 0 
O 13 84 0 
O 51 93 0 
O 1 97 0 
O 77 14 0 
O 7 15 0 
O 70 33 0 
O 71 5 0 
O 82 35 0 
O 89 96 0 
O 17 19 0 
O 58 84 0 
O 66 69 0 
O 40 73 0 
O 77 86 0 
O 32 44 0 
O 64 66 0 
O 97 83 0 
O 97 33 0 
O 26 85 0 
O 59 83 0 
O 25 56 0 
O 86 15 0 
O 93 62 0 
O 75 99 0 
O 98 25 0 
O 92 1 0 
O 16 24 0 
O 5 88 0 
O 98 74 0 
O 43 57 0 
O 74 16 0 
O 5 43 0 
O 2 99 0 
O 64 84 0 
O 5 2 0 
O 53 21 0 
O 82 34 0 
O 26 65 0 
O 1 28 0 
O 70 54 0 
O 90 25 0 
O 47 40 0 
O 29 53 0 
O 0 20 0 
O 29 82 0 
O 37 72 0 
O 4 0 0 
O 97 29 0 
O 98 62 0 
O 1 89 0 
O 82 99 0 
O 24 49 0 
O 82 2 0 
O 99 23 0 
O 78 35 0 
O 50 39 0 
O 27 19 0 
O 38 47 0 
O 71 18 0 
O 10 36 0 
O 81 50 0 
O 36 70 0 
O 6 90 0 
O 19 44 0 
O 18 74 0 
O 33 95 0 
O 36 59 0 
O 7 35 0 
O 43 61 0 
O 41 8 0 
O 32 43 0 
O 84 56 0 
O 49 52 0 
O 42 10 0 
O 77 84 0 
O 66 38 0 
O 82 58 0 
O 70 94 0 
O 55 82 0 
O 63 73 0 
O 7 86 0 
O 66 47 0 
O 40 24 0 
O 64 12 0 
O 78 49 0 
O 87 28 0 
O 7 14 0 
O 30 9 0 
O 69 29 0 
O 96 89 0 
O 26 10 0 
O 27 66 0 
O 82 6 0 
O 54 0 0 
O 8 90 0 
O 61 65 0 
O 93 30 0 
O 44 31 0 
O 74 7 0 
O 26 22 0 
O 24 61 0 
O 26 64 0 
O 48 46 0 
O 85 64 0 
O 34 44 0 
O 42 73 0 
O 85 73 0 
O 84 15 0 
O 46 59 0 
O 3 88 0 
O 47 89 0 
O 26 59 0 
O 97 48 0 
1024
Atoms. Timestep: 6
N 8 27 0 
N 73 62 0 
N 84 56 0 
N 15 21 0 
N 17 18 0 
N 20 25 0 
N 7 12 0 
N 14 94 0 
N 1 9 0 
N 16 48 0 
N 63 32 0 
N 32 76 0 
N 28 31 0 
N 78 34 0 
N 53 75 0 
N 29 34 0 
N 21 67 0 
N 64 40 0 
N 24 72 0 
N 41 81 0 
N 96 7 0 
N 98 39 0 
N 23 24 0 
N 84 25 0 
N 16 24 0 
N 31 76 0 
N 28 30 0 
N 3 32 0 
N 34 52 0 
N 71 70 0 
N 1 55 0 
N 15 62 0 
N 84 32 0 
N 48 10 0 
N 39 41 0 
N 94 90 0 
N 69 33 0 
N 68 10 0 
N 1 49 0 
N 86 66 0 
N 51 53 0 
N 46 32 0 
N 40 82 0 
N 60 52 0 
N 46 89 0 
N 27 10 0 
N 82 88 0 
N 15 98 0 
N 34 99 0 
N 98 66 0 
N 37 6 0 
N 62 92 0 
N 15 81 0 
N 61 50 0 
N 94 50 0 
N 3 59 0 
N 50 56 0 
N 12 10 0 
N 95 22 0 
N 42 67 0 
N 78 39 0 
N 1 47 0 
N 38 40 0 
N 61 76 0 
N 6 64 0 
N 0 11 0 
N 28 94 0 
N 79 78 0 
N 34 43 0 
N 79 54 0 
N 70 80 0 
N 22 77 0 
N 59 74 0 
N 67 54 0 
N 89 32 0 
N 11 46 0 
N 25 87 0 
N 4 90 0 
N 38 2 0 
N 84 46 0 
N 38 37 0 
N 2 50 0 
N 79 71 0 
N 72 29 0 
N 8 81 0 
N 18 19 0 
N 56 79 0 
N 47 28 0 
N 30 91 0 
N 10 37 0 
N 49 23 0 
N 97 82 0 
N 71 16 0 
N 9 46 0 
N 82 7 0 
N 76 67 0 
N 48 9 0 
N 73 15 0 
N 1 81 0 
N 2 34 0 
N 58 0 0 
N 56 21 0 
N 1 29 0 
N 36 84 0 
N 18 69 0 
N 37 48 0 
N 37 76 0 
N 84 37 0 
N 12 53 0 
N 79 14 0 
N 5 66 0 
N 59 62 0 
N 76 34 0 
N 22 23 0 
N 51 93 0 
N 71 29 0 
N 94 84 0 
N 56 88 0 
N 66 54 0 
N 87 14 0 
N 42 64 0 
N 19 44 0 
N 70 34 0 
N 12 59 0 
N 95 44 0 
N 4 32 0 
N 81 51 0 
N 18 10 0 
N 15 60 0 
N 65 67 0 
N 56 41 0 
N 27 80 0 
N 76 6 0 
N 71 73 0 
N 88 26 0 
N 68 39 0 
N 85 43 0 
N 15 46 0 
N 49 83 0 
N 71 98 0 
N 32 68 0 
N 60 61 0 
N 42 8 0 
N 28 99 0 
N 61 11 0 
N 74 29 0 
N 16 94 0 
N 8 91 0 
N 71 56 0 
N 24 71 0 
N 95 46 0 
N 82 90 0 
N 98 84 0 
N 53 60 0 
N 13 66 0 
N 38 48 0 
N 19 45 0 
N 5 76 0 
N 6 11 0 
N 53 25 0 
N 64 83 0 
N 29 94 0 
N 19 26 0 
N 93 18 0 
N 98 67 0 
N 30 75 0 
N 29 43 0 
N 11 35 0 
N 69 0 0 
N 15 24 0 
N 82 35 0 
N 51 46 0 
N 9 68 0 
N 88 32 0 
N 25 16 0 
N 41 22 0 
N 79 92 0 
N 40 89 0 
N 14 55 0 
N 50 93 0 
N 97 74 0 
N 3 36 0 
N 21 36 0 
N 27 20 0 
N 83 24 0 
N 88 3 0 
N 98 94 0 
N 14 87 0 
N 29 33 0 
N 60 31 0 
N 96 56 0 
N 76 35 0 
N 18 82 0 
N 10 68 0 
N 16 26 0 
N 29 31 0 
N 78 8 0 
N 98 63 0 
N 65 15 0 
N 21 5 0 
N 87 64 0 
N 60 14 0 
N 30 93 0 
N 63 24 0 
N 91 17 0 
N 96 96 0 
N 96 95 0 
N 18 83 0 
N 68 1 0 
N 2 33 0 
N 2 56 0 
N 81 57 0 
N 91 87 0 
N 36 89 0 
N 62 47 0 
N 72 46 0 
N 8 1 0 
N 67 43 0 
N 45 92 0 
N 28 36 0 
N 70 36 0 
N 85 56 0 
N 68 18 0 
N 98 74 0 
N 60 68 0 
N 14 80 0 
N 87 35 0 
N 31 92 0 
N 19 68 0 
N 86 69 0 
N 29 40 0 
N 84 43 0 
N 39 82 0 
N 77 89 0 
N 73 21 0 
N 81 18 0 
N 14 10 0 
N 10 51 0 
N 52 40 0 
N 58 40 0 
N 97 27 0 
N 15 38 0 
N 38 13 0 
N 84 44 0 
N 14 60 0 
N 93 4 0 
N 14 66 0 
N 85 64 0 
N 17 11 0 
N 43 73 0 
N 75 69 0 
N 75 70 0 
N 5 72 0 
N 68 56 0 
N 10 63 0 
N 34 98 0 
N 6 13 0 
N 43 18 0 
N 59 53 0 
N 36 21 0 
N 87 2 0 
N 51 52 0 
N 79 79 0 
N 87 97 0 
N 65 26 0 
N 9 97 0 
N 85 82 0 
N 79 70 0 
N 7 45 0 
N 49 68 0 
N 53 24 0 
N 66 39 0 
N 78 49 0 
N 92 4 0 
N 90 25 0 
N 31 29 0 
N 27 8 0 
N 48 5 0 
N 97 80 0 
N 94 19 0 
N 65 22 0 
N 78 96 0 
N 12 98 0 
N 62 45 0 
N 25 86 0 
N 78 14 0 
N 16 4 0 
N 49 19 0 
N 29 38 0 
N 29 83 0 
N 48 31 0 
N 13 59 0 
N 98 48 0 
N 49 84 0 
N 76 20 0 
N 2 99 0 
N 64 60 0 
N 59 80 0 
N 31 60 0 
N 83 9 0 
N 39 21 0 
N 64 73 0 
N 57 92 0 
N 84 54 0 
N 17 88 0 
N 45 2 0 
N 10 46 0 
N 13 87 0 
N 48 4 0 
N 52 98 0 
N 36 72 0 
N 58 20 0 
N 41 25 0 
N 89 13 0 
N 15 48 0 
N 28 80 0 
N 61 14 0 
N 46 38 0 
N 0 2 0 
N 87 76 0 
N 90 33 0 
N 58 32 0 
N 58 62 0 
N 28 57 0 
N 42 93 0 
N 97 47 0 
N 33 72 0 
N 46 37 0 
N 48 29 0 
N 42 24 0 
N 70 27 0 
N 37 79 0 
N 77 97 0 
N 45 76 0 
N 26 11 0 
N 77 2 0 
N 27 93 0 
N 56 38 0 
N 11 75 0 
N 82 87 0 
N 94 47 0 
N 22 95 0 
N 50 59 0 
N 21 32 0 
N 71 72 0 
N 37 38 0 
N 98 56 0 
N 50 58 0 
N 28 38 0 
N 17 17 0 
N 43 58 0 
N 65 24 0 
N 75 73 0 
N 49 75 0 
N 57 7 0 
N 95 42 0 
N 4 43 0 
N 73 44 0 
N 30 81 0 
N 76 36 0 
N 35 99 0 
N 64 66 0 
N 69 92 0 
N 44 48 0 
N 75 44 0 
N 1 8 0 
N 12 4 0 
N 63 74 0 
N 8 26 0 
N 10 52 0 
N 3 87 0 
N 89 69 0 
N 30 33 0 
N 63 31 0 
N 42 68 0 
N 69 52 0 
N 26 52 0 
N 51 25 0 
N 20 44 0 
N 58 97 0 
N 95 43 0 
N 56 97 0 
N 40 61 0 
N 36 24 0 
N 49 49 0 
N 61 20 0 
N 20 6 0 
N 93 72 0 
N 38 38 0 
N 17 10 0 
N 35 8 0 
N 76 7 0 
N 46 40 0 
N 49 42 0 
N 4 37 0 
N 77 83 0 
N 36 23 0 
N 93 78 0 
N 6 50 0 
N 54 12 0 
N 78 33 0 
N 5 13 0 
N 84 77 0 
N 50 60 0 
N 55 10 0 
N 48 22 0 
N 59 73 0 
N 96 73 0 
N 29 21 0 
N 42 57 0 
N 76 63 0 
N 80 52 0 
N 78 38 0 
N 86 58 0 
N 79 76 0 
N 38 84 0 
N 97 43 0 
N 64 23 0 
N 40 22 0 
N 12 60 0 
N 5 45 0 
N 19 61 0 
N 31 51 0 
N 59 48 0 
N 43 17 0 
N 77 24 0 
N 81 58 0 
N 55 98 0 
N 73 23 0 
N 87 41 0 
N 69 29 0 
N 30 95 0 
N 10 59 0 
N 50 21 0 
N 3 33 0 
N 54 42 0 
N 11 43 0 
N 2 25 0 
N 31 47 0 
N 97 77 0 
N 29 95 0 
N 87 31 0 
N 95 15 0 
N 3 39 0 
N 65 21 0 
N 35 13 0 
N 42 91 0 
N 57 56 0 
N 76 9 0 
N 70 30 0 
N 38 24 0 
N 68 88 0 
N 23 39 0 
N 21 46 0 
N 84 12 0 
N 8 14 0 
N 58 60 0 
N 84 7 0 
N 21 6 0 
N 33 17 0 
N 76 29 0 
N 8 92 0 
N 21 54 0 
N 63 60 0 
N 48 49 0 
N 6 91 0 
N 95 95 0 
N 57 23 0 
N 18 68 0 
N 69 93 0 
N 93 54 0 
N 53 45 0 
N 25 72 0 
N 24 48 0 
N 74 7 0 
N 66 67 0 
N 95 74 0 
N 69 53 0 
N 36 8 0 
N 65 40 0 
N 27 50 0 
N 54 69 0 
N 4 59 0 
N 79 58 0 
N 47 70 0 
N 7 82 0 
N 27 56 0 
N 81 54 0 
N 22 15 0 
N 58 53 0 
N 41 24 0 
N 97 20 0 
N 61 35 0 
N 22 33 0 
N 5 65 0 
N 71 7 0 
N 53 93 0 
N 8 60 0 
N 97 4 0 
N 71 78 0 
C 0 0 0 
C 25 0 0 
C 50 0 0 
C 75 0 0 
C 100 0 0 
C 0 25 0 
C 25 25 0 
C 50 25 0 
C 75 25 0 
C 100 25 0 
C 0 50 0 
C 25 50 0 
C 50 50 0 
C 75 50 0 
C 100 50 0 
C 0 75 0 
C 25 75 0 
C 50 75 0 
C 75 75 0 
C 100 75 0 
C 0 100 0 
C 25 100 0 
C 50 100 0 
C 75 100 0 
C 100 100 0 
O 41 35 0 
O 23 14 0 
O 19 93 0 
O 65 12 0 
O 51 78 0 
O 38 61 0 
O 4 20 0 
O 75 66 0 
O 67 57 0 
O 21 56 0 
O 37 83 0 
O 0 46 0 
O 18 98 0 
O 20 37 0 
O 85 24 0 
O 72 90 0 
O 85 33 0 
O 89 59 0 
O 51 41 0 
O 95 30 0 
O 56 62 0 
O 67 45 0 
O 59 98 0 
O 76 8 0 
O 71 64 0 
O 54 84 0 
O 86 76 0 
O 99 81 0 
O 44 13 0 
O 38 89 0 
O 50 43 0 
O 19 23 0 
O 89 76 0 
O 16 20 0 
O 21 68 0 
O 70 94 0 
O 66 60 0 
O 24 85 0 
O 22 60 0 
O 23 22 0 
O 49 67 0 
O 65 82 0 
O 91 60 0 
O 67 17 0 
O 20 23 0 
O 56 93 0 
O 62 49 0 
O 76 49 0 
O 58 8 0 
O 17 95 0 
O 45 49 0 
O 68 60 0 
O 14 97 0 
O 90 31 0 
O 6 66 0 
O 15 4 0 
O 28 75 0 
O 17 63 0 
O 39 36 0 
O 59 99 0 
O 33 66 0 
O 7 46 0 
O 72 96 0 
O 63 1 0 
O 92 62 0 
O 4 82 0 
O 16 47 0 
O 0 27 0 
O 71 81 0 
O 48 45 0 
O 99 60 0 
O 66 99 0 
O 10 22 0 
O 65 87 0 
O 51 77 0 
O 70 56 0 
O 78 82 0 
O 30 30 0 
O 46 4 0 
O 30 10 0 
O 95 48 0 
O 65 89 0 
O 45 44 0 
O 50 10 0 
O 66 23 0 
O 64 52 0 
O 65 55 0 
O 73 3 0 
O 28 72 0 
O 79 26 0 
O 34 65 0 
O 32 61 0 
O 12 67 0 
O 87 56 0 
O 2 72 0 
O 51 99 0 
O 36 29 0 
O 59 51 0 
O 5 33 0 
O 29 76 0 
O 7 20 0 
O 34 54 0 
O 20 53 0 
O 93 15 0 
O 60 32 0 
O 86 46 0 
O 87 28 0 
O 31 94 0 
O 99 55 0 
O 48 7 0 
O 48 69 0 
O 83 41 0 
O 81 38 0 
O 39 56 0 
O 46 1 0 
O 10 23 0 
O 36 82 0 
O 10 96 0 
O 72 22 0 
O 72 99 0 
O 38 59 0 
O 87 91 0 
O 69 87 0 
O 14 82 0 
O 44 77 0 
O 44 46 0 
O 86 85 0 
O 5 99 0 
O 28 55 0 
O 67 0 0 
O 19 55 0 
O 55 85 0 
O 86 83 0 
O 51 49 0 
O 0 14 0 
O 86 24 0 
O 98 78 0 
O 78 29 0 
O 33 61 0 
O 54 52 0 
O 86 32 0 
O 48 84 0 
O 44 1 0 
O 92 33 0 
O 49 73 0 
O 30 68 0 
O 66 80 0 
O 27 13 0 
O 11 27 0 
O 3 38 0 
O 36 88 0 
O 56 55 0 
O 22 94 0 
O 62 13 0 
O 36 81 0 
O 2 74 0 
O 76 95 0 
O 89 2 0 
O 81 86 0 
O 32 19 0 
O 49 97 0 
O 65 64 0 
O 31 21 0 
O 9 27 0 
O 21 92 0 
O 54 9 0 
O 59 67 0 
O 84 19 0 
O 78 92 0 
O 95 18 0 
O 66 65 0 
O 26 71 0 
O 93 29 0 
O 52 4 0 
O 35 11 0 
O 13 61 0 
O 59 87 0 
O 8 99 0 
O 38 58 0 
O 15 3 0 
O 52 81 0 
O 59 1 0 
O 47 42 0 
O 83 47 0 
O 74 2 0 
O 0 28 0 
O 73 92 0 
O 58 71 0 
O 1 3 0 
O 7 2 0 
O 19 59 0 
O 14 88 0 
O 88 88 0 
O 63 86 0 
O 71 95 0 
O 6 24 0 
O 38 98 0 
O 64 9 0 
O 2 22 0 
O 74 95 0 
O 35 10 0 
O 38 54 0 
O 49 57 0 
O 27 69 0 
O 72 79 0 
O 28 49 0 
O 27 74 0 
O 60 19 0 
O 92 16 0 
O 22 63 0 
O 71 87 0 
O 68 61 0 
O 50 74 0 
O 96 23 0 
O 97 8 0 
O 57 89 0 
O 69 40 0 
O 86 89 0 
O 50 48 0 
O 48 17 0 
O 55 70 0 
O 74 43 0 
O 21 65 0 
O 13 64 0 
O 36 7 0 
O 72 69 0 
O 44 34 0 
O 93 85 0 
O 40 0 0 
O 29 51 0 
O 81 41 0 
O 48 26 0 
O 20 7 0 
O 3 84 0 
O 80 51 0 
O 46 64 0 
O 83 99 0 
O 90 27 0 
O 7 92 0 
O 12 76 0 
O 15 36 0 
O 98 76 0 
O 88 90 0 
O 39 39 0 
O 14 9 0 
O 31 58 0 
O 63 93 0 
O 66 88 0 
O 35 12 0 
O 16 9 0 
O 31 72 0 
O 2 13 0 
O 30 36 0 
O 76 96 0 
O 30 57 0 
O 99 59 0 
O 61 85 0 
O 52 15 0 
O 47 69 0 
O 29 91 0 
O 55 60 0 
O 31 6 0 
O 77 8 0 
O 6 44 0 
O 49 55 0 
O 7 21 0 
O 95 32 0 
O 44 3 0 
O 25 23 0 
O 44 15 0 
O 79 93 0 
O 58 89 0 
O 65 13 0 
O 72 48 0 
O 2 17 0 
O 96 28 0 
O 85 0 0 
O 76 3 0 
O 57 82 0 
O 26 19 0 
O 64 88 0 
O 78 66 0 
O 67 6 0 
O 85 19 0 
O 48 71 0 
O 8 83 0 
O 56 67 0 
O 28 92 0 
O 7 90 0 
O 0 1 0 
O 40 91 0 
O 7 47 0 
O 25 60 0 
O 16 53 0 
O 5 17 0 
O 39 59 0 
O 93 32 0 
O 27 83 0 
O 57 75 0 
O 55 56 0 
O 39 23 0 
O 70 28 0 
O 20 92 0 
O 8 24 0 
O 17 6 0 
O 91 32 0 
O 91 78 0 
O 18 0 0 
O 88 28 0 
O 30 87 0 
O 1 16 0 
O 56 99 0 
O 12 30 0 
O 14 75 0 
O 71 57 0 
O 58 94 0 
O 43 66 0 
O 70 61 0 
O 99 30 0 
O 78 90 0 
O 24 62 0 
O 90 26 0 
O 75 8 0 
O 30 98 0 
O 26 70 0 
O 87 24 0 
O 87 5 0 
O 62 61 0 
O 10 66 0 
O 53 95 0 
O 35 20 0 
O 25 53 0 
O 0 18 0 
O 79 81 0 
O 82 43 0 
O 46 91 0 
O 97 92 0 
O 0 62 0 
O 67 89 0 
O 33 0 0 
O 61 4 0 
O 42 47 0 
O 72 57 0 
O 2 21 0 
O 97 53 0 
O 40 31 0 
O 10 98 0 
O 87 33 0 
O 36 14 0 
O 35 60 0 
O 80 57 0 
O 72 49 0 
O 10 87 0 
O 76 1 0 
O 90 82 0 
O 66 18 0 
O 78 13 0 
O 50 2 0 
O 89 12 0 
O 8 43 0 
O 59 85 0 
O 73 90 0 
O 2 48 0 
O 87 99 0 
O 47 84 0 
O 62 17 0 
O 26 23 0 
O 32 48 0 
O 56 81 0 
O 51 71 0 
O 15 85 0 
O 55 39 0 
O 62 10 0 
O 85 54 0 
O 98 60 0 
O 37 9 0 
O 7 76 0 
O 0 58 0 
O 27 34 0 
O 93 52 0 
O 88 86 0 
O 40 92 0 
O 60 77 0 
O 59 21 0 
O 20 22 0 
O 89 99 0 
O 28 47 0 
O 86 27 0 
O 22 75 0 
O 69 4 0 
O 2 19 0 
O 13 32 0 
O 29 3 0 
O 37 67 0 
O 37 19 0 
O 27 16 0 
O 28 61 0 
O 67 82 0 
O 81 62 0 
O 14 84 0 
O 1 96 0 
O 77 13 0 
O 7 14 0 
O 71 33 0 
O 70 5 0 
O 89 95 0 
O 16 19 0 
O 58 83 0 
O 66 68 0 
O 40 72 0 
O 77 87 0 
O 32 43 0 
O 98 83 0 
O 97 32 0 
O 27 85 0 
O 60 83 0 
O 25 57 0 
O 86 14 0 
O 93 63 0 
O 74 99 0 
O 99 25 0 
O 92 0 0 
O 5 87 0 
O 43 56 0 
O 74 15 0 
O 5 42 0 
O 63 84 0 
O 5 1 0 
O 53 20 0 
O 81 34 0 
O 25 65 0 
O 2 28 0 
O 69 54 0 
O 47 39 0 
O 29 54 0 
O 1 20 0 
O 28 82 0 
O 37 71 0 
O 3 0 0 
O 96 29 0 
O 98 61 0 
O 0 89 0 
O 82 0 0 
O 23 49 0 
O 83 2 0 
O 98 23 0 
O 77 35 0 
O 51 39 0 
O 27 18 0 
O 38 46 0 
O 72 18 0 
O 9 36 0 
O 82 50 0 
O 37 70 0 
O 6 89 0 
O 19 74 0 
O 33 96 0 
O 36 58 0 
O 6 35 0 
O 42 61 0 
O 40 8 0 
O 31 43 0 
O 48 52 0 
O 42 11 0 
O 77 85 0 
O 67 38 0 
O 82 57 0 
O 70 95 0 
O 54 82 0 
O 62 73 0 
O 6 86 0 
O 67 47 0 
O 40 23 0 
O 64 11 0 
O 87 29 0 
O 6 14 0 
O 31 9 0 
O 97 89 0 
O 25 10 0 
O 28 66 0 
O 83 6 0 
O 55 0 0 
O 8 89 0 
O 61 64 0 
O 93 31 0 
O 44 32 0 
O 26 21 0 
O 24 60 0 
O 25 64 0 
O 49 46 0 
O 34 45 0 
O 42 72 0 
O 84 73 0 
O 83 15 0 
O 46 58 0 
O 4 88 0 
O 48 89 0 
O 25 59 0 
O 96 48 0 
982
Atoms. Timestep: 7
N 9 27 0 
N 73 63 0 
N 85 56 0 
N 15 20 0 
N 16 18 0 
N 20 24 0 
N 7 13 0 
N 14 95 0 
N 2 9 0 
N 16 47 0 
N 64 32 0 
N 31 76 0 
N 29 31 0 
N 79 34 0 
N 52 75 0 
N 28 34 0 
N 21 68 0 
N 65 40 0 
N 25 72 0 
N 40 81 0 
N 97 7 0 
N 98 38 0 
N 23 24 0 
N 85 25 0 
N 16 23 0 
N 30 76 0 
N 28 30 0 
N 2 32 0 
N 34 53 0 
N 71 69 0 
N 1 55 0 
N 15 63 0 
N 85 32 0 
N 48 9 0 
N 39 41 0 
N 95 90 0 
N 69 33 0 
N 67 10 0 
N 1 48 0 
N 85 66 0 
N 51 52 0 
N 45 32 0 
N 40 83 0 
N 60 51 0 
N 46 90 0 
N 26 10 0 
N 83 88 0 
N 14 98 0 
N 34 98 0 
N 98 65 0 
N 37 7 0 
N 63 92 0 
N 15 82 0 
N 61 49 0 
N 94 49 0 
N 4 59 0 
N 49 56 0 
N 12 9 0 
N 96 22 0 
N 43 67 0 
N 79 39 0 
N 0 47 0 
N 39 40 0 
N 60 76 0 
N 7 64 0 
N 0 12 0 
N 27 94 0 
N 79 79 0 
N 33 43 0 
N 79 55 0 
N 71 80 0 
N 22 76 0 
N 59 75 0 
N 67 55 0 
N 89 31 0 
N 11 47 0 
N 25 86 0 
N 4 89 0 
N 38 3 0 
N 85 46 0 
N 38 36 0 
N 2 49 0 
N 78 71 0 
N 71 29 0 
N 8 81 0 
N 17 19 0 
N 56 80 0 
N 47 27 0 
N 29 91 0 
N 9 37 0 
N 49 24 0 
N 98 82 0 
N 71 17 0 
N 8 46 0 
N 82 6 0 
N 75 67 0 
N 48 8 0 
N 74 15 0 
N 2 81 0 
N 2 33 0 
N 59 0 0 
N 57 21 0 
N 1 28 0 
N 36 83 0 
N 19 69 0 
N 37 47 0 
N 37 75 0 
N 84 38 0 
N 13 53 0 
N 80 14 0 
N 6 66 0 
N 58 62 0 
N 77 34 0 
N 23 23 0 
N 51 94 0 
N 71 30 0 
N 94 85 0 
N 56 89 0 
N 65 54 0 
N 86 14 0 
N 42 65 0 
N 18 44 0 
N 70 33 0 
N 12 60 0 
N 95 45 0 
N 5 32 0 
N 81 52 0 
N 18 9 0 
N 14 60 0 
N 65 67 0 
N 56 40 0 
N 27 81 0 
N 76 5 0 
N 72 73 0 
N 88 27 0 
N 69 39 0 
N 84 43 0 
N 16 46 0 
N 50 83 0 
N 72 98 0 
N 31 68 0 
N 61 61 0 
N 41 8 0 
N 28 98 0 
N 62 11 0 
N 75 29 0 
N 16 95 0 
N 8 90 0 
N 70 56 0 
N 24 71 0 
N 95 46 0 
N 81 90 0 
N 98 83 0 
N 54 60 0 
N 12 66 0 
N 38 47 0 
N 19 46 0 
N 6 76 0 
N 5 11 0 
N 53 24 0 
N 65 83 0 
N 29 94 0 
N 19 25 0 
N 94 18 0 
N 98 67 0 
N 29 75 0 
N 30 43 0 
N 10 35 0 
N 68 0 0 
N 15 23 0 
N 81 35 0 
N 50 46 0 
N 9 67 0 
N 87 32 0 
N 26 16 0 
N 40 22 0 
N 78 92 0 
N 39 89 0 
N 14 54 0 
N 49 93 0 
N 97 75 0 
N 3 35 0 
N 20 36 0 
N 27 19 0 
N 84 24 0 
N 89 3 0 
N 98 93 0 
N 14 88 0 
N 28 33 0 
N 60 32 0 
N 97 56 0 
N 77 35 0 
N 17 82 0 
N 10 67 0 
N 16 25 0 
N 29 30 0 
N 77 8 0 
N 98 62 0 
N 65 14 0 
N 21 6 0 
N 87 63 0 
N 60 13 0 
N 30 93 0 
N 64 24 0 
N 92 17 0 
N 97 96 0 
N 96 94 0 
N 17 83 0 
N 67 1 0 
N 3 33 0 
N 2 55 0 
N 80 57 0 
N 91 88 0 
N 36 88 0 
N 62 48 0 
N 72 47 0 
N 8 2 0 
N 67 44 0 
N 46 92 0 
N 29 36 0 
N 71 36 0 
N 86 56 0 
N 68 17 0 
N 98 75 0 
N 59 68 0 
N 14 81 0 
N 87 34 0 
N 31 93 0 
N 20 68 0 
N 85 69 0 
N 29 39 0 
N 83 43 0 
N 39 83 0 
N 78 89 0 
N 73 22 0 
N 82 18 0 
N 14 9 0 
N 10 50 0 
N 52 41 0 
N 57 40 0 
N 96 27 0 
N 15 37 0 
N 39 13 0 
N 83 44 0 
N 14 61 0 
N 92 4 0 
N 14 67 0 
N 85 63 0 
N 17 10 0 
N 43 72 0 
N 75 68 0 
N 75 70 0 
N 4 72 0 
N 67 56 0 
N 10 64 0 
N 33 98 0 
N 6 14 0 
N 43 17 0 
N 59 52 0 
N 36 20 0 
N 88 2 0 
N 51 51 0 
N 79 80 0 
N 87 98 0 
N 66 26 0 
N 10 97 0 
N 85 83 0 
N 79 69 0 
N 7 46 0 
N 49 67 0 
N 53 23 0 
N 66 38 0 
N 77 49 0 
N 92 3 0 
N 90 26 0 
N 30 29 0 
N 27 9 0 
N 48 6 0 
N 97 81 0 
N 95 19 0 
N 66 22 0 
N 78 96 0 
N 11 98 0 
N 62 46 0 
N 24 86 0 
N 78 13 0 
N 15 4 0 
N 49 18 0 
N 29 37 0 
N 28 83 0 
N 48 30 0 
N 13 59 0 
N 97 48 0 
N 48 84 0 
N 76 21 0 
N 2 98 0 
N 65 60 0 
N 59 81 0 
N 32 60 0 
N 83 8 0 
N 39 22 0 
N 64 73 0 
N 57 93 0 
N 85 54 0 
N 16 88 0 
N 46 2 0 
N 10 46 0 
N 13 88 0 
N 47 4 0 
N 52 99 0 
N 36 71 0 
N 58 21 0 
N 40 25 0 
N 89 12 0 
N 15 47 0 
N 28 81 0 
N 62 14 0 
N 46 39 0 
N 0 1 0 
N 86 76 0 
N 90 32 0 
N 59 32 0 
N 57 62 0 
N 28 57 0 
N 42 92 0 
N 96 47 0 
N 32 72 0 
N 47 37 0 
N 48 28 0 
N 41 24 0 
N 70 28 0 
N 37 80 0 
N 77 96 0 
N 45 77 0 
N 25 11 0 
N 77 3 0 
N 27 92 0 
N 55 38 0 
N 12 75 0 
N 83 87 0 
N 95 47 0 
N 22 94 0 
N 50 58 0 
N 20 32 0 
N 71 71 0 
N 37 39 0 
N 99 56 0 
N 50 57 0 
N 28 37 0 
N 16 17 0 
N 43 58 0 
N 66 24 0 
N 75 72 0 
N 49 74 0 
N 58 7 0 
N 95 42 0 
N 5 43 0 
N 74 44 0 
N 29 81 0 
N 77 36 0 
N 35 98 0 
N 65 66 0 
N 70 92 0 
N 45 48 0 
N 75 43 0 
N 2 8 0 
N 13 4 0 
N 63 73 0 
N 8 25 0 
N 11 52 0 
N 4 87 0 
N 89 70 0 
N 30 32 0 
N 62 31 0 
N 43 68 0 
N 69 53 0 
N 26 53 0 
N 51 26 0 
N 20 43 0 
N 59 97 0 
N 95 43 0 
N 56 98 0 
N 39 61 0 
N 37 24 0 
N 50 49 0 
N 60 20 0 
N 20 7 0 
N 92 72 0 
N 38 39 0 
N 16 10 0 
N 35 9 0 
N 77 7 0 
N 47 40 0 
N 50 42 0 
N 5 37 0 
N 78 83 0 
N 37 23 0 
N 92 78 0 
N 6 49 0 
N 54 11 0 
N 77 33 0 
N 5 14 0 
N 85 77 0 
N 49 60 0 
N 55 9 0 
N 48 23 0 
N 59 72 0 
N 96 74 0 
N 30 21 0 
N 43 57 0 
N 75 63 0 
N 80 51 0 
N 79 38 0 
N 87 58 0 
N 79 77 0 
N 37 84 0 
N 96 43 0 
N 65 23 0 
N 40 23 0 
N 13 60 0 
N 6 45 0 
N 19 60 0 
N 30 51 0 
N 59 49 0 
N 44 17 0 
N 77 25 0 
N 80 58 0 
N 55 99 0 
N 72 23 0 
N 86 41 0 
N 69 28 0 
N 30 94 0 
N 10 60 0 
N 50 20 0 
N 4 33 0 
N 53 42 0 
N 10 43 0 
N 2 24 0 
N 32 47 0 
N 98 77 0 
N 29 95 0 
N 86 31 0 
N 94 15 0 
N 3 38 0 
N 66 21 0 
N 35 12 0 
N 41 91 0 
N 56 56 0 
N 76 8 0 
N 70 31 0 
N 39 24 0 
N 69 88 0 
N 23 38 0 
N 21 47 0 
N 84 13 0 
N 7 14 0 
N 57 60 0 
N 83 7 0 
N 21 7 0 
N 32 17 0 
N 77 29 0 
N 7 92 0 
N 21 55 0 
N 63 61 0 
N 47 49 0 
N 7 91 0 
N 95 94 0 
N 57 22 0 
N 18 68 0 
N 70 93 0 
N 93 53 0 
N 53 44 0 
N 25 71 0 
N 23 48 0 
N 75 7 0 
N 66 68 0 
N 95 75 0 
N 69 54 0 
N 36 7 0 
N 66 40 0 
N 28 50 0 
N 55 69 0 
N 5 59 0 
N 79 57 0 
N 47 69 0 
N 8 82 0 
N 28 56 0 
N 81 53 0 
N 22 14 0 
N 58 52 0 
N 41 23 0 
N 96 20 0 
N 60 35 0 
N 21 33 0 
N 6 65 0 
N 70 7 0 
N 53 94 0 
N 9 60 0 
N 97 5 0 
N 71 79 0 
C 0 0 0 
C 25 0 0 
C 50 0 0 
C 75 0 0 
C 100 0 0 
C 0 25 0 
C 25 25 0 
C 50 25 0 
C 75 25 0 
C 100 25 0 
C 0 50 0 
C 25 50 0 
C 50 50 0 
C 75 50 0 
C 100 50 0 
C 0 75 0 
C 25 75 0 
C 50 75 0 
C 75 75 0 
C 100 75 0 
C 0 100 0 
C 25 100 0 
C 50 100 0 
C 75 100 0 
C 100 100 0 
O 42 35 0 
O 23 13 0 
O 20 93 0 
O 65 13 0 
O 52 78 0 
O 38 60 0 
O 4 21 0 
O 74 66 0 
O 67 58 0 
O 21 57 0 
O 38 83 0 
O 0 45 0 
O 19 98 0 
O 19 37 0 
O 86 24 0 
O 72 91 0 
O 85 33 0 
O 89 58 0 
O 51 42 0 
O 96 30 0 
O 56 61 0 
O 67 46 0 
O 58 98 0 
O 70 64 0 
O 55 84 0 
O 99 80 0 
O 44 14 0 
O 38 90 0 
O 49 43 0 
O 20 23 0 
O 88 76 0 
O 16 19 0 
O 71 94 0 
O 66 59 0 
O 23 85 0 
O 22 59 0 
O 24 22 0 
O 64 82 0 
O 91 59 0 
O 67 18 0 
O 21 23 0 
O 55 93 0 
O 63 49 0 
O 75 49 0 
O 57 8 0 
O 18 95 0 
O 45 50 0 
O 67 60 0 
O 14 96 0 
O 91 31 0 
O 27 75 0 
O 18 63 0 
O 40 36 0 
O 60 99 0 
O 32 66 0 
O 72 95 0 
O 64 1 0 
O 91 62 0 
O 4 81 0 
O 0 28 0 
O 71 82 0 
O 49 45 0 
O 99 61 0 
O 66 98 0 
O 10 21 0 
O 66 87 0 
O 52 77 0 
O 77 82 0 
O 30 31 0 
O 46 3 0 
O 31 10 0 
O 94 48 0 
O 65 90 0 
O 44 44 0 
O 49 10 0 
O 67 23 0 
O 63 52 0 
O 66 55 0 
O 74 3 0 
O 28 73 0 
O 80 26 0 
O 34 66 0 
O 31 61 0 
O 11 67 0 
O 88 56 0 
O 1 72 0 
O 51 0 0 
O 36 30 0 
O 59 50 0 
O 6 33 0 
O 28 76 0 
O 8 20 0 
O 33 54 0 
O 19 53 0 
O 93 14 0 
O 87 46 0 
O 86 28 0 
O 31 95 0 
O 98 55 0 
O 47 7 0 
O 49 69 0 
O 82 41 0 
O 81 37 0 
O 39 57 0 
O 46 0 0 
O 11 23 0 
O 37 82 0 
O 9 96 0 
O 72 21 0 
O 71 99 0 
O 39 59 0 
O 86 91 0 
O 69 86 0 
O 13 82 0 
O 44 78 0 
O 44 47 0 
O 86 84 0 
O 6 99 0 
O 27 55 0 
O 66 0 0 
O 19 54 0 
O 55 86 0 
O 87 83 0 
O 51 48 0 
O 99 14 0 
O 87 24 0 
O 97 78 0 
O 78 28 0 
O 33 60 0 
O 54 53 0 
O 86 33 0 
O 45 1 0 
O 93 33 0 
O 48 73 0 
O 30 67 0 
O 65 80 0 
O 27 14 0 
O 11 28 0 
O 55 55 0 
O 63 13 0 
O 35 81 0 
O 2 75 0 
O 77 95 0 
O 90 2 0 
O 81 87 0 
O 33 19 0 
O 48 97 0 
O 65 63 0 
O 31 22 0 
O 20 92 0 
O 54 10 0 
O 58 67 0 
O 84 20 0 
O 95 17 0 
O 67 65 0 
O 26 72 0 
O 93 28 0 
O 53 4 0 
O 34 11 0 
O 13 62 0 
O 60 87 0 
O 8 0 0 
O 39 58 0 
O 16 3 0 
O 52 82 0 
O 60 1 0 
O 47 43 0 
O 83 46 0 
O 73 2 0 
O 99 28 0 
O 72 92 0 
O 59 71 0 
O 2 3 0 
O 7 3 0 
O 19 58 0 
O 88 87 0 
O 63 85 0 
O 71 96 0 
O 6 23 0 
O 38 97 0 
O 64 8 0 
O 1 22 0 
O 73 95 0 
O 34 10 0 
O 39 54 0 
O 48 57 0 
O 26 69 0 
O 73 79 0 
O 27 49 0 
O 28 74 0 
O 59 19 0 
O 93 16 0 
O 22 62 0 
O 71 86 0 
O 69 61 0 
O 50 73 0 
O 95 23 0 
O 96 8 0 
O 58 89 0 
O 68 40 0 
O 85 89 0 
O 49 48 0 
O 48 18 0 
O 55 71 0 
O 74 42 0 
O 21 64 0 
O 13 65 0 
O 72 70 0 
O 44 35 0 
O 93 86 0 
O 39 0 0 
O 29 52 0 
O 81 42 0 
O 47 26 0 
O 2 84 0 
O 45 64 0 
O 83 0 0 
O 91 27 0 
O 12 77 0 
O 15 35 0 
O 99 76 0 
O 88 89 0 
O 39 38 0 
O 31 59 0 
O 62 93 0 
O 66 89 0 
O 15 9 0 
O 31 71 0 
O 3 13 0 
O 30 35 0 
O 76 97 0 
O 31 57 0 
O 98 59 0 
O 61 86 0 
O 52 16 0 
O 55 61 0 
O 31 5 0 
O 5 44 0 
O 50 55 0 
O 7 22 0 
O 95 31 0 
O 43 3 0 
O 25 22 0 
O 43 15 0 
O 79 94 0 
O 58 88 0 
O 64 13 0 
O 73 48 0 
O 3 17 0 
O 96 29 0 
O 85 1 0 
O 75 3 0 
O 56 82 0 
O 25 19 0 
O 64 87 0 
O 78 65 0 
O 67 7 0 
O 85 18 0 
O 48 70 0 
O 8 84 0 
O 57 67 0 
O 28 93 0 
O 7 90 0 
O 39 91 0 
O 6 47 0 
O 25 61 0 
O 15 53 0 
O 5 16 0 
O 40 59 0 
O 94 32 0 
O 27 82 0 
O 57 76 0 
O 54 56 0 
O 38 23 0 
O 19 92 0 
O 9 24 0 
O 17 5 0 
O 92 32 0 
O 90 78 0 
O 18 99 0 
O 89 28 0 
O 30 86 0 
O 1 15 0 
O 57 99 0 
O 11 30 0 
O 15 75 0 
O 71 58 0 
O 58 95 0 
O 42 66 0 
O 70 62 0 
O 99 31 0 
O 78 91 0 
O 23 62 0 
O 75 9 0 
O 30 97 0 
O 25 70 0 
O 87 23 0 
O 87 6 0 
O 62 60 0 
O 9 66 0 
O 52 95 0 
O 35 19 0 
O 25 54 0 
O 99 18 0 
O 80 81 0 
O 82 44 0 
O 45 91 0 
O 97 93 0 
O 0 63 0 
O 67 90 0 
O 34 0 0 
O 61 3 0 
O 43 47 0 
O 72 58 0 
O 1 21 0 
O 98 53 0 
O 39 31 0 
O 9 98 0 
O 88 33 0 
O 36 15 0 
O 36 60 0 
O 71 49 0 
O 10 88 0 
O 75 1 0 
O 90 83 0 
O 66 17 0 
O 50 3 0 
O 7 43 0 
O 60 85 0 
O 73 91 0 
O 3 48 0 
O 88 99 0 
O 47 83 0 
O 62 18 0 
O 26 24 0 
O 33 48 0 
O 57 81 0 
O 51 72 0 
O 14 85 0 
O 55 40 0 
O 61 10 0 
O 98 61 0 
O 37 10 0 
O 7 77 0 
O 99 58 0 
O 27 33 0 
O 94 52 0 
O 87 86 0 
O 39 92 0 
O 59 77 0 
O 60 21 0 
O 20 21 0 
O 89 0 0 
O 28 46 0 
O 87 27 0 
O 23 75 0 
O 68 4 0 
O 2 20 0 
O 12 32 0 
O 29 2 0 
O 38 67 0 
O 36 19 0 
O 28 16 0 
O 29 61 0 
O 66 82 0 
O 80 62 0 
O 14 83 0 
O 1 95 0 
O 77 12 0 
O 71 34 0 
O 70 6 0 
O 90 95 0 
O 15 19 0 
O 58 84 0 
O 40 73 0 
O 77 88 0 
O 32 42 0 
O 97 33 0 
O 28 85 0 
O 59 83 0 
O 26 57 0 
O 93 64 0 
O 73 99 0 
O 99 24 0 
O 93 0 0 
O 5 86 0 
O 43 55 0 
O 5 41 0 
O 64 84 0 
O 5 0 0 
O 52 20 0 
O 80 34 0 
O 25 66 0 
O 2 29 0 
O 47 38 0 
O 29 53 0 
O 1 19 0 
O 29 82 0 
O 37 72 0 
O 2 0 0 
O 95 29 0 
O 97 61 0 
O 0 90 0 
O 81 0 0 
O 22 49 0 
O 82 2 0 
O 98 22 0 
O 52 39 0 
O 27 17 0 
O 39 46 0 
O 72 19 0 
O 10 36 0 
O 83 50 0 
O 37 69 0 
O 6 90 0 
O 19 73 0 
O 33 97 0 
O 37 58 0 
O 5 35 0 
O 41 61 0 
O 39 8 0 
O 31 42 0 
O 48 51 0 
O 42 12 0 
O 77 86 0 
O 67 37 0 
O 82 58 0 
O 69 95 0 
O 54 83 0 
O 61 73 0 
O 6 87 0 
O 68 47 0 
O 64 12 0 
O 88 29 0 
O 32 9 0 
O 96 89 0 
O 25 9 0 
O 28 67 0 
O 84 6 0 
O 54 0 0 
O 7 89 0 
O 60 64 0 
O 94 31 0 
O 44 31 0 
O 26 20 0 
O 23 60 0 
O 26 64 0 
O 49 47 0 
O 34 46 0 
O 42 71 0 
O 83 73 0 
O 83 16 0 
O 47 58 0 
O 3 88 0 
O 48 90 0 
O 26 59 0 
O 96 49 0 
939
Atoms. Timestep: 8
N 10 27 0 
N 73 64 0 
N 86 56 0 
N 15 19 0 
N 15 18 0 
N 20 23 0 
N 6 13 0 
N 14 96 0 
N 3 9 0 
N 15 47 0 
N 64 33 0 
N 30 76 0 
N 29 32 0 
N 80 34 0 
N 52 76 0 
N 29 34 0 
N 21 67 0 
N 66 40 0 
N 26 72 0 
N 39 81 0 
N 96 7 0 
N 98 37 0 
N 24 24 0 
N 86 25 0 
N 17 23 0 
N 29 76 0 
N 28 31 0 
N 2 31 0 
N 33 53 0 
N 72 69 0 
N 2 55 0 
N 16 63 0 
N 85 33 0 
N 48 10 0 
N 39 41 0 
N 96 90 0 
N 69 34 0 
N 67 9 0 
N 2 48 0 
N 85 65 0 
N 51 51 0 
N 45 31 0 
N 40 82 0 
N 61 51 0 
N 45 90 0 
N 26 10 0 
N 83 87 0 
N 14 97 0 
N 34 97 0 
N 97 65 0 
N 37 8 0 
N 62 92 0 
N 15 82 0 
N 61 49 0 
N 94 48 0 
N 5 59 0 
N 48 56 0 
N 12 8 0 
N 95 22 0 
N 43 66 0 
N 80 39 0 
N 0 46 0 
N 39 40 0 
N 60 77 0 
N 8 64 0 
N 0 13 0 
N 28 94 0 
N 80 79 0 
N 32 43 0 
N 80 55 0 
N 71 81 0 
N 23 76 0 
N 60 75 0 
N 66 55 0 
N 89 31 0 
N 11 47 0 
N 25 85 0 
N 3 89 0 
N 38 2 0 
N 86 46 0 
N 39 36 0 
N 3 49 0 
N 78 70 0 
N 71 30 0 
N 8 82 0 
N 16 19 0 
N 56 81 0 
N 47 26 0 
N 28 91 0 
N 9 36 0 
N 48 24 0 
N 99 82 0 
N 71 18 0 
N 8 47 0 
N 83 6 0 
N 75 66 0 
N 47 8 0 
N 75 15 0 
N 3 81 0 
N 3 33 0 
N 60 0 0 
N 58 21 0 
N 0 28 0 
N 36 82 0 
N 19 70 0 
N 37 46 0 
N 37 74 0 
N 84 37 0 
N 14 53 0 
N 80 13 0 
N 6 65 0 
N 57 62 0 
N 78 34 0 
N 23 22 0 
N 51 95 0 
N 71 31 0 
N 94 86 0 
N 57 89 0 
N 65 55 0 
N 86 15 0 
N 42 66 0 
N 19 44 0 
N 71 33 0 
N 12 61 0 
N 94 45 0 
N 6 32 0 
N 81 51 0 
N 17 9 0 
N 14 59 0 
N 65 68 0 
N 55 40 0 
N 27 82 0 
N 75 5 0 
N 72 72 0 
N 87 27 0 
N 68 39 0 
N 83 43 0 
N 15 46 0 
N 50 82 0 
N 72 99 0 
N 31 67 0 
N 61 60 0 
N 40 8 0 
N 29 98 0 
N 63 11 0 
N 76 29 0 
N 17 95 0 
N 8 90 0 
N 71 56 0 
N 24 72 0 
N 94 46 0 
N 81 89 0 
N 99 83 0 
N 55 60 0 
N 13 66 0 
N 39 47 0 
N 19 47 0 
N 7 76 0 
N 5 12 0 
N 52 24 0 
N 66 83 0 
N 29 95 0 
N 19 24 0 
N 94 17 0 
N 98 66 0 
N 28 75 0 
N 30 42 0 
N 10 36 0 
N 67 0 0 
N 14 23 0 
N 81 36 0 
N 49 46 0 
N 9 66 0 
N 87 32 0 
N 27 16 0 
N 39 22 0 
N 78 91 0 
N 39 90 0 
N 15 54 0 
N 49 92 0 
N 97 76 0 
N 4 35 0 
N 20 37 0 
N 26 19 0 
N 85 24 0 
N 90 3 0 
N 97 93 0 
N 14 87 0 
N 27 33 0 
N 61 32 0 
N 97 55 0 
N 78 35 0 
N 16 82 0 
N 11 67 0 
N 17 25 0 
N 29 30 0 
N 77 7 0 
N 98 61 0 
N 65 13 0 
N 20 6 0 
N 88 63 0 
N 61 13 0 
N 29 93 0 
N 64 23 0 
N 92 16 0 
N 97 95 0 
N 97 94 0 
N 16 83 0 
N 66 1 0 
N 4 33 0 
N 3 55 0 
N 80 58 0 
N 91 87 0 
N 37 88 0 
N 62 49 0 
N 72 46 0 
N 8 1 0 
N 67 45 0 
N 45 92 0 
N 29 35 0 
N 71 35 0 
N 87 56 0 
N 68 18 0 
N 98 76 0 
N 59 69 0 
N 14 82 0 
N 87 33 0 
N 31 93 0 
N 20 67 0 
N 85 70 0 
N 29 38 0 
N 83 44 0 
N 38 83 0 
N 78 90 0 
N 73 21 0 
N 83 18 0 
N 15 9 0 
N 9 50 0 
N 52 40 0 
N 57 40 0 
N 96 28 0 
N 15 36 0 
N 39 12 0 
N 83 45 0 
N 14 62 0 
N 91 4 0 
N 13 67 0 
N 84 63 0 
N 18 10 0 
N 42 72 0 
N 74 68 0 
N 74 70 0 
N 3 72 0 
N 67 57 0 
N 9 64 0 
N 33 97 0 
N 5 14 0 
N 43 16 0 
N 60 52 0 
N 36 19 0 
N 89 2 0 
N 51 50 0 
N 79 81 0 
N 87 99 0 
N 67 26 0 
N 10 96 0 
N 86 83 0 
N 79 68 0 
N 6 46 0 
N 49 68 0 
N 52 23 0 
N 66 37 0 
N 76 49 0 
N 91 3 0 
N 91 26 0 
N 30 30 0 
N 26 9 0 
N 48 7 0 
N 98 81 0 
N 95 18 0 
N 67 22 0 
N 78 97 0 
N 10 98 0 
N 63 46 0 
N 24 85 0 
N 77 13 0 
N 16 4 0 
N 48 18 0 
N 30 37 0 
N 28 82 0 
N 47 30 0 
N 13 60 0 
N 97 49 0 
N 47 84 0 
N 75 21 0 
N 2 97 0 
N 66 60 0 
N 58 81 0 
N 33 60 0 
N 84 8 0 
N 38 22 0 
N 63 73 0 
N 56 93 0 
N 86 54 0 
N 16 87 0 
N 46 3 0 
N 10 47 0 
N 12 88 0 
N 46 4 0 
N 52 98 0 
N 37 71 0 
N 58 20 0 
N 41 25 0 
N 90 12 0 
N 15 48 0 
N 28 80 0 
N 63 14 0 
N 46 40 0 
N 1 1 0 
N 87 76 0 
N 90 31 0 
N 58 32 0 
N 56 62 0 
N 27 57 0 
N 41 92 0 
N 96 48 0 
N 32 71 0 
N 47 38 0 
N 48 27 0 
N 40 24 0 
N 71 28 0 
N 38 80 0 
N 77 95 0 
N 44 77 0 
N 25 10 0 
N 76 3 0 
N 27 93 0 
N 55 39 0 
N 12 76 0 
N 82 87 0 
N 95 48 0 
N 22 95 0 
N 49 58 0 
N 19 32 0 
N 71 70 0 
N 37 38 0 
N 98 56 0 
N 49 57 0 
N 28 36 0 
N 16 17 0 
N 43 57 0 
N 67 24 0 
N 75 71 0 
N 49 73 0 
N 58 8 0 
N 95 43 0 
N 5 44 0 
N 74 44 0 
N 29 82 0 
N 77 37 0 
N 35 97 0 
N 65 65 0 
N 71 92 0 
N 46 48 0 
N 74 43 0 
N 2 7 0 
N 13 3 0 
N 62 73 0 
N 8 24 0 
N 12 52 0 
N 5 87 0 
N 89 71 0 
N 30 31 0 
N 62 32 0 
N 42 68 0 
N 68 53 0 
N 25 53 0 
N 50 26 0 
N 20 42 0 
N 59 98 0 
N 95 44 0 
N 57 98 0 
N 39 60 0 
N 37 23 0 
N 50 48 0 
N 60 21 0 
N 19 7 0 
N 92 73 0 
N 39 39 0 
N 16 9 0 
N 34 9 0 
N 76 7 0 
N 47 39 0 
N 51 42 0 
N 5 36 0 
N 78 82 0 
N 36 23 0 
N 91 78 0 
N 6 48 0 
N 54 10 0 
N 78 33 0 
N 5 15 0 
N 85 76 0 
N 48 60 0 
N 55 10 0 
N 47 23 0 
N 59 71 0 
N 97 74 0 
N 31 21 0 
N 43 56 0 
N 74 63 0 
N 80 50 0 
N 79 37 0 
N 88 58 0 
N 79 78 0 
N 37 83 0 
N 96 44 0 
N 66 23 0 
N 40 23 0 
N 13 61 0 
N 5 45 0 
N 19 59 0 
N 30 52 0 
N 59 50 0 
N 44 16 0 
N 78 25 0 
N 81 58 0 
N 56 99 0 
N 72 22 0 
N 85 41 0 
N 68 28 0 
N 31 94 0 
N 11 60 0 
N 51 20 0 
N 5 33 0 
N 52 42 0 
N 9 43 0 
N 2 23 0 
N 32 48 0 
N 97 77 0 
N 30 95 0 
N 86 32 0 
N 94 14 0 
N 4 38 0 
N 67 21 0 
N 35 11 0 
N 40 91 0 
N 55 56 0 
N 76 9 0 
N 70 32 0 
N 39 23 0 
N 69 87 0 
N 22 38 0 
N 22 47 0 
N 83 13 0 
N 7 15 0 
N 56 60 0 
N 84 7 0 
N 21 7 0 
N 33 17 0 
N 77 28 0 
N 6 92 0 
N 21 56 0 
N 63 60 0 
N 46 49 0 
N 7 90 0 
N 95 93 0 
N 58 22 0 
N 18 67 0 
N 70 94 0 
N 93 52 0 
N 53 43 0 
N 25 70 0 
N 22 48 0 
N 75 8 0 
N 67 68 0 
N 95 76 0 
N 69 55 0 
N 36 8 0 
N 67 40 0 
N 28 49 0 
N 55 70 0 
N 6 59 0 
N 79 58 0 
N 48 69 0 
N 8 83 0 
N 27 56 0 
N 82 53 0 
N 22 13 0 
N 58 51 0 
N 41 23 0 
N 96 19 0 
N 60 36 0 
N 20 33 0 
N 7 65 0 
N 70 6 0 
N 52 94 0 
N 9 61 0 
N 97 6 0 
N 72 79 0 
C 0 0 0 
C 25 0 0 
C 50 0 0 
C 75 0 0 
C 100 0 0 
C 0 25 0 
C 25 25 0 
C 50 25 0 
C 75 25 0 
C 100 25 0 
C 0 50 0 
C 25 50 0 
C 50 50 0 
C 75 50 0 
C 100 50 0 
C 0 75 0 
C 25 75 0 
C 50 75 0 
C 75 75 0 
C 100 75 0 
C 0 100 0 
C 25 100 0 
C 50 100 0 
C 75 100 0 
C 100 100 0 
O 41 35 0 
O 23 14 0 
O 20 92 0 
O 52 77 0 
O 38 61 0 
O 4 22 0 
O 73 66 0 
O 68 58 0 
O 20 57 0 
O 0 44 0 
O 18 98 0 
O 19 38 0 
O 87 24 0 
O 71 91 0 
O 89 57 0 
O 96 31 0 
O 57 61 0 
O 67 47 0 
O 58 97 0 
O 69 64 0 
O 56 84 0 
O 99 81 0 
O 45 14 0 
O 37 90 0 
O 50 43 0 
O 88 75 0 
O 71 93 0 
O 66 58 0 
O 22 85 0 
O 22 58 0 
O 24 21 0 
O 65 82 0 
O 92 59 0 
O 67 19 0 
O 21 22 0 
O 55 94 0 
O 64 49 0 
O 74 49 0 
O 57 9 0 
O 19 95 0 
O 45 49 0 
O 67 59 0 
O 91 30 0 
O 26 75 0 
O 19 63 0 
O 40 37 0 
O 61 99 0 
O 31 66 0 
O 71 95 0 
O 64 0 0 
O 91 63 0 
O 4 82 0 
O 72 82 0 
O 49 44 0 
O 0 61 0 
O 65 98 0 
O 10 22 0 
O 66 88 0 
O 51 77 0 
O 77 81 0 
O 31 11 0 
O 65 91 0 
O 44 45 0 
O 49 11 0 
O 68 23 0 
O 62 52 0 
O 74 4 0 
O 28 74 0 
O 80 25 0 
O 35 66 0 
O 31 62 0 
O 88 55 0 
O 0 72 0 
O 51 1 0 
O 37 30 0 
O 7 33 0 
O 27 76 0 
O 7 20 0 
O 34 54 0 
O 18 53 0 
O 92 14 0 
O 87 47 0 
O 86 29 0 
O 31 96 0 
O 99 55 0 
O 47 6 0 
O 50 69 0 
O 83 41 0 
O 80 37 0 
O 40 57 0 
O 47 0 0 
O 11 22 0 
O 38 82 0 
O 9 95 0 
O 71 21 0 
O 71 98 0 
O 40 59 0 
O 86 90 0 
O 68 86 0 
O 13 81 0 
O 44 79 0 
O 43 47 0 
O 87 84 0 
O 7 99 0 
O 27 54 0 
O 66 99 0 
O 20 54 0 
O 56 86 0 
O 87 82 0 
O 51 49 0 
O 99 15 0 
O 87 23 0 
O 96 78 0 
O 79 28 0 
O 54 52 0 
O 86 34 0 
O 45 2 0 
O 93 32 0 
O 48 74 0 
O 29 67 0 
O 65 79 0 
O 27 13 0 
O 11 27 0 
O 56 55 0 
O 62 13 0 
O 36 81 0 
O 1 75 0 
O 90 1 0 
O 81 86 0 
O 33 20 0 
O 47 97 0 
O 65 64 0 
O 30 22 0 
O 20 91 0 
O 59 67 0 
O 83 20 0 
O 95 16 0 
O 67 64 0 
O 93 27 0 
O 53 3 0 
O 34 10 0 
O 12 62 0 
O 60 88 0 
O 9 0 0 
O 38 58 0 
O 16 2 0 
O 52 81 0 
O 60 2 0 
O 47 44 0 
O 84 46 0 
O 73 3 0 
O 98 28 0 
O 73 92 0 
O 2 2 0 
O 8 3 0 
O 18 58 0 
O 89 87 0 
O 63 86 0 
O 71 97 0 
O 6 22 0 
O 37 97 0 
O 63 8 0 
O 2 22 0 
O 73 96 0 
O 35 10 0 
O 38 54 0 
O 48 58 0 
O 26 70 0 
O 74 79 0 
O 27 50 0 
O 27 74 0 
O 59 18 0 
O 93 17 0 
O 22 61 0 
O 71 87 0 
O 70 61 0 
O 50 72 0 
O 95 24 0 
O 96 9 0 
O 58 88 0 
O 68 41 0 
O 85 88 0 
O 49 47 0 
O 55 72 0 
O 73 42 0 
O 22 64 0 
O 14 65 0 
O 73 70 0 
O 43 35 0 
O 92 86 0 
O 40 0 0 
O 29 51 0 
O 81 41 0 
O 1 84 0 
O 44 64 0 
O 83 1 0 
O 91 28 0 
O 13 77 0 
O 16 35 0 
O 99 75 0 
O 87 89 0 
O 40 38 0 
O 31 58 0 
O 63 93 0 
O 66 90 0 
O 31 70 0 
O 4 13 0 
O 30 34 0 
O 76 96 0 
O 30 57 0 
O 99 59 0 
O 61 87 0 
O 52 17 0 
O 55 62 0 
O 32 5 0 
O 50 54 0 
O 7 23 0 
O 94 31 0 
O 42 3 0 
O 25 21 0 
O 44 15 0 
O 79 93 0 
O 57 88 0 
O 64 12 0 
O 73 47 0 
O 3 16 0 
O 95 29 0 
O 84 1 0 
O 75 4 0 
O 55 82 0 
O 24 19 0 
O 64 88 0 
O 77 65 0 
O 66 7 0 
O 85 19 0 
O 49 70 0 
O 8 85 0 
O 57 66 0 
O 28 92 0 
O 39 92 0 
O 7 47 0 
O 25 62 0 
O 16 53 0 
O 6 16 0 
O 40 58 0 
O 95 32 0 
O 58 76 0 
O 54 57 0 
O 38 24 0 
O 19 93 0 
O 10 24 0 
O 17 6 0 
O 92 33 0 
O 90 79 0 
O 19 99 0 
O 90 28 0 
O 29 86 0 
O 0 15 0 
O 58 99 0 
O 12 30 0 
O 16 75 0 
O 71 59 0 
O 59 95 0 
O 69 62 0 
O 99 30 0 
O 23 63 0 
O 75 10 0 
O 29 97 0 
O 88 23 0 
O 88 6 0 
O 62 61 0 
O 53 95 0 
O 34 19 0 
O 24 54 0 
O 99 17 0 
O 80 80 0 
O 82 43 0 
O 46 91 0 
O 1 63 0 
O 68 90 0 
O 35 0 0 
O 60 3 0 
O 42 47 0 
O 73 58 0 
O 0 21 0 
O 97 53 0 
O 39 32 0 
O 9 99 0 
O 88 32 0 
O 37 15 0 
O 37 60 0 
O 72 49 0 
O 10 89 0 
O 75 2 0 
O 89 83 0 
O 65 17 0 
O 49 3 0 
O 7 42 0 
O 60 86 0 
O 74 91 0 
O 3 47 0 
O 88 98 0 
O 48 83 0 
O 62 17 0 
O 27 24 0 
O 33 49 0 
O 57 80 0 
O 52 72 0 
O 14 86 0 
O 60 10 0 
O 38 10 0 
O 7 78 0 
O 98 58 0 
O 95 52 0 
O 87 85 0 
O 38 92 0 
O 59 78 0 
O 21 21 0 
O 88 0 0 
O 28 47 0 
O 22 75 0 
O 68 3 0 
O 2 19 0 
O 12 33 0 
O 28 2 0 
O 39 67 0 
O 29 16 0 
O 29 60 0 
O 67 82 0 
O 79 62 0 
O 13 83 0 
O 1 96 0 
O 76 12 0 
O 72 34 0 
O 90 96 0 
O 58 85 0 
O 41 73 0 
O 78 88 0 
O 33 42 0 
O 96 33 0 
O 29 85 0 
O 59 84 0 
O 26 56 0 
O 93 63 0 
O 73 98 0 
O 98 24 0 
O 93 1 0 
O 4 86 0 
O 42 55 0 
O 6 41 0 
O 64 83 0 
O 5 1 0 
O 52 21 0 
O 25 67 0 
O 1 29 0 
O 29 54 0 
O 0 19 0 
O 37 73 0 
O 1 0 0 
O 95 28 0 
O 96 61 0 
O 99 90 0 
O 80 0 0 
O 21 49 0 
O 82 1 0 
O 98 23 0 
O 53 39 0 
O 28 17 0 
O 39 45 0 
O 72 18 0 
O 83 49 0 
O 37 68 0 
O 5 90 0 
O 19 74 0 
O 36 58 0 
O 6 35 0 
O 41 60 0 
O 39 7 0 
O 31 41 0 
O 49 51 0 
O 41 12 0 
O 77 85 0 
O 67 38 0 
O 83 58 0 
O 69 96 0 
O 53 83 0 
O 61 74 0 
O 6 86 0 
O 69 47 0 
O 63 12 0 
O 87 29 0 
O 31 9 0 
O 96 88 0 
O 25 8 0 
O 28 66 0 
O 85 6 0 
O 54 1 0 
O 6 89 0 
O 60 63 0 
O 93 31 0 
O 44 30 0 
O 27 20 0 
O 23 59 0 
O 26 65 0 
O 50 47 0 
O 34 47 0 
O 41 71 0 
O 83 74 0 
O 84 16 0 
O 47 59 0 
O 2 88 0 
O 49 90 0 
O 26 58 0 
O 95 49 0 
897
Atoms. Timestep: 9
N 11 27 0 
N 73 65 0 
N 87 56 0 
N 14 19 0 
N 14 18 0 
N 20 22 0 
N 6 13 0 
N 15 96 0 
N 4 9 0 
N 15 48 0 
N 64 34 0 
N 29 76 0 
N 30 32 0 
N 81 34 0 
N 52 77 0 
N 30 34 0 
N 22 67 0 
N 67 40 0 
N 26 73 0 
N 39 80 0 
N 96 8 0 
N 97 37 0 
N 24 23 0 
N 87 25 0 
N 17 22 0 
N 28 76 0 
N 28 32 0 
N 2 30 0 
N 33 52 0 
N 72 68 0 
N 3 55 0 
N 17 63 0 
N 85 34 0 
N 48 11 0 
N 40 41 0 
N 96 89 0 
N 70 34 0 
N 67 8 0 
N 2 47 0 
N 85 64 0 
N 50 51 0 
N 44 31 0 
N 40 81 0 
N 62 51 0 
N 46 90 0 
N 26 9 0 
N 83 86 0 
N 15 97 0 
N 35 97 0 
N 97 64 0 
N 38 8 0 
N 62 93 0 
N 14 82 0 
N 62 49 0 
N 94 49 0 
N 6 59 0 
N 48 55 0 
N 13 8 0 
N 95 23 0 
N 44 66 0 
N 80 40 0 
N 0 45 0 
N 39 39 0 
N 60 78 0 
N 9 64 0 
N 0 14 0 
N 29 94 0 
N 80 80 0 
N 33 43 0 
N 81 55 0 
N 71 82 0 
N 23 75 0 
N 60 74 0 
N 66 56 0 
N 89 30 0 
N 10 47 0 
N 24 85 0 
N 2 89 0 
N 39 2 0 
N 87 46 0 
N 39 37 0 
N 3 48 0 
N 78 69 0 
N 72 30 0 
N 8 83 0 
N 16 20 0 
N 56 82 0 
N 47 27 0 
N 28 92 0 
N 9 35 0 
N 49 24 0 
N 99 83 0 
N 72 18 0 
N 7 47 0 
N 84 6 0 
N 74 66 0 
N 47 7 0 
N 76 15 0 
N 3 82 0 
N 4 33 0 
N 61 0 0 
N 58 20 0 
N 1 28 0 
N 36 81 0 
N 19 71 0 
N 37 45 0 
N 37 73 0 
N 83 37 0 
N 14 54 0 
N 79 13 0 
N 5 65 0 
N 57 61 0 
N 77 34 0 
N 24 22 0 
N 52 95 0 
N 72 31 0 
N 93 86 0 
N 57 88 0 
N 65 56 0 
N 85 15 0 
N 42 65 0 
N 19 43 0 
N 71 34 0 
N 12 62 0 
N 93 45 0 
N 7 32 0 
N 81 50 0 
N 17 8 0 
N 13 59 0 
N 65 67 0 
N 54 40 0 
N 27 83 0 
N 75 4 0 
N 73 72 0 
N 87 28 0 
N 68 39 0 
N 82 43 0 
N 16 46 0 
N 50 81 0 
N 71 99 0 
N 31 66 0 
N 61 61 0 
N 40 7 0 
N 29 97 0 
N 63 12 0 
N 77 29 0 
N 18 95 0 
N 9 90 0 
N 71 57 0 
N 24 73 0 
N 95 46 0 
N 81 88 0 
N 98 83 0 
N 55 61 0 
N 13 65 0 
N 39 46 0 
N 20 47 0 
N 7 77 0 
N 4 12 0 
N 52 23 0 
N 65 83 0 
N 28 95 0 
N 19 23 0 
N 93 17 0 
N 97 66 0 
N 28 74 0 
N 31 42 0 
N 10 35 0 
N 67 1 0 
N 13 23 0 
N 81 37 0 
N 49 47 0 
N 9 65 0 
N 88 32 0 
N 28 16 0 
N 38 22 0 
N 79 91 0 
N 38 90 0 
N 16 54 0 
N 49 91 0 
N 97 77 0 
N 5 35 0 
N 20 38 0 
N 25 19 0 
N 86 24 0 
N 90 2 0 
N 98 93 0 
N 14 86 0 
N 28 33 0 
N 61 33 0 
N 98 55 0 
N 77 35 0 
N 16 81 0 
N 12 67 0 
N 18 25 0 
N 30 30 0 
N 76 7 0 
N 97 61 0 
N 65 12 0 
N 19 6 0 
N 89 63 0 
N 62 13 0 
N 29 92 0 
N 65 23 0 
N 92 15 0 
N 96 95 0 
N 96 94 0 
N 15 83 0 
N 66 2 0 
N 5 33 0 
N 4 55 0 
N 81 58 0 
N 90 87 0 
N 37 89 0 
N 63 49 0 
N 73 46 0 
N 9 1 0 
N 67 46 0 
N 46 92 0 
N 30 35 0 
N 72 35 0 
N 88 56 0 
N 68 19 0 
N 98 75 0 
N 59 68 0 
N 14 81 0 
N 87 34 0 
N 31 93 0 
N 19 67 0 
N 85 71 0 
N 29 37 0 
N 82 44 0 
N 38 82 0 
N 78 89 0 
N 73 21 0 
N 83 19 0 
N 15 8 0 
N 9 49 0 
N 52 39 0 
N 57 39 0 
N 95 28 0 
N 15 35 0 
N 40 12 0 
N 83 46 0 
N 14 62 0 
N 91 3 0 
N 14 67 0 
N 84 62 0 
N 18 9 0 
N 41 72 0 
N 74 67 0 
N 73 70 0 
N 2 72 0 
N 68 57 0 
N 10 64 0 
N 33 96 0 
N 5 13 0 
N 43 15 0 
N 61 52 0 
N 37 19 0 
N 88 2 0 
N 51 49 0 
N 78 81 0 
N 88 99 0 
N 68 26 0 
N 10 95 0 
N 87 83 0 
N 78 68 0 
N 7 46 0 
N 50 68 0 
N 52 22 0 
N 66 38 0 
N 75 49 0 
N 91 2 0 
N 91 27 0 
N 30 31 0 
N 26 8 0 
N 48 6 0 
N 99 81 0 
N 94 18 0 
N 68 22 0 
N 77 97 0 
N 10 99 0 
N 64 46 0 
N 23 85 0 
N 76 13 0 
N 16 3 0 
N 48 17 0 
N 30 36 0 
N 28 81 0 
N 46 30 0 
N 13 61 0 
N 97 50 0 
N 48 84 0 
N 74 21 0 
N 1 97 0 
N 66 59 0 
N 58 80 0 
N 32 60 0 
N 85 8 0 
N 38 23 0 
N 62 73 0 
N 55 93 0 
N 87 54 0 
N 15 87 0 
N 46 2 0 
N 9 47 0 
N 12 89 0 
N 47 4 0 
N 52 97 0 
N 36 71 0 
N 59 20 0 
N 40 25 0 
N 91 12 0 
N 16 48 0 
N 27 80 0 
N 63 13 0 
N 46 41 0 
N 1 0 0 
N 87 75 0 
N 90 30 0 
N 58 33 0 
N 56 63 0 
N 27 58 0 
N 40 92 0 
N 95 48 0 
N 31 71 0 
N 47 39 0 
N 48 28 0 
N 40 24 0 
N 71 27 0 
N 38 81 0 
N 76 95 0 
N 44 78 0 
N 25 9 0 
N 76 4 0 
N 27 92 0 
N 54 39 0 
N 12 77 0 
N 81 87 0 
N 95 49 0 
N 21 95 0 
N 48 58 0 
N 19 33 0 
N 72 70 0 
N 38 38 0 
N 97 56 0 
N 48 57 0 
N 28 35 0 
N 16 18 0 
N 42 57 0 
N 68 24 0 
N 74 71 0 
N 49 74 0 
N 58 9 0 
N 95 44 0 
N 5 43 0 
N 73 44 0 
N 29 83 0 
N 77 38 0 
N 36 97 0 
N 65 64 0 
N 71 91 0 
N 46 47 0 
N 74 42 0 
N 2 6 0 
N 13 2 0 
N 62 74 0 
N 7 24 0 
N 13 52 0 
N 4 87 0 
N 88 71 0 
N 29 31 0 
N 63 32 0 
N 41 68 0 
N 68 54 0 
N 24 53 0 
N 51 26 0 
N 20 41 0 
N 59 97 0 
N 94 44 0 
N 57 97 0 
N 38 60 0 
N 37 24 0 
N 50 47 0 
N 59 21 0 
N 18 7 0 
N 91 73 0 
N 40 39 0 
N 16 8 0 
N 34 10 0 
N 75 7 0 
N 47 40 0 
N 50 42 0 
N 6 36 0 
N 77 82 0 
N 36 24 0 
N 91 79 0 
N 6 47 0 
N 55 10 0 
N 78 32 0 
N 5 16 0 
N 86 76 0 
N 48 59 0 
N 55 9 0 
N 48 23 0 
N 59 70 0 
N 98 74 0 
N 31 22 0 
N 43 55 0 
N 73 63 0 
N 80 49 0 
N 80 37 0 
N 88 57 0 
N 79 79 0 
N 37 82 0 
N 96 44 0 
N 67 23 0 
N 39 23 0 
N 13 62 0 
N 5 46 0 
N 19 58 0 
N 30 51 0 
N 60 50 0 
N 44 15 0 
N 79 25 0 
N 82 58 0 
N 57 99 0 
N 72 21 0 
N 84 41 0 
N 68 27 0 
N 31 94 0 
N 12 60 0 
N 52 20 0 
N 6 33 0 
N 52 42 0 
N 8 43 0 
N 2 22 0 
N 33 48 0 
N 96 77 0 
N 31 95 0 
N 86 33 0 
N 93 14 0 
N 5 38 0 
N 67 20 0 
N 35 10 0 
N 39 91 0 
N 55 55 0 
N 76 10 0 
N 70 33 0 
N 39 24 0 
N 68 87 0 
N 21 38 0 
N 21 47 0 
N 83 14 0 
N 6 15 0 
N 56 61 0 
N 85 7 0 
N 21 6 0 
N 33 18 0 
N 78 28 0 
N 6 91 0 
N 21 57 0 
N 62 60 0 
N 45 49 0 
N 6 90 0 
N 95 92 0 
N 57 22 0 
N 18 66 0 
N 70 93 0 
N 94 52 0 
N 52 43 0 
N 26 70 0 
N 22 49 0 
N 75 9 0 
N 67 67 0 
N 96 76 0 
N 68 55 0 
N 36 9 0 
N 68 40 0 
N 27 49 0 
N 55 71 0 
N 7 59 0 
N 79 59 0 
N 49 69 0 
N 8 84 0 
N 26 56 0 
N 83 53 0 
N 22 14 0 
N 59 51 0 
N 41 24 0 
N 96 18 0 
N 61 36 0 
N 20 34 0 
N 8 65 0 
N 70 7 0 
N 53 94 0 
N 10 61 0 
N 97 7 0 
N 73 79 0 
C 0 0 0 
C 25 0 0 
C 50 0 0 
C 75 0 0 
C 100 0 0 
C 0 25 0 
C 25 25 0 
C 50 25 0 
C 75 25 0 
C 100 25 0 
C 0 50 0 
C 25 50 0 
C 50 50 0 
C 75 50 0 
C 100 50 0 
C 0 75 0 
C 25 75 0 
C 50 75 0 
C 75 75 0 
C 100 75 0 
C 0 100 0 
C 25 100 0 
C 50 100 0 
C 75 100 0 
C 100 100 0 
O 41 36 0 
O 23 13 0 
O 21 92 0 
O 39 61 0 
O 4 21 0 
O 73 67 0 
O 69 58 0 
O 20 56 0 
O 0 43 0 
O 19 98 0 
O 19 37 0 
O 88 24 0 
O 89 58 0 
O 97 31 0 
O 67 48 0 
O 58 98 0 
O 70 64 0 
O 55 84 0 
O 44 14 0 
O 37 91 0 
O 50 44 0 
O 88 74 0 
O 71 94 0 
O 66 57 0 
O 22 86 0 
O 22 59 0 
O 25 21 0 
O 65 81 0 
O 91 59 0 
O 66 19 0 
O 21 23 0 
O 54 94 0 
O 64 50 0 
O 74 50 0 
O 56 9 0 
O 19 94 0 
O 68 59 0 
O 92 30 0 
O 27 75 0 
O 19 62 0 
O 40 36 0 
O 62 99 0 
O 72 95 0 
O 64 1 0 
O 90 63 0 
O 5 82 0 
O 73 82 0 
O 49 45 0 
O 99 61 0 
O 64 98 0 
O 10 21 0 
O 67 88 0 
O 51 76 0 
O 77 81 0 
O 32 11 0 
O 64 91 0 
O 45 45 0 
O 49 12 0 
O 69 23 0 
O 63 52 0 
O 74 3 0 
O 81 25 0 
O 36 66 0 
O 32 62 0 
O 88 54 0 
O 0 71 0 
O 52 1 0 
O 36 30 0 
O 7 34 0 
O 26 76 0 
O 8 20 0 
O 35 54 0 
O 18 52 0 
O 92 13 0 
O 87 48 0 
O 85 29 0 
O 31 97 0 
O 99 56 0 
O 46 6 0 
O 51 69 0 
O 82 41 0 
O 41 57 0 
O 47 1 0 
O 12 22 0 
O 8 95 0 
O 71 22 0 
O 71 97 0 
O 40 58 0 
O 86 91 0 
O 69 86 0 
O 13 80 0 
O 43 79 0 
O 43 46 0 
O 86 84 0 
O 6 99 0 
O 26 54 0 
O 66 0 0 
O 21 54 0 
O 56 85 0 
O 86 82 0 
O 99 16 0 
O 87 22 0 
O 96 79 0 
O 79 29 0 
O 55 52 0 
O 86 35 0 
O 44 2 0 
O 94 32 0 
O 48 75 0 
O 29 68 0 
O 64 79 0 
O 27 14 0 
O 56 54 0 
O 1 74 0 
O 90 0 0 
O 80 86 0 
O 32 20 0 
O 48 97 0 
O 30 21 0 
O 19 91 0 
O 59 66 0 
O 84 20 0 
O 94 16 0 
O 67 65 0 
O 93 26 0 
O 52 3 0 
O 60 87 0 
O 10 0 0 
O 37 58 0 
O 16 1 0 
O 51 81 0 
O 59 2 0 
O 47 43 0 
O 84 47 0 
O 72 3 0 
O 97 28 0 
O 73 91 0 
O 1 2 0 
O 8 4 0 
O 18 59 0 
O 89 88 0 
O 62 86 0 
O 71 96 0 
O 7 22 0 
O 37 96 0 
O 62 8 0 
O 74 96 0 
O 39 54 0 
O 74 78 0 
O 27 51 0 
O 26 74 0 
O 60 18 0 
O 21 61 0 
O 71 86 0 
O 71 61 0 
O 49 72 0 
O 94 24 0 
O 97 9 0 
O 59 88 0 
O 68 42 0 
O 85 89 0 
O 56 72 0 
O 72 42 0 
O 22 63 0 
O 15 65 0 
O 42 35 0 
O 91 86 0 
O 39 0 0 
O 28 51 0 
O 80 41 0 
O 1 85 0 
O 44 63 0 
O 83 0 0 
O 92 28 0 
O 13 76 0 
O 16 34 0 
O 99 76 0 
O 87 90 0 
O 41 38 0 
O 30 58 0 
O 63 92 0 
O 66 91 0 
O 31 69 0 
O 4 14 0 
O 75 96 0 
O 31 57 0 
O 0 59 0 
O 62 87 0 
O 51 17 0 
O 55 63 0 
O 32 6 0 
O 49 54 0 
O 6 23 0 
O 94 30 0 
O 41 3 0 
O 25 20 0 
O 78 93 0 
O 64 13 0 
O 74 47 0 
O 3 17 0 
O 96 29 0 
O 84 2 0 
O 55 81 0 
O 24 20 0 
O 65 88 0 
O 76 65 0 
O 66 6 0 
O 84 19 0 
O 50 70 0 
O 7 85 0 
O 57 67 0 
O 38 92 0 
O 25 61 0 
O 15 53 0 
O 7 16 0 
O 39 58 0 
O 96 32 0 
O 59 76 0 
O 54 56 0 
O 38 25 0 
O 18 93 0 
O 11 24 0 
O 18 6 0 
O 93 33 0 
O 89 79 0 
O 18 99 0 
O 90 27 0 
O 30 86 0 
O 0 16 0 
O 58 0 0 
O 13 30 0 
O 16 74 0 
O 71 60 0 
O 59 94 0 
O 69 63 0 
O 0 30 0 
O 24 63 0 
O 74 10 0 
O 89 23 0 
O 88 5 0 
O 62 62 0 
O 54 95 0 
O 33 19 0 
O 23 54 0 
O 99 18 0 
O 45 91 0 
O 1 62 0 
O 67 90 0 
O 34 0 0 
O 61 3 0 
O 42 46 0 
O 72 58 0 
O 1 21 0 
O 96 53 0 
O 39 31 0 
O 8 99 0 
O 38 15 0 
O 36 60 0 
O 72 50 0 
O 10 90 0 
O 76 2 0 
O 89 84 0 
O 66 17 0 
O 49 4 0 
O 7 43 0 
O 59 86 0 
O 75 91 0 
O 4 47 0 
O 88 97 0 
O 48 82 0 
O 62 16 0 
O 27 23 0 
O 33 50 0 
O 57 79 0 
O 52 71 0 
O 59 10 0 
O 37 10 0 
O 8 78 0 
O 98 57 0 
O 95 51 0 
O 86 85 0 
O 37 92 0 
O 58 78 0 
O 22 21 0 
O 89 0 0 
O 28 48 0 
O 22 74 0 
O 69 3 0 
O 2 18 0 
O 11 33 0 
O 28 1 0 
O 40 67 0 
O 29 17 0 
O 28 60 0 
O 66 82 0 
O 79 61 0 
O 13 82 0 
O 0 96 0 
O 76 11 0 
O 72 34 0 
O 89 96 0 
O 58 84 0 
O 40 73 0 
O 78 87 0 
O 33 41 0 
O 97 33 0 
O 29 84 0 
O 60 84 0 
O 92 63 0 
O 73 99 0 
O 98 23 0 
O 94 1 0 
O 3 86 0 
O 42 54 0 
O 6 42 0 
O 64 82 0 
O 6 1 0 
O 51 21 0 
O 25 66 0 
O 2 29 0 
O 28 54 0 
O 1 19 0 
O 96 62 0 
O 98 90 0 
O 79 0 0 
O 21 50 0 
O 82 2 0 
O 97 23 0 
O 53 40 0 
O 27 17 0 
O 39 44 0 
O 83 50 0 
O 36 68 0 
O 5 91 0 
O 20 74 0 
O 36 57 0 
O 6 34 0 
O 40 60 0 
O 39 6 0 
O 32 41 0 
O 49 52 0 
O 41 13 0 
O 76 85 0 
O 68 38 0 
O 84 58 0 
O 68 96 0 
O 52 83 0 
O 61 75 0 
O 6 87 0 
O 69 46 0 
O 88 29 0 
O 32 9 0 
O 96 87 0 
O 25 7 0 
O 28 65 0 
O 86 6 0 
O 54 2 0 
O 5 89 0 
O 60 62 0 
O 92 31 0 
O 45 30 0 
O 27 19 0 
O 24 59 0 
O 25 65 0 
O 34 46 0 
O 42 71 0 
O 84 74 0 
O 84 17 0 
O 46 59 0 
O 3 88 0 
O 48 90 0 
O 25 58 0 
868
Atoms. Timestep: 10
N 11 26 0 
N 74 65 0 
N 88 56 0 
N 14 20 0 
N 13 18 0 
N 21 22 0 
N 6 14 0 
N 16 96 0 
N 4 10 0 
N 15 49 0 
N 64 35 0 
N 28 76 0 
N 31 32 0 
N 81 35 0 
N 52 76 0 
N 30 35 0 
N 22 66 0 
N 67 41 0 
N 26 74 0 
N 40 80 0 
N 96 9 0 
N 97 36 0 
N 25 23 0 
N 88 25 0 
N 18 22 0 
N 27 76 0 
N 29 32 0 
N 2 29 0 
N 33 51 0 
N 73 68 0 
N 4 55 0 
N 18 63 0 
N 85 33 0 
N 48 12 0 
N 40 40 0 
N 96 88 0 
N 70 35 0 
N 66 8 0 
N 3 47 0 
N 85 63 0 
N 49 51 0 
N 43 31 0 
N 41 81 0 
N 63 51 0 
N 46 91 0 
N 25 9 0 
N 82 86 0 
N 15 98 0 
N 36 97 0 
N 96 64 0 
N 37 8 0 
N 62 92 0 
N 14 81 0 
N 63 49 0 
N 94 50 0 
N 5 59 0 
N 48 56 0 
N 12 8 0 
N 94 23 0 
N 44 65 0 
N 80 41 0 
N 0 44 0 
N 40 39 0 
N 59 78 0 
N 10 64 0 
N 0 15 0 
N 30 94 0 
N 80 81 0 
N 33 42 0 
N 81 56 0 
N 72 82 0 
N 23 74 0 
N 60 75 0 
N 66 57 0 
N 88 30 0 
N 9 47 0 
N 24 86 0 
N 2 88 0 
N 39 1 0 
N 87 47 0 
N 39 36 0 
N 4 48 0 
N 77 69 0 
N 73 30 0 
N 8 84 0 
N 15 20 0 
N 56 81 0 
N 48 27 0 
N 27 92 0 
N 9 36 0 
N 49 23 0 
N 98 83 0 
N 72 19 0 
N 7 47 0 
N 85 6 0 
N 75 66 0 
N 46 7 0 
N 76 14 0 
N 4 82 0 
N 4 34 0 
N 62 0 0 
N 58 19 0 
N 2 28 0 
N 36 80 0 
N 19 72 0 
N 38 45 0 
N 38 73 0 
N 83 38 0 
N 14 53 0 
N 79 12 0 
N 4 65 0 
N 57 62 0 
N 78 34 0 
N 25 22 0 
N 53 95 0 
N 73 31 0 
N 93 85 0 
N 58 88 0 
N 65 57 0 
N 84 15 0 
N 43 65 0 
N 19 42 0 
N 71 35 0 
N 12 63 0 
N 93 46 0 
N 7 33 0 
N 82 50 0 
N 17 7 0 
N 14 59 0 
N 65 66 0 
N 53 40 0 
N 28 83 0 
N 75 3 0 
N 74 72 0 
N 88 28 0 
N 68 38 0 
N 82 42 0 
N 17 46 0 
N 50 80 0 
N 71 98 0 
N 31 67 0 
N 61 62 0 
N 39 7 0 
N 30 97 0 
N 62 12 0 
N 78 29 0 
N 18 94 0 
N 10 90 0 
N 71 58 0 
N 25 73 0 
N 95 47 0 
N 81 87 0 
N 97 83 0 
N 55 60 0 
N 14 65 0 
N 39 45 0 
N 21 47 0 
N 8 77 0 
N 4 12 0 
N 51 23 0 
N 65 82 0 
N 29 95 0 
N 20 23 0 
N 93 16 0 
N 97 65 0 
N 28 75 0 
N 32 42 0 
N 11 35 0 
N 67 0 0 
N 13 22 0 
N 82 37 0 
N 49 48 0 
N 9 65 0 
N 88 31 0 
N 29 16 0 
N 38 22 0 
N 79 90 0 
N 38 90 0 
N 16 53 0 
N 48 91 0 
N 97 78 0 
N 6 35 0 
N 19 38 0 
N 25 20 0 
N 87 24 0 
N 90 1 0 
N 98 92 0 
N 13 86 0 
N 29 33 0 
N 61 34 0 
N 99 55 0 
N 78 35 0 
N 15 81 0 
N 13 67 0 
N 18 24 0 
N 31 30 0 
N 75 7 0 
N 98 61 0 
N 64 12 0 
N 19 7 0 
N 90 63 0 
N 62 14 0 
N 29 93 0 
N 66 23 0 
N 92 15 0 
N 95 95 0 
N 95 94 0 
N 15 82 0 
N 66 1 0 
N 5 34 0 
N 5 55 0 
N 82 58 0 
N 91 87 0 
N 37 90 0 
N 64 49 0 
N 74 46 0 
N 10 1 0 
N 67 47 0 
N 45 92 0 
N 31 35 0 
N 72 34 0 
N 88 57 0 
N 68 19 0 
N 99 75 0 
N 59 67 0 
N 14 80 0 
N 87 35 0 
N 31 94 0 
N 19 66 0 
N 85 72 0 
N 30 37 0 
N 82 44 0 
N 38 81 0 
N 78 88 0 
N 72 21 0 
N 84 19 0 
N 16 8 0 
N 9 48 0 
N 52 40 0 
N 56 39 0 
N 96 28 0 
N 16 35 0 
N 40 13 0 
N 83 45 0 
N 14 63 0 
N 90 3 0 
N 15 67 0 
N 84 61 0 
N 19 9 0 
N 41 73 0 
N 73 67 0 
N 73 69 0 
N 2 71 0 
N 69 57 0 
N 10 65 0 
N 33 97 0 
N 4 13 0 
N 43 14 0 
N 62 52 0 
N 37 18 0 
N 88 3 0 
N 50 49 0 
N 78 82 0 
N 88 98 0 
N 69 26 0 
N 9 95 0 
N 86 83 0 
N 78 67 0 
N 6 46 0 
N 51 68 0 
N 51 22 0 
N 67 38 0 
N 74 49 0 
N 91 1 0 
N 90 27 0 
N 31 31 0 
N 26 7 0 
N 47 6 0 
N 98 81 0 
N 94 17 0 
N 69 22 0 
N 77 96 0 
N 10 98 0 
N 64 47 0 
N 22 85 0 
N 76 12 0 
N 15 3 0 
N 49 17 0 
N 31 36 0 
N 27 81 0 
N 45 30 0 
N 13 62 0 
N 97 51 0 
N 48 83 0 
N 74 22 0 
N 0 97 0 
N 66 58 0 
N 58 79 0 
N 32 61 0 
N 86 8 0 
N 38 23 0 
N 62 74 0 
N 55 94 0 
N 88 54 0 
N 14 87 0 
N 47 2 0 
N 8 47 0 
N 11 89 0 
N 48 4 0 
N 52 96 0 
N 36 70 0 
N 59 19 0 
N 39 25 0 
N 92 12 0 
N 16 49 0 
N 27 79 0 
N 64 13 0 
N 46 42 0 
N 1 1 0 
N 88 75 0 
N 91 30 0 
N 57 33 0 
N 55 63 0 
N 26 58 0 
N 39 92 0 
N 95 49 0 
N 31 70 0 
N 47 38 0 
N 48 29 0 
N 40 24 0 
N 71 26 0 
N 39 81 0 
N 76 96 0 
N 44 79 0 
N 25 8 0 
N 76 3 0 
N 27 91 0 
N 53 39 0 
N 12 76 0 
N 80 87 0 
N 95 50 0 
N 21 94 0 
N 48 59 0 
N 19 33 0 
N 72 69 0 
N 39 38 0 
N 98 56 0 
N 49 57 0 
N 29 35 0 
N 15 18 0 
N 41 57 0 
N 69 24 0 
N 74 70 0 
N 48 74 0 
N 59 9 0 
N 95 43 0 
N 5 42 0 
N 73 43 0 
N 29 84 0 
N 77 39 0 
N 37 97 0 
N 66 64 0 
N 72 91 0 
N 45 47 0 
N 73 42 0 
N 2 5 0 
N 13 3 0 
N 62 75 0 
N 7 23 0 
N 13 53 0 
N 4 88 0 
N 88 72 0 
N 29 30 0 
N 63 33 0 
N 41 67 0 
N 68 55 0 
N 24 54 0 
N 51 25 0 
N 20 40 0 
N 58 97 0 
N 93 44 0 
N 56 97 0 
N 38 61 0 
N 37 25 0 
N 50 46 0 
N 60 21 0 
N 18 6 0 
N 90 73 0 
N 41 39 0 
N 16 7 0 
N 34 11 0 
N 75 8 0 
N 47 41 0 
N 50 43 0 
N 7 36 0 
N 77 81 0 
N 36 25 0 
N 90 79 0 
N 6 47 0 
N 56 10 0 
N 78 31 0 
N 6 16 0 
N 86 75 0 
N 47 59 0 
N 56 9 0 
N 48 22 0 
N 59 71 0 
N 97 74 0 
N 31 21 0 
N 42 55 0 
N 73 64 0 
N 81 49 0 
N 80 38 0 
N 89 57 0 
N 78 79 0 
N 37 83 0 
N 96 43 0 
N 68 23 0 
N 39 24 0 
N 13 63 0 
N 5 47 0 
N 18 58 0 
N 29 51 0 
N 61 50 0 
N 44 14 0 
N 80 25 0 
N 82 59 0 
N 57 98 0 
N 72 22 0 
N 83 41 0 
N 68 28 0 
N 31 95 0 
N 11 60 0 
N 52 21 0 
N 6 34 0 
N 52 41 0 
N 7 43 0 
N 2 21 0 
N 33 49 0 
N 96 78 0 
N 31 96 0 
N 86 34 0 
N 92 14 0 
N 5 39 0 
N 67 19 0 
N 35 10 0 
N 38 91 0 
N 56 55 0 
N 76 11 0 
N 71 33 0 
N 38 24 0 
N 68 88 0 
N 21 37 0 
N 21 48 0 
N 84 14 0 
N 7 15 0 
N 56 62 0 
N 86 7 0 
N 20 6 0 
N 33 19 0 
N 79 28 0 
N 5 91 0 
N 20 57 0 
N 62 61 0 
N 45 48 0 
N 6 89 0 
N 96 92 0 
N 58 22 0 
N 17 66 0 
N 71 93 0 
N 95 52 0 
N 52 44 0 
N 26 71 0 
N 21 49 0 
N 75 10 0 
N 67 66 0 
N 96 76 0 
N 69 55 0 
N 36 10 0 
N 68 41 0 
N 27 50 0 
N 56 71 0 
N 7 59 0 
N 79 60 0 
N 50 69 0 
N 7 84 0 
N 26 55 0 
N 83 52 0 
N 22 13 0 
N 60 51 0 
N 41 25 0 
N 97 18 0 
N 62 36 0 
N 19 34 0 
N 8 65 0 
N 70 6 0 
N 54 94 0 
N 11 61 0 
N 97 8 0 
N 73 78 0 
C 0 0 0 
C 25 0 0 
C 50 0 0 
C 75 0 0 
C 100 0 0 
C 0 25 0 
C 25 25 0 
C 50 25 0 
C 75 25 0 
C 100 25 0 
C 0 50 0 
C 25 50 0 
C 50 50 0 
C 75 50 0 
C 100 50 0 
C 0 75 0 
C 25 75 0 
C 50 75 0 
C 75 75 0 
C 100 75 0 
C 0 100 0 
C 25 100 0 
C 50 100 0 
C 75 100 0 
C 100 100 0 
O 40 36 0 
O 23 12 0 
O 20 92 0 
O 40 61 0 
O 5 21 0 
O 68 58 0 
O 19 56 0 
O 1 43 0 
O 20 98 0 
O 20 37 0 
O 88 23 0 
O 90 58 0 
O 98 31 0 
O 68 48 0 
O 59 98 0 
O 70 63 0 
O 56 84 0 
O 37 92 0 
O 51 44 0 
O 87 74 0 
O 70 94 0 
O 22 87 0 
O 22 58 0 
O 24 21 0 
O 65 80 0 
O 91 60 0 
O 66 18 0 
O 21 24 0 
O 63 50 0 
O 73 50 0 
O 20 94 0 
O 67 59 0 
O 92 31 0 
O 27 74 0 
O 19 61 0 
O 40 35 0 
O 63 99 0 
O 72 96 0 
O 64 2 0 
O 5 81 0 
O 73 83 0 
O 50 45 0 
O 99 62 0 
O 64 99 0 
O 10 22 0 
O 66 88 0 
O 50 76 0 
O 33 11 0 
O 63 91 0 
O 44 45 0 
O 49 13 0 
O 70 23 0 
O 64 52 0 
O 74 2 0 
O 81 24 0 
O 37 66 0 
O 31 62 0 
O 0 72 0 
O 52 0 0 
O 36 29 0 
O 7 35 0 
O 26 77 0 
O 8 19 0 
O 35 53 0 
O 18 51 0 
O 91 13 0 
O 88 48 0 
O 85 30 0 
O 32 97 0 
O 0 56 0 
O 46 5 0 
O 52 69 0 
O 82 40 0 
O 47 0 0 
O 11 22 0 
O 7 95 0 
O 70 22 0 
O 72 97 0 
O 41 58 0 
O 87 91 0 
O 69 85 0 
O 13 79 0 
O 42 79 0 
O 43 47 0 
O 87 84 0 
O 6 98 0 
O 25 54 0 
O 65 0 0 
O 20 54 0 
O 57 85 0 
O 87 82 0 
O 99 17 0 
O 86 22 0 
O 97 79 0 
O 79 30 0 
O 56 52 0 
O 86 36 0 
O 43 2 0 
O 94 33 0 
O 47 75 0 
O 29 69 0 
O 64 78 0 
O 26 14 0 
O 57 54 0 
O 1 75 0 
O 90 99 0 
O 80 85 0 
O 33 20 0 
O 49 97 0 
O 29 21 0 
O 18 91 0 
O 58 66 0 
O 85 20 0 
O 95 16 0 
O 67 64 0 
O 93 25 0 
O 53 3 0 
O 60 86 0 
O 10 99 0 
O 37 59 0 
O 15 1 0 
O 51 82 0 
O 59 1 0 
O 47 42 0 
O 84 46 0 
O 73 3 0 
O 98 28 0 
O 74 91 0 
O 0 2 0 
O 7 4 0 
O 19 59 0 
O 89 87 0 
O 62 85 0 
O 70 96 0 
O 6 22 0 
O 38 96 0 
O 62 7 0 
O 73 96 0 
O 40 54 0 
O 74 79 0 
O 28 51 0 
O 60 17 0 
O 22 61 0 
O 71 87 0 
O 70 61 0 
O 50 72 0 
O 94 25 0 
O 98 9 0 
O 60 88 0 
O 69 42 0 
O 84 89 0 
O 56 73 0 
O 71 42 0 
O 22 64 0 
O 15 66 0 
O 43 35 0 
O 91 85 0 
O 39 99 0 
O 28 52 0 
O 0 85 0 
O 45 63 0 
O 82 0 0 
O 93 28 0 
O 13 75 0 
O 16 33 0 
O 98 76 0 
O 88 90 0 
O 41 37 0 
O 30 57 0 
O 64 92 0 
O 66 90 0 
O 32 69 0 
O 4 15 0 
O 75 95 0 
O 31 58 0 
O 0 58 0 
O 61 87 0 
O 52 17 0 
O 32 7 0 
O 50 54 0 
O 5 23 0 
O 94 29 0 
O 40 3 0 
O 77 93 0 
O 73 47 0 
O 3 16 0 
O 96 30 0 
O 83 2 0 
O 55 80 0 
O 24 19 0 
O 65 89 0 
O 76 64 0 
O 67 6 0 
O 50 71 0 
O 8 85 0 
O 56 67 0 
O 38 93 0 
O 26 61 0 
O 15 52 0 
O 7 17 0 
O 38 58 0 
O 96 33 0 
O 59 77 0 
O 54 57 0 
O 38 26 0 
O 17 93 0 
O 12 24 0 
O 93 32 0 
O 88 79 0 
O 17 99 0 
O 30 85 0 
O 0 17 0 
O 58 99 0 
O 13 29 0 
O 17 74 0 
O 71 59 0 
O 59 93 0 
O 68 63 0 
O 0 31 0 
O 24 64 0 
O 74 11 0 
O 89 24 0 
O 89 5 0 
O 62 63 0 
O 54 96 0 
O 22 54 0 
O 0 18 0 
O 44 91 0 
O 1 61 0 
O 67 89 0 
O 33 0 0 
O 61 2 0 
O 42 45 0 
O 73 58 0 
O 1 20 0 
O 96 52 0 
O 38 31 0 
O 7 99 0 
O 38 14 0 
O 36 59 0 
O 72 51 0 
O 75 2 0 
O 90 84 0 
O 65 17 0 
O 50 4 0 
O 59 85 0 
O 75 90 0 
O 4 46 0 
O 87 97 0 
O 47 82 0 
O 62 17 0 
O 28 23 0 
O 34 50 0 
O 57 80 0 
O 52 70 0 
O 60 10 0 
O 37 11 0 
O 9 78 0 
O 98 58 0 
O 94 51 0 
O 86 86 0 
O 37 93 0 
O 58 77 0 
O 21 21 0 
O 89 99 0 
O 29 48 0 
O 22 73 0 
O 69 4 0 
O 2 17 0 
O 10 33 0 
O 28 0 0 
O 40 68 0 
O 29 18 0 
O 28 61 0 
O 66 81 0 
O 79 62 0 
O 13 81 0 
O 1 96 0 
O 88 96 0 
O 58 85 0 
O 39 73 0 
O 78 86 0 
O 33 40 0 
O 97 32 0 
O 60 85 0 
O 91 63 0 
O 74 99 0 
O 98 22 0 
O 94 0 0 
O 3 85 0 
O 41 54 0 
O 7 42 0 
O 63 82 0 
O 6 2 0 
O 50 21 0 
O 25 65 0 
O 28 53 0 
O 2 19 0 
O 96 63 0 
O 98 89 0 
O 79 1 0 
O 20 50 0 
O 81 2 0 
O 96 23 0 
O 26 17 0 
O 40 44 0 
O 84 50 0 
O 36 69 0 
O 20 75 0 
O 37 57 0 
O 39 60 0 
O 38 6 0 
O 32 40 0 
O 48 52 0 
O 42 13 0 
O 76 84 0 
O 85 58 0 
O 69 96 0 
O 51 83 0 
O 61 76 0 
O 6 88 0 
O 70 46 0 
O 87 29 0 
O 32 10 0 
O 97 87 0 
O 25 6 0 
O 27 65 0 
O 87 6 0 
O 55 2 0 
O 5 88 0 
O 59 62 0 
O 92 32 0 
O 27 18 0 
O 23 59 0 
O 24 65 0 
O 33 46 0 
O 43 71 0 
O 84 75 0 
O 84 16 0 
O 45 59 0 
O 3 87 0 
O 47 90 0 
O 25 57 0 
833
Atoms. Timestep: 11
N 12 26 0 
N 75 65 0 
N 89 56 0 
N 14 21 0 
N 13 19 0 
N 21 21 0 
N 5 14 0 
N 16 95 0 
N 4 11 0 
N 15 50 0 
N 65 35 0 
N 28 77 0 
N 31 31 0 
N 82 35 0 
N 51 76 0 
N 30 36 0 
N 22 65 0 
N 67 42 0 
N 27 74 0 
N 40 79 0 
N 97 9 0 
N 97 35 0 
N 24 23 0 
N 88 25 0 
N 19 22 0 
N 27 76 0 
N 30 32 0 
N 2 30 0 
N 34 51 0 
N 73 67 0 
N 3 55 0 
N 18 62 0 
N 85 32 0 
N 48 13 0 
N 41 40 0 
N 96 87 0 
N 69 35 0 
N 67 8 0 
N 3 46 0 
N 85 62 0 
N 48 51 0 
N 43 32 0 
N 41 80 0 
N 64 51 0 
N 45 91 0 
N 25 8 0 
N 82 85 0 
N 15 97 0 
N 36 96 0 
N 96 63 0 
N 37 9 0 
N 63 92 0 
N 13 81 0 
N 63 50 0 
N 94 51 0 
N 4 59 0 
N 49 56 0 
N 11 8 0 
N 94 24 0 
N 44 64 0 
N 81 41 0 
N 0 45 0 
N 41 39 0 
N 59 77 0 
N 11 64 0 
N 0 16 0 
N 31 94 0 
N 80 82 0 
N 33 41 0 
N 81 57 0 
N 72 83 0 
N 22 74 0 
N 60 76 0 
N 66 58 0 
N 87 30 0 
N 9 46 0 
N 23 86 0 
N 3 88 0 
N 39 2 0 
N 88 47 0 
N 40 36 0 
N 4 48 0 
N 76 69 0 
N 74 30 0 
N 8 85 0 
N 15 21 0 
N 56 80 0 
N 48 26 0 
N 26 92 0 
N 9 35 0 
N 49 22 0 
N 97 83 0 
N 72 20 0 
N 6 47 0 
N 86 6 0 
N 76 66 0 
N 46 8 0 
N 76 13 0 
N 4 81 0 
N 3 34 0 
N 63 0 0 
N 58 18 0 
N 3 28 0 
N 37 80 0 
N 19 73 0 
N 38 44 0 
N 39 73 0 
N 83 39 0 
N 14 52 0 
N 79 13 0 
N 4 64 0 
N 58 62 0 
N 79 34 0 
N 24 22 0 
N 53 95 0 
N 74 31 0 
N 92 85 0 
N 59 88 0 
N 65 58 0 
N 84 16 0 
N 43 64 0 
N 20 42 0 
N 71 36 0 
N 12 62 0 
N 94 46 0 
N 8 33 0 
N 83 50 0 
N 17 6 0 
N 15 59 0 
N 65 65 0 
N 52 40 0 
N 29 83 0 
N 75 2 0 
N 74 73 0 
N 88 29 0 
N 69 38 0 
N 82 42 0 
N 18 46 0 
N 50 81 0 
N 72 98 0 
N 32 67 0 
N 61 63 0 
N 38 7 0 
N 30 96 0 
N 62 11 0 
N 78 30 0 
N 18 93 0 
N 10 89 0 
N 71 59 0 
N 25 74 0 
N 94 47 0 
N 80 87 0 
N 97 84 0 
N 54 60 0 
N 15 65 0 
N 40 45 0 
N 20 47 0 
N 8 78 0 
N 3 12 0 
N 50 23 0 
N 65 81 0 
N 28 95 0 
N 20 22 0 
N 94 16 0 
N 97 64 0 
N 27 75 0 
N 32 41 0 
N 10 35 0 
N 66 0 0 
N 12 22 0 
N 82 38 0 
N 49 49 0 
N 9 64 0 
N 87 31 0 
N 29 17 0 
N 38 22 0 
N 78 90 0 
N 37 90 0 
N 15 53 0 
N 47 91 0 
N 97 79 0 
N 6 34 0 
N 19 37 0 
N 25 21 0 
N 88 24 0 
N 90 2 0 
N 98 91 0 
N 13 85 0 
N 30 33 0 
N 61 35 0 
N 98 55 0 
N 79 35 0 
N 15 81 0 
N 13 68 0 
N 19 24 0 
N 31 29 0 
N 75 8 0 
N 98 62 0 
N 64 13 0 
N 20 7 0 
N 91 63 0 
N 62 15 0 
N 30 93 0 
N 67 23 0 
N 91 15 0 
N 94 95 0 
N 94 94 0 
N 14 82 0 
N 65 1 0 
N 5 33 0 
N 5 56 0 
N 83 58 0 
N 90 87 0 
N 37 91 0 
N 64 50 0 
N 74 47 0 
N 11 1 0 
N 67 48 0 
N 44 92 0 
N 31 36 0 
N 72 35 0 
N 89 57 0 
N 68 18 0 
N 98 75 0 
N 59 66 0 
N 14 79 0 
N 87 36 0 
N 31 93 0 
N 19 65 0 
N 85 73 0 
N 31 37 0 
N 82 43 0 
N 39 81 0 
N 78 87 0 
N 71 21 0 
N 85 19 0 
N 16 7 0 
N 8 48 0 
N 51 40 0 
N 56 40 0 
N 97 28 0 
N 16 34 0 
N 41 13 0 
N 83 46 0 
N 15 63 0 
N 89 3 0 
N 15 66 0 
N 85 61 0 
N 20 9 0 
N 42 73 0 
N 73 66 0 
N 73 69 0 
N 2 72 0 
N 68 57 0 
N 11 65 0 
N 32 97 0 
N 4 14 0 
N 43 13 0 
N 63 52 0 
N 37 17 0 
N 88 4 0 
N 50 49 0 
N 78 83 0 
N 88 97 0 
N 69 25 0 
N 8 95 0 
N 86 84 0 
N 77 67 0 
N 5 46 0 
N 52 68 0 
N 50 22 0 
N 67 39 0 
N 74 50 0 
N 91 2 0 
N 91 27 0 
N 32 31 0 
N 26 6 0 
N 47 5 0 
N 97 81 0 
N 95 17 0 
N 70 22 0 
N 77 95 0 
N 10 99 0 
N 64 48 0 
N 22 86 0 
N 77 12 0 
N 15 2 0 
N 50 17 0 
N 32 36 0 
N 27 80 0 
N 44 30 0 
N 13 63 0 
N 96 51 0 
N 48 82 0 
N 73 22 0 
N 1 97 0 
N 67 58 0 
N 57 79 0 
N 32 62 0 
N 87 8 0 
N 38 23 0 
N 62 75 0 
N 55 95 0 
N 89 54 0 
N 14 86 0 
N 47 1 0 
N 8 46 0 
N 11 88 0 
N 49 4 0 
N 53 96 0 
N 36 69 0 
N 59 18 0 
N 39 26 0 
N 92 13 0 
N 16 50 0 
N 27 78 0 
N 64 14 0 
N 45 42 0 
N 1 2 0 
N 88 76 0 
N 92 30 0 
N 56 33 0 
N 56 63 0 
N 25 58 0 
N 39 92 0 
N 94 49 0 
N 32 70 0 
N 47 37 0 
N 49 29 0 
N 39 24 0 
N 70 26 0 
N 39 80 0 
N 76 95 0 
N 43 79 0 
N 25 7 0 
N 76 2 0 
N 26 91 0 
N 53 38 0 
N 13 76 0 
N 80 86 0 
N 95 51 0 
N 20 94 0 
N 47 59 0 
N 18 33 0 
N 71 69 0 
N 40 38 0 
N 99 56 0 
N 50 57 0 
N 29 36 0 
N 14 18 0 
N 41 58 0 
N 70 24 0 
N 74 69 0 
N 48 75 0 
N 59 10 0 
N 94 43 0 
N 6 42 0 
N 72 43 0 
N 29 85 0 
N 78 39 0 
N 37 96 0 
N 67 64 0 
N 73 91 0 
N 44 47 0 
N 72 42 0 
N 2 4 0 
N 13 2 0 
N 61 75 0 
N 7 22 0 
N 13 52 0 
N 5 88 0 
N 88 73 0 
N 30 30 0 
N 64 33 0 
N 41 66 0 
N 68 56 0 
N 25 54 0 
N 51 24 0 
N 20 41 0 
N 59 97 0 
N 94 44 0 
N 56 96 0 
N 39 61 0 
N 37 26 0 
N 50 45 0 
N 60 20 0 
N 19 6 0 
N 90 74 0 
N 41 38 0 
N 15 7 0 
N 33 11 0 
N 74 8 0 
N 47 42 0 
N 50 44 0 
N 7 35 0 
N 77 82 0 
N 36 26 0 
N 89 79 0 
N 5 47 0 
N 57 10 0 
N 79 31 0 
N 6 17 0 
N 86 74 0 
N 46 59 0 
N 57 9 0 
N 48 21 0 
N 58 71 0 
N 98 74 0 
N 30 21 0 
N 42 54 0 
N 74 64 0 
N 82 49 0 
N 80 39 0 
N 89 58 0 
N 77 79 0 
N 37 84 0 
N 96 43 0 
N 69 23 0 
N 38 24 0 
N 13 64 0 
N 4 47 0 
N 18 59 0 
N 28 51 0 
N 62 50 0 
N 44 13 0 
N 80 24 0 
N 83 59 0 
N 58 98 0 
N 71 22 0 
N 82 41 0 
N 69 28 0 
N 32 95 0 
N 11 61 0 
N 51 21 0 
N 7 34 0 
N 52 42 0 
N 8 43 0 
N 3 21 0 
N 33 50 0 
N 96 79 0 
N 32 96 0 
N 86 33 0 
N 91 14 0 
N 6 39 0 
N 67 18 0 
N 34 10 0 
N 38 92 0 
N 57 55 0 
N 76 11 0 
N 71 34 0 
N 38 25 0 
N 68 89 0 
N 20 37 0 
N 21 49 0 
N 84 14 0 
N 7 16 0 
N 56 62 0 
N 87 7 0 
N 21 6 0 
N 33 20 0 
N 79 29 0 
N 5 90 0 
N 20 56 0 
N 62 62 0 
N 44 48 0 
N 6 88 0 
N 96 91 0 
N 59 22 0 
N 16 66 0 
N 71 94 0 
N 96 52 0 
N 51 44 0 
N 27 71 0 
N 21 50 0 
N 75 11 0 
N 67 65 0 
N 97 76 0 
N 69 56 0 
N 37 10 0 
N 68 42 0 
N 27 51 0 
N 56 72 0 
N 7 58 0 
N 79 61 0 
N 51 69 0 
N 7 85 0 
N 25 55 0 
N 83 51 0 
N 23 13 0 
N 60 50 0 
N 41 26 0 
N 97 17 0 
N 63 36 0 
N 20 34 0 
N 8 66 0 
N 69 6 0 
N 54 95 0 
N 12 61 0 
N 98 8 0 
N 74 78 0 
C 0 0 0 
C 25 0 0 
C 50 0 0 
C 75 0 0 
C 100 0 0 
C 0 25 0 
C 25 25 0 
C 50 25 0 
C 75 25 0 
C 100 25 0 
C 0 50 0 
C 25 50 0 
C 50 50 0 
C 75 50 0 
C 100 50 0 
C 0 75 0 
C 25 75 0 
C 50 75 0 
C 75 75 0 
C 100 75 0 
C 0 100 0 
C 25 100 0 
C 50 100 0 
C 75 100 0 
C 100 100 0 
O 22 12 0 
O 19 92 0 
O 40 60 0 
O 6 21 0 
O 69 58 0 
O 18 56 0 
O 1 42 0 
O 19 98 0 
O 89 23 0 
O 91 58 0 
O 98 30 0 
O 69 48 0 
O 60 98 0 
O 69 63 0 
O 56 83 0 
O 36 92 0 
O 87 73 0 
O 69 94 0 
O 22 88 0 
O 22 57 0 
O 23 21 0 
O 65 79 0 
O 92 60 0 
O 66 19 0 
O 21 25 0 
O 73 51 0 
O 68 59 0 
O 92 32 0 
O 20 61 0 
O 41 35 0 
O 62 99 0 
O 73 96 0 
O 63 2 0 
O 5 80 0 
O 73 84 0 
O 99 61 0 
O 64 98 0 
O 10 21 0 
O 66 89 0 
O 49 76 0 
O 64 91 0 
O 44 44 0 
O 49 12 0 
O 71 23 0 
O 65 52 0 
O 74 3 0 
O 81 25 0 
O 37 65 0 
O 31 61 0 
O 0 73 0 
O 52 99 0 
O 36 28 0 
O 25 77 0 
O 7 19 0 
O 35 54 0 
O 19 51 0 
O 90 13 0 
O 88 49 0 
O 85 29 0 
O 0 55 0 
O 46 4 0 
O 53 69 0 
O 83 40 0 
O 46 0 0 
O 11 21 0 
O 7 96 0 
O 73 97 0 
O 87 92 0 
O 69 86 0 
O 12 79 0 
O 41 79 0 
O 43 46 0 
O 88 84 0 
O 7 98 0 
O 65 99 0 
O 19 54 0 
O 57 84 0 
O 87 81 0 
O 0 17 0 
O 86 23 0 
O 80 30 0 
O 56 53 0 
O 86 37 0 
O 44 2 0 
O 93 33 0 
O 47 74 0 
O 28 69 0 
O 65 78 0 
O 25 14 0 
O 56 54 0 
O 2 75 0 
O 91 99 0 
O 80 84 0 
O 49 96 0 
O 28 21 0 
O 19 91 0 
O 57 66 0 
O 84 20 0 
O 96 16 0 
O 93 26 0 
O 54 3 0 
O 61 86 0 
O 36 59 0 
O 14 1 0 
O 52 82 0 
O 59 2 0 
O 85 46 0 
O 73 4 0 
O 98 29 0 
O 74 90 0 
O 0 3 0 
O 7 3 0 
O 19 58 0 
O 88 87 0 
O 62 86 0 
O 70 97 0 
O 6 23 0 
O 39 96 0 
O 62 8 0 
O 74 96 0 
O 39 54 0 
O 73 79 0 
O 61 17 0 
O 22 62 0 
O 72 87 0 
O 70 62 0 
O 51 72 0 
O 95 25 0 
O 99 9 0 
O 60 89 0 
O 69 43 0 
O 85 89 0 
O 56 74 0 
O 71 41 0 
O 21 64 0 
O 43 36 0 
O 91 86 0 
O 39 0 0 
O 29 52 0 
O 1 85 0 
O 45 62 0 
O 82 1 0 
O 94 28 0 
O 13 74 0 
O 17 33 0 
O 98 77 0 
O 88 89 0 
O 40 37 0 
O 29 57 0 
O 64 93 0 
O 66 91 0 
O 33 69 0 
O 4 16 0 
O 75 96 0 
O 31 57 0 
O 1 58 0 
O 62 87 0 
O 52 16 0 
O 33 7 0 
O 50 55 0 
O 4 23 0 
O 94 30 0 
O 39 3 0 
O 77 92 0 
O 73 46 0 
O 3 17 0 
O 95 30 0 
O 83 3 0 
O 55 79 0 
O 23 19 0 
O 65 90 0 
O 77 64 0 
O 66 6 0 
O 49 71 0 
O 55 67 0 
O 37 93 0 
O 25 61 0 
O 16 52 0 
O 7 18 0 
O 38 57 0 
O 95 33 0 
O 55 57 0 
O 38 27 0 
O 17 94 0 
O 12 23 0 
O 93 31 0 
O 88 78 0 
O 17 98 0 
O 30 84 0 
O 1 17 0 
O 57 99 0 
O 14 29 0 
O 18 74 0 
O 59 92 0 
O 68 64 0 
O 0 32 0 
O 25 64 0 
O 73 11 0 
O 89 25 0 
O 88 5 0 
O 62 64 0 
O 55 96 0 
O 21 54 0 
O 99 18 0 
O 44 90 0 
O 2 61 0 
O 67 88 0 
O 33 1 0 
O 62 2 0 
O 41 45 0 
O 72 58 0 
O 1 21 0 
O 38 30 0 
O 6 99 0 
O 38 13 0 
O 36 58 0 
O 72 52 0 
O 89 84 0 
O 66 17 0 
O 50 5 0 
O 59 86 0 
O 75 89 0 
O 4 45 0 
O 87 98 0 
O 46 82 0 
O 62 18 0 
O 29 23 0 
O 35 50 0 
O 58 80 0 
O 51 70 0 
O 60 9 0 
O 36 11 0 
O 10 78 0 
O 97 58 0 
O 86 85 0 
O 37 94 0 
O 58 78 0 
O 88 99 0 
O 30 48 0 
O 21 73 0 
O 70 4 0 
O 2 16 0 
O 10 32 0 
O 29 0 0 
O 40 69 0 
O 29 19 0 
O 27 61 0 
O 66 80 0 
O 80 62 0 
O 0 96 0 
O 88 95 0 
O 58 86 0 
O 79 86 0 
O 32 40 0 
O 98 32 0 
O 61 85 0 
O 74 0 0 
O 98 23 0 
O 93 0 0 
O 2 85 0 
O 41 55 0 
O 8 42 0 
O 63 81 0 
O 6 1 0 
O 49 21 0 
O 25 66 0 
O 27 53 0 
O 2 20 0 
O 97 89 0 
O 80 1 0 
O 19 50 0 
O 81 1 0 
O 97 23 0 
O 27 17 0 
O 41 44 0 
O 84 51 0 
O 19 75 0 
O 36 57 0 
O 39 59 0 
O 37 6 0 
O 31 40 0 
O 47 52 0 
O 42 14 0 
O 75 84 0 
O 84 58 0 
O 68 96 0 
O 51 84 0 
O 61 77 0 
O 70 45 0 
O 86 29 0 
O 31 10 0 
O 98 87 0 
O 24 6 0 
O 27 66 0 
O 87 5 0 
O 56 2 0 
O 60 62 0 
O 91 32 0 
O 28 18 0 
O 24 59 0 
O 23 65 0 
O 33 45 0 
O 43 70 0 
O 83 75 0 
O 45 58 0 
O 3 86 0 
O 47 89 0 
O 26 57 0 
812
Atoms. Timestep: 12
N 13 26 0 
N 75 65 0 
N 89 57 0 
N 13 21 0 
N 12 19 0 
N 22 21 0 
N 4 14 0 
N 17 95 0 
N 4 12 0 
N 16 50 0 
N 66 35 0 
N 28 77 0 
N 32 31 0 
N 82 36 0 
N 50 76 0 
N 31 36 0 
N 23 65 0 
N 67 43 0 
N 27 75 0 
N 40 79 0 
N 97 9 0 
N 97 34 0 
N 24 22 0 
N 89 25 0 
N 19 21 0 
N 26 76 0 
N 29 32 0 
N 3 30 0 
N 35 51 0 
N 74 67 0 
N 2 55 0 
N 18 61 0 
N 85 31 0 
N 49 13 0 
N 41 41 0 
N 97 87 0 
N 69 36 0 
N 66 8 0 
N 3 45 0 
N 84 62 0 
N 47 51 0 
N 43 33 0 
N 41 79 0 
N 65 51 0 
N 45 90 0 
N 24 8 0 
N 81 85 0 
N 16 97 0 
N 37 96 0 
N 96 62 0 
N 37 10 0 
N 63 91 0 
N 12 81 0 
N 63 51 0 
N 94 50 0 
N 3 59 0 
N 49 55 0 
N 10 8 0 
N 94 25 0 
N 45 64 0 
N 81 40 0 
N 1 45 0 
N 41 38 0 
N 59 76 0 
N 12 64 0 
N 99 16 0 
N 32 94 0 
N 80 83 0 
N 33 40 0 
N 81 58 0 
N 73 83 0 
N 21 74 0 
N 60 77 0 
N 67 58 0 
N 86 30 0 
N 8 46 0 
N 23 87 0 
N 3 87 0 
N 39 3 0 
N 88 48 0 
N 40 35 0 
N 4 48 0 
N 77 69 0 
N 75 30 0 
N 7 85 0 
N 15 21 0 
N 55 80 0 
N 47 26 0 
N 25 92 0 
N 9 34 0 
N 49 22 0 
N 97 84 0 
N 72 19 0 
N 6 46 0 
N 86 5 0 
N 76 65 0 
N 46 7 0 
N 76 12 0 
N 4 80 0 
N 2 34 0 
N 63 1 0 
N 58 17 0 
N 3 29 0 
N 38 80 0 
N 18 73 0 
N 39 44 0 
N 39 72 0 
N 83 40 0 
N 14 52 0 
N 79 12 0 
N 4 63 0 
N 59 62 0 
N 79 33 0 
N 23 22 0 
N 52 95 0 
N 75 31 0 
N 92 86 0 
N 60 88 0 
N 65 58 0 
N 84 17 0 
N 43 63 0 
N 19 42 0 
N 71 37 0 
N 13 62 0 
N 94 47 0 
N 9 33 0 
N 84 50 0 
N 18 6 0 
N 16 59 0 
N 64 65 0 
N 51 40 0 
N 30 83 0 
N 74 2 0 
N 73 73 0 
N 87 29 0 
N 69 39 0 
N 83 42 0 
N 19 46 0 
N 50 82 0 
N 73 98 0 
N 33 67 0 
N 61 64 0 
N 38 6 0 
N 29 96 0 
N 62 10 0 
N 78 30 0 
N 19 93 0 
N 9 89 0 
N 72 59 0 
N 25 74 0 
N 93 47 0 
N 80 86 0 
N 97 85 0 
N 55 60 0 
N 15 64 0 
N 41 45 0 
N 20 48 0 
N 9 78 0 
N 3 13 0 
N 50 22 0 
N 65 80 0 
N 28 94 0 
N 20 21 0 
N 94 16 0 
N 98 64 0 
N 26 75 0 
N 32 40 0 
N 10 34 0 
N 66 1 0 
N 12 23 0 
N 82 39 0 
N 49 50 0 
N 8 64 0 
N 86 31 0 
N 29 18 0 
N 38 22 0 
N 78 91 0 
N 37 91 0 
N 15 52 0 
N 47 90 0 
N 97 78 0 
N 6 33 0 
N 19 36 0 
N 24 21 0 
N 88 23 0 
N 91 2 0 
N 97 91 0 
N 12 85 0 
N 30 34 0 
N 62 35 0 
N 97 55 0 
N 80 35 0 
N 14 81 0 
N 13 69 0 
N 19 25 0 
N 32 29 0 
N 75 9 0 
N 99 62 0 
N 64 14 0 
N 20 8 0 
N 92 63 0 
N 61 15 0 
N 31 93 0 
N 67 22 0 
N 91 14 0 
N 93 95 0 
N 93 94 0 
N 13 82 0 
N 65 2 0 
N 4 33 0 
N 5 55 0 
N 84 58 0 
N 90 86 0 
N 36 91 0 
N 65 50 0 
N 74 46 0 
N 12 1 0 
N 68 48 0 
N 44 91 0 
N 31 37 0 
N 72 36 0 
N 90 57 0 
N 67 18 0 
N 98 76 0 
N 59 65 0 
N 13 79 0 
N 87 37 0 
N 31 92 0 
N 19 64 0 
N 84 73 0 
N 31 38 0 
N 83 43 0 
N 39 80 0 
N 79 87 0 
N 71 20 0 
N 85 20 0 
N 16 6 0 
N 8 47 0 
N 51 39 0 
N 56 41 0 
N 98 28 0 
N 15 34 0 
N 41 14 0 
N 84 46 0 
N 15 62 0 
N 89 4 0 
N 16 66 0 
N 84 61 0 
N 21 9 0 
N 43 73 0 
N 74 66 0 
N 73 68 0 
N 1 72 0 
N 68 56 0 
N 12 65 0 
N 32 96 0 
N 4 15 0 
N 42 13 0 
N 64 52 0 
N 37 16 0 
N 88 5 0 
N 50 49 0 
N 78 84 0 
N 87 97 0 
N 68 25 0 
N 7 95 0 
N 86 85 0 
N 77 66 0 
N 5 45 0 
N 53 68 0 
N 51 22 0 
N 68 39 0 
N 73 50 0 
N 91 3 0 
N 92 27 0 
N 33 31 0 
N 25 6 0 
N 46 5 0 
N 98 81 0 
N 95 16 0 
N 69 22 0 
N 76 95 0 
N 10 98 0 
N 65 48 0 
N 22 87 0 
N 77 11 0 
N 14 2 0 
N 51 17 0 
N 32 37 0 
N 26 80 0 
N 43 30 0 
N 14 63 0 
N 96 52 0 
N 47 82 0 
N 72 22 0 
N 1 96 0 
N 68 58 0 
N 56 79 0 
N 31 62 0 
N 87 7 0 
N 38 23 0 
N 62 76 0 
N 56 95 0 
N 90 54 0 
N 13 86 0 
N 46 1 0 
N 7 46 0 
N 12 88 0 
N 49 5 0 
N 53 97 0 
N 36 68 0 
N 59 17 0 
N 39 27 0 
N 92 13 0 
N 16 51 0 
N 27 77 0 
N 65 14 0 
N 44 42 0 
N 1 3 0 
N 88 77 0 
N 92 31 0 
N 56 34 0 
N 56 64 0 
N 25 59 0 
N 38 92 0 
N 93 49 0 
N 33 70 0 
N 47 36 0 
N 49 30 0 
N 38 24 0 
N 69 26 0 
N 40 80 0 
N 75 95 0 
N 42 79 0 
N 26 7 0 
N 76 3 0 
N 25 91 0 
N 53 37 0 
N 13 75 0 
N 79 86 0 
N 95 50 0 
N 20 93 0 
N 47 58 0 
N 17 33 0 
N 71 68 0 
N 40 37 0 
N 98 56 0 
N 50 56 0 
N 29 37 0 
N 13 18 0 
N 41 59 0 
N 69 24 0 
N 74 68 0 
N 48 76 0 
N 59 9 0 
N 94 42 0 
N 5 42 0 
N 71 43 0 
N 29 84 0 
N 79 39 0 
N 38 96 0 
N 68 64 0 
N 74 91 0 
N 44 46 0 
N 71 42 0 
N 2 3 0 
N 13 1 0 
N 61 76 0 
N 7 21 0 
N 13 52 0 
N 4 88 0 
N 87 73 0 
N 30 29 0 
N 64 34 0 
N 40 66 0 
N 69 56 0 
N 26 54 0 
N 52 24 0 
N 19 41 0 
N 59 96 0 
N 93 44 0 
N 55 96 0 
N 39 60 0 
N 37 27 0 
N 50 44 0 
N 61 20 0 
N 20 6 0 
N 90 73 0 
N 41 37 0 
N 15 6 0 
N 33 11 0 
N 73 8 0 
N 47 43 0 
N 49 44 0 
N 8 35 0 
N 76 82 0 
N 36 27 0 
N 89 78 0 
N 4 47 0 
N 58 10 0 
N 79 30 0 
N 6 18 0 
N 87 74 0 
N 45 59 0 
N 58 9 0 
N 49 21 0 
N 58 72 0 
N 97 74 0 
N 29 21 0 
N 41 54 0 
N 75 64 0 
N 83 49 0 
N 80 40 0 
N 90 58 0 
N 76 79 0 
N 36 84 0 
N 95 43 0 
N 68 23 0 
N 38 25 0 
N 14 64 0 
N 4 46 0 
N 19 59 0 
N 28 52 0 
N 62 51 0 
N 44 14 0 
N 81 24 0 
N 84 59 0 
N 59 98 0 
N 71 23 0 
N 83 41 0 
N 69 27 0 
N 33 95 0 
N 12 61 0 
N 50 21 0 
N 7 33 0 
N 51 42 0 
N 8 42 0 
N 2 21 0 
N 34 50 0 
N 96 78 0 
N 33 96 0 
N 86 34 0 
N 91 13 0 
N 7 39 0 
N 67 19 0 
N 34 11 0 
N 37 92 0 
N 57 54 0 
N 75 11 0 
N 71 35 0 
N 38 26 0 
N 67 89 0 
N 20 36 0 
N 21 50 0 
N 84 15 0 
N 7 17 0 
N 57 62 0 
N 87 6 0 
N 21 5 0 
N 32 20 0 
N 80 29 0 
N 5 89 0 
N 19 56 0 
N 62 63 0 
N 43 48 0 
N 6 87 0 
N 96 90 0 
N 59 21 0 
N 16 65 0 
N 70 94 0 
N 95 52 0 
N 51 44 0 
N 27 70 0 
N 20 50 0 
N 75 10 0 
N 68 65 0 
N 97 77 0 
N 69 57 0 
N 37 11 0 
N 69 42 0 
N 27 52 0 
N 56 73 0 
N 6 58 0 
N 79 62 0 
N 50 69 0 
N 6 85 0 
N 26 55 0 
N 84 51 0 
N 22 13 0 
N 61 50 0 
N 41 27 0 
N 96 17 0 
N 64 36 0 
N 20 33 0 
N 7 66 0 
N 68 6 0 
N 54 96 0 
N 13 61 0 
N 98 9 0 
N 73 78 0 
C 0 0 0 
C 25 0 0 
C 50 0 0 
C 75 0 0 
C 100 0 0 
C 0 25 0 
C 25 25 0 
C 50 25 0 
C 75 25 0 
C 100 25 0 
C 0 50 0 
C 25 50 0 
C 50 50 0 
C 75 50 0 
C 100 50 0 
C 0 75 0 
C 25 75 0 
C 50 75 0 
C 75 75 0 
C 100 75 0 
C 0 100 0 
C 25 100 0 
C 50 100 0 
C 75 100 0 
C 100 100 0 
O 22 11 0 
O 19 91 0 
O 40 61 0 
O 6 22 0 
O 70 58 0 
O 17 56 0 
O 0 42 0 
O 19 99 0 
O 90 23 0 
O 91 59 0 
O 98 29 0 
O 70 48 0 
O 60 97 0 
O 69 62 0 
O 57 83 0 
O 36 93 0 
O 69 95 0 
O 21 88 0 
O 23 57 0 
O 23 20 0 
O 65 78 0 
O 91 60 0 
O 66 20 0 
O 21 24 0 
O 74 51 0 
O 68 60 0 
O 93 32 0 
O 19 61 0 
O 41 34 0 
O 63 99 0 
O 72 96 0 
O 63 3 0 
O 5 81 0 
O 74 84 0 
O 0 61 0 
O 63 98 0 
O 10 20 0 
O 66 88 0 
O 49 77 0 
O 64 90 0 
O 45 44 0 
O 48 12 0 
O 66 52 0 
O 75 3 0 
O 81 26 0 
O 37 64 0 
O 31 60 0 
O 0 74 0 
O 53 99 0 
O 36 29 0 
O 25 78 0 
O 6 19 0 
O 36 54 0 
O 18 51 0 
O 90 12 0 
O 88 50 0 
O 84 29 0 
O 0 54 0 
O 47 4 0 
O 52 69 0 
O 46 99 0 
O 12 21 0 
O 7 97 0 
O 73 97 0 
O 88 92 0 
O 69 85 0 
O 12 80 0 
O 42 46 0 
O 88 85 0 
O 7 99 0 
O 65 98 0 
O 19 55 0 
O 58 84 0 
O 87 80 0 
O 0 16 0 
O 86 24 0 
O 80 31 0 
O 56 54 0 
O 86 36 0 
O 45 2 0 
O 94 33 0 
O 47 73 0 
O 28 70 0 
O 64 78 0 
O 25 13 0 
O 56 55 0 
O 1 75 0 
O 92 99 0 
O 80 85 0 
O 49 95 0 
O 28 20 0 
O 18 91 0 
O 56 66 0 
O 83 20 0 
O 97 16 0 
O 92 26 0 
O 54 4 0 
O 62 86 0 
O 37 59 0 
O 15 1 0 
O 52 81 0 
O 60 2 0 
O 86 46 0 
O 74 4 0 
O 97 29 0 
O 75 90 0 
O 0 2 0 
O 7 4 0 
O 20 58 0 
O 87 87 0 
O 62 87 0 
O 71 97 0 
O 7 23 0 
O 39 97 0 
O 62 9 0 
O 74 97 0 
O 38 54 0 
O 74 79 0 
O 62 17 0 
O 23 62 0 
O 72 88 0 
O 70 63 0 
O 52 72 0 
O 95 24 0 
O 99 10 0 
O 59 89 0 
O 68 43 0 
O 86 89 0 
O 57 74 0 
O 71 40 0 
O 21 65 0 
O 44 36 0 
O 91 85 0 
O 38 0 0 
O 30 52 0 
O 2 85 0 
O 44 62 0 
O 83 1 0 
O 94 27 0 
O 14 74 0 
O 98 78 0 
O 87 89 0 
O 29 56 0 
O 65 93 0 
O 67 91 0 
O 32 69 0 
O 3 16 0 
O 75 97 0 
O 31 56 0 
O 1 57 0 
O 63 87 0 
O 51 16 0 
O 34 7 0 
O 51 55 0 
O 5 23 0 
O 94 29 0 
O 78 92 0 
O 73 45 0 
O 4 17 0 
O 95 29 0 
O 83 4 0 
O 54 79 0 
O 23 18 0 
O 65 91 0 
O 77 63 0 
O 65 6 0 
O 50 71 0 
O 55 66 0 
O 37 94 0 
O 26 61 0 
O 17 52 0 
O 8 18 0 
O 38 56 0 
O 95 32 0 
O 54 57 0 
O 38 28 0 
O 16 94 0 
O 93 30 0 
O 87 78 0 
O 18 98 0 
O 30 85 0 
O 2 17 0 
O 56 99 0 
O 15 29 0 
O 18 75 0 
O 60 92 0 
O 99 32 0 
O 24 64 0 
O 73 10 0 
O 63 64 0 
O 20 54 0 
O 99 19 0 
O 44 89 0 
O 2 60 0 
O 68 88 0 
O 33 2 0 
O 62 1 0 
O 71 58 0 
O 1 22 0 
O 39 30 0 
O 5 99 0 
O 38 14 0 
O 36 57 0 
O 71 52 0 
O 89 85 0 
O 66 16 0 
O 50 6 0 
O 59 85 0 
O 76 89 0 
O 4 44 0 
O 87 99 0 
O 46 83 0 
O 62 19 0 
O 29 24 0 
O 36 50 0 
O 59 80 0 
O 51 69 0 
O 60 8 0 
O 36 10 0 
O 10 79 0 
O 98 58 0 
O 36 94 0 
O 58 79 0 
O 89 99 0 
O 30 47 0 
O 21 72 0 
O 70 3 0 
O 1 16 0 
O 10 31 0 
O 30 0 0 
O 41 69 0 
O 30 19 0 
O 27 62 0 
O 67 80 0 
O 80 61 0 
O 0 97 0 
O 88 94 0 
O 58 85 0 
O 97 32 0 
O 60 85 0 
O 73 0 0 
O 99 23 0 
O 92 0 0 
O 2 84 0 
O 41 56 0 
O 64 81 0 
O 6 0 0 
O 26 66 0 
O 27 54 0 
O 1 20 0 
O 97 90 0 
O 81 1 0 
O 19 49 0 
O 81 2 0 
O 97 22 0 
O 28 17 0 
O 41 43 0 
O 19 76 0 
O 35 57 0 
O 38 59 0 
O 36 6 0 
O 31 41 0 
O 48 52 0 
O 43 14 0 
O 75 85 0 
O 67 96 0 
O 50 84 0 
O 62 77 0 
O 71 45 0 
O 86 28 0 
O 31 9 0 
O 99 87 0 
O 24 5 0 
O 28 66 0 
O 87 4 0 
O 57 2 0 
O 60 61 0 
O 91 33 0 
O 27 18 0 
O 24 60 0 
O 33 46 0 
O 43 71 0 
O 84 75 0 
O 46 58 0 
O 3 85 0 
O 47 88 0 
O 27 57 0 
788
Atoms. Timestep: 13
N 13 27 0 
N 75 64 0 
N 90 57 0 
N 12 21 0 
N 12 20 0 
N 23 21 0 
N 4 15 0 
N 16 95 0 
N 3 12 0 
N 17 50 0 
N 67 35 0 
N 28 78 0 
N 33 31 0 
N 83 36 0 
N 50 77 0 
N 31 37 0 
N 22 65 0 
N 68 43 0 
N 27 75 0 
N 41 79 0 
N 97 10 0 
N 97 33 0 
N 25 22 0 
N 90 25 0 
N 20 21 0 
N 27 76 0 
N 29 31 0 
N 3 31 0 
N 36 51 0 
N 74 66 0 
N 2 54 0 
N 19 61 0 
N 84 31 0 
N 48 13 0 
N 41 42 0 
N 98 87 0 
N 69 37 0 
N 66 7 0 
N 3 44 0 
N 84 61 0 
N 48 51 0 
N 43 34 0 
N 42 79 0 
N 65 50 0 
N 45 89 0 
N 24 7 0 
N 81 85 0 
N 16 96 0 
N 37 95 0 
N 96 61 0 
N 36 10 0 
N 64 91 0 
N 12 80 0 
N 63 52 0 
N 94 50 0 
N 2 59 0 
N 49 55 0 
N 10 7 0 
N 95 25 0 
N 44 64 0 
N 81 39 0 
N 1 44 0 
N 41 37 0 
N 58 76 0 
N 12 63 0 
N 98 16 0 
N 31 94 0 
N 81 83 0 
N 32 40 0 
N 81 59 0 
N 74 83 0 
N 21 73 0 
N 59 77 0 
N 68 58 0 
N 86 29 0 
N 8 45 0 
N 23 88 0 
N 3 86 0 
N 39 2 0 
N 88 49 0 
N 39 35 0 
N 4 47 0 
N 77 68 0 
N 76 30 0 
N 6 85 0 
N 14 21 0 
N 54 80 0 
N 46 26 0 
N 25 93 0 
N 9 33 0 
N 48 22 0 
N 96 84 0 
N 72 20 0 
N 6 45 0 
N 86 6 0 
N 76 64 0 
N 46 6 0 
N 75 12 0 
N 4 81 0 
N 3 34 0 
N 62 1 0 
N 59 17 0 
N 4 29 0 
N 38 81 0 
N 18 74 0 
N 39 43 0 
N 39 71 0 
N 82 40 0 
N 15 52 0 
N 79 11 0 
N 3 63 0 
N 60 62 0 
N 80 33 0 
N 23 23 0 
N 51 95 0 
N 76 31 0 
N 92 85 0 
N 59 88 0 
N 66 58 0 
N 84 18 0 
N 43 62 0 
N 19 43 0 
N 71 38 0 
N 13 62 0 
N 93 47 0 
N 9 32 0 
N 85 50 0 
N 19 6 0 
N 16 58 0 
N 64 64 0 
N 51 41 0 
N 30 83 0 
N 74 3 0 
N 74 73 0 
N 87 28 0 
N 69 40 0 
N 84 42 0 
N 19 47 0 
N 50 83 0 
N 73 97 0 
N 32 67 0 
N 61 64 0 
N 37 6 0 
N 30 96 0 
N 62 9 0 
N 79 30 0 
N 19 92 0 
N 8 89 0 
N 72 58 0 
N 25 74 0 
N 93 48 0 
N 80 85 0 
N 97 86 0 
N 55 59 0 
N 15 63 0 
N 42 45 0 
N 19 48 0 
N 10 78 0 
N 3 14 0 
N 50 22 0 
N 65 79 0 
N 29 94 0 
N 21 21 0 
N 95 16 0 
N 98 63 0 
N 26 75 0 
N 32 41 0 
N 10 33 0 
N 66 2 0 
N 12 22 0 
N 83 39 0 
N 49 51 0 
N 7 64 0 
N 86 31 0 
N 30 18 0 
N 38 23 0 
N 78 92 0 
N 37 92 0 
N 16 52 0 
N 47 89 0 
N 98 78 0 
N 6 32 0 
N 19 35 0 
N 24 20 0 
N 89 23 0 
N 91 1 0 
N 98 91 0 
N 12 84 0 
N 31 34 0 
N 63 35 0 
N 97 54 0 
N 80 34 0 
N 14 80 0 
N 14 69 0 
N 19 24 0 
N 33 29 0 
N 75 10 0 
N 0 62 0 
N 64 15 0 
N 21 8 0 
N 92 62 0 
N 61 16 0 
N 32 93 0 
N 67 21 0 
N 90 14 0 
N 93 96 0 
N 92 94 0 
N 13 81 0 
N 64 2 0 
N 5 33 0 
N 4 55 0 
N 83 58 0 
N 91 86 0 
N 36 92 0 
N 66 50 0 
N 73 46 0 
N 11 1 0 
N 69 48 0 
N 44 90 0 
N 31 38 0 
N 72 37 0 
N 90 58 0 
N 66 18 0 
N 98 76 0 
N 59 66 0 
N 12 79 0 
N 86 37 0 
N 32 92 0 
N 19 63 0 
N 84 74 0 
N 31 39 0 
N 84 43 0 
N 40 80 0 
N 79 86 0 
N 70 20 0 
N 84 20 0 
N 16 5 0 
N 7 47 0 
N 51 38 0 
N 55 41 0 
N 98 29 0 
N 15 33 0 
N 40 14 0 
N 85 46 0 
N 15 61 0 
N 89 4 0 
N 16 65 0 
N 83 61 0 
N 21 10 0 
N 43 72 0 
N 75 66 0 
N 72 68 0 
N 0 72 0 
N 69 56 0 
N 13 65 0 
N 33 96 0 
N 3 15 0 
N 41 13 0 
N 65 52 0 
N 37 15 0 
N 88 4 0 
N 49 49 0 
N 79 84 0 
N 87 98 0 
N 67 25 0 
N 7 96 0 
N 87 85 0 
N 77 65 0 
N 5 44 0 
N 53 69 0 
N 51 21 0 
N 68 40 0 
N 73 49 0 
N 92 3 0 
N 92 26 0 
N 34 31 0 
N 24 6 0 
N 47 5 0 
N 98 80 0 
N 96 16 0 
N 68 22 0 
N 76 96 0 
N 10 97 0 
N 66 48 0 
N 22 88 0 
N 76 11 0 
N 15 2 0 
N 51 16 0 
N 32 38 0 
N 25 80 0 
N 42 30 0 
N 14 62 0 
N 96 53 0 
N 47 83 0 
N 72 21 0 
N 1 97 0 
N 69 58 0 
N 55 79 0 
N 31 61 0 
N 87 6 0 
N 38 24 0 
N 62 77 0 
N 56 96 0 
N 90 55 0 
N 13 85 0 
N 46 2 0 
N 7 45 0 
N 12 87 0 
N 49 6 0 
N 53 98 0 
N 37 68 0 
N 60 17 0 
N 39 28 0 
N 91 13 0 
N 17 51 0 
N 26 77 0 
N 65 15 0 
N 45 42 0 
N 0 3 0 
N 87 77 0 
N 92 32 0 
N 55 34 0 
N 56 65 0 
N 24 59 0 
N 38 93 0 
N 93 50 0 
N 33 69 0 
N 46 36 0 
N 48 30 0 
N 38 25 0 
N 68 26 0 
N 40 81 0 
N 75 96 0 
N 42 80 0 
N 25 7 0 
N 75 3 0 
N 24 91 0 
N 52 37 0 
N 14 75 0 
N 79 85 0 
N 95 50 0 
N 20 92 0 
N 46 58 0 
N 17 32 0 
N 70 68 0 
N 40 36 0 
N 98 57 0 
N 50 55 0 
N 29 38 0 
N 13 19 0 
N 41 60 0 
N 68 24 0 
N 75 68 0 
N 48 77 0 
N 60 9 0 
N 93 42 0 
N 4 42 0 
N 71 44 0 
N 30 84 0 
N 79 38 0 
N 38 97 0 
N 69 64 0 
N 74 90 0 
N 43 46 0 
N 71 41 0 
N 2 2 0 
N 14 1 0 
N 61 77 0 
N 7 22 0 
N 13 52 0 
N 3 88 0 
N 87 74 0 
N 31 29 0 
N 65 34 0 
N 41 66 0 
N 69 57 0 
N 25 54 0 
N 52 23 0 
N 19 41 0 
N 59 97 0 
N 92 44 0 
N 55 97 0 
N 39 61 0 
N 37 28 0 
N 49 44 0 
N 62 20 0 
N 21 6 0 
N 90 74 0 
N 41 36 0 
N 15 5 0 
N 34 11 0 
N 73 9 0 
N 46 43 0 
N 48 44 0 
N 9 35 0 
N 76 81 0 
N 36 28 0 
N 88 78 0 
N 4 46 0 
N 59 10 0 
N 79 31 0 
N 6 19 0 
N 87 75 0 
N 45 58 0 
N 58 8 0 
N 50 21 0 
N 57 72 0 
N 96 74 0 
N 28 21 0 
N 41 55 0 
N 75 63 0 
N 84 49 0 
N 80 39 0 
N 91 58 0 
N 75 79 0 
N 36 85 0 
N 94 43 0 
N 67 23 0 
N 38 26 0 
N 14 64 0 
N 4 45 0 
N 19 60 0 
N 29 52 0 
N 62 52 0 
N 43 14 0 
N 81 25 0 
N 83 59 0 
N 60 98 0 
N 70 23 0 
N 84 41 0 
N 68 27 0 
N 34 95 0 
N 13 61 0 
N 50 20 0 
N 8 33 0 
N 50 42 0 
N 8 43 0 
N 1 21 0 
N 35 50 0 
N 96 78 0 
N 34 96 0 
N 86 35 0 
N 91 12 0 
N 7 40 0 
N 66 19 0 
N 34 10 0 
N 37 93 0 
N 56 54 0 
N 74 11 0 
N 71 36 0 
N 38 27 0 
N 67 88 0 
N 20 35 0 
N 20 50 0 
N 83 15 0 
N 7 18 0 
N 57 61 0 
N 87 5 0 
N 22 5 0 
N 32 19 0 
N 80 30 0 
N 4 89 0 
N 19 55 0 
N 62 64 0 
N 42 48 0 
N 5 87 0 
N 97 90 0 
N 60 21 0 
N 17 65 0 
N 70 95 0 
N 94 52 0 
N 51 44 0 
N 28 70 0 
N 20 49 0 
N 74 10 0 
N 69 65 0 
N 98 77 0 
N 70 57 0 
N 36 11 0 
N 68 42 0 
N 27 53 0 
N 57 73 0 
N 5 58 0 
N 80 62 0 
N 51 69 0 
N 5 85 0 
N 27 55 0 
N 85 51 0 
N 22 12 0 
N 62 50 0 
N 41 28 0 
N 97 17 0 
N 64 37 0 
N 20 32 0 
N 7 67 0 
N 67 6 0 
N 53 96 0 
N 14 61 0 
N 99 9 0 
N 73 79 0 
C 0 0 0 
C 25 0 0 
C 50 0 0 
C 75 0 0 
C 100 0 0 
C 0 25 0 
C 25 25 0 
C 50 25 0 
C 75 25 0 
C 100 25 0 
C 0 50 0 
C 25 50 0 
C 50 50 0 
C 75 50 0 
C 100 50 0 
C 0 75 0 
C 25 75 0 
C 50 75 0 
C 75 75 0 
C 100 75 0 
C 0 100 0 
C 25 100 0 
C 50 100 0 
C 75 100 0 
C 100 100 0 
O 21 11 0 
O 20 91 0 
O 40 62 0 
O 6 23 0 
O 71 58 0 
O 17 57 0 
O 0 41 0 
O 20 99 0 
O 90 24 0 
O 91 60 0 
O 71 48 0 
O 60 96 0 
O 68 62 0 
O 57 84 0 
O 35 93 0 
O 69 94 0 
O 21 87 0 
O 23 58 0 
O 22 20 0 
O 65 77 0 
O 91 61 0 
O 66 21 0 
O 22 24 0 
O 74 52 0 
O 68 61 0 
O 94 32 0 
O 41 33 0 
O 62 99 0 
O 73 96 0 
O 64 3 0 
O 5 80 0 
O 73 84 0 
O 99 61 0 
O 64 98 0 
O 10 21 0 
O 65 88 0 
O 49 78 0 
O 64 89 0 
O 46 44 0 
O 48 11 0 
O 67 52 0 
O 81 27 0 
O 36 64 0 
O 30 60 0 
O 0 73 0 
O 54 99 0 
O 37 29 0 
O 25 79 0 
O 36 53 0 
O 19 51 0 
O 90 13 0 
O 88 51 0 
O 84 30 0 
O 0 53 0 
O 46 4 0 
O 52 68 0 
O 45 99 0 
O 8 97 0 
O 87 92 0 
O 69 84 0 
O 41 46 0 
O 88 86 0 
O 8 99 0 
O 66 98 0 
O 59 84 0 
O 87 81 0 
O 99 16 0 
O 87 24 0 
O 81 31 0 
O 87 36 0 
O 45 1 0 
O 95 33 0 
O 48 73 0 
O 64 77 0 
O 26 13 0 
O 55 55 0 
O 1 74 0 
O 91 99 0 
O 50 95 0 
O 29 20 0 
O 17 91 0 
O 57 66 0 
O 83 21 0 
O 97 15 0 
O 55 4 0 
O 63 86 0 
O 37 58 0 
O 15 0 0 
O 53 81 0 
O 59 2 0 
O 86 47 0 
O 75 4 0 
O 97 28 0 
O 75 89 0 
O 99 2 0 
O 6 4 0 
O 20 59 0 
O 87 86 0 
O 61 87 0 
O 71 96 0 
O 7 24 0 
O 40 97 0 
O 74 96 0 
O 39 54 0 
O 74 80 0 
O 62 18 0 
O 23 63 0 
O 72 89 0 
O 71 63 0 
O 52 71 0 
O 95 23 0 
O 99 11 0 
O 60 89 0 
O 86 90 0 
O 57 75 0 
O 72 40 0 
O 21 66 0 
O 45 36 0 
O 91 84 0 
O 38 1 0 
O 30 51 0 
O 2 84 0 
O 45 62 0 
O 83 2 0 
O 95 27 0 
O 14 73 0 
O 87 90 0 
O 30 56 0 
O 64 93 0 
O 68 91 0 
O 31 69 0 
O 2 16 0 
O 75 98 0 
O 31 57 0 
O 1 56 0 
O 64 87 0 
O 35 7 0 
O 51 54 0 
O 4 23 0 
O 95 29 0 
O 74 45 0 
O 4 16 0 
O 96 29 0 
O 83 3 0 
O 53 79 0 
O 24 18 0 
O 66 91 0 
O 78 63 0 
O 65 7 0 
O 50 72 0 
O 54 66 0 
O 38 94 0 
O 26 60 0 
O 18 52 0 
O 9 18 0 
O 39 56 0 
O 95 31 0 
O 54 58 0 
O 38 29 0 
O 17 94 0 
O 92 30 0 
O 87 79 0 
O 17 98 0 
O 31 85 0 
O 2 18 0 
O 56 0 0 
O 14 29 0 
O 17 75 0 
O 60 93 0 
O 0 32 0 
O 23 64 0 
O 73 11 0 
O 63 65 0 
O 21 54 0 
O 99 20 0 
O 43 89 0 
O 3 60 0 
O 68 87 0 
O 33 1 0 
O 71 59 0 
O 0 22 0 
O 38 30 0 
O 5 98 0 
O 38 15 0 
O 37 57 0 
O 71 53 0 
O 89 84 0 
O 66 17 0 
O 51 6 0 
O 58 85 0 
O 76 90 0 
O 4 44 0 
O 87 0 0 
O 45 83 0 
O 63 19 0 
O 29 25 0 
O 37 50 0 
O 58 80 0 
O 59 8 0 
O 10 80 0 
O 97 58 0 
O 36 95 0 
O 58 78 0 
O 89 0 0 
O 30 48 0 
O 22 72 0 
O 70 2 0 
O 1 15 0 
O 10 30 0 
O 29 0 0 
O 41 68 0 
O 29 19 0 
O 26 62 0 
O 66 80 0 
O 80 60 0 
O 0 98 0 
O 88 93 0 
O 57 85 0 
O 98 32 0 
O 61 85 0 
O 74 0 0 
O 0 23 0 
O 91 0 0 
O 2 83 0 
O 40 56 0 
O 64 82 0 
O 6 99 0 
O 25 66 0 
O 28 54 0 
O 0 20 0 
O 82 1 0 
O 18 49 0 
O 82 2 0 
O 97 21 0 
O 27 17 0 
O 40 43 0 
O 18 76 0 
O 34 57 0 
O 39 59 0 
O 35 6 0 
O 30 41 0 
O 48 53 0 
O 74 85 0 
O 67 95 0 
O 51 84 0 
O 71 46 0 
O 85 28 0 
O 31 8 0 
O 99 88 0 
O 23 5 0 
O 29 66 0 
O 87 3 0 
O 58 2 0 
O 59 61 0 
O 92 33 0 
O 27 19 0 
O 23 60 0 
O 34 46 0 
O 42 71 0 
O 83 75 0 
O 3 85 0 
O 48 88 0 
O 26 57 0 
756
Atoms. Timestep: 14
N 14 27 0 
N 75 63 0 
N 91 57 0 
N 11 21 0 
N 11 20 0 
N 22 21 0 
N 4 16 0 
N 16 94 0 
N 3 11 0 
N 18 50 0 
N 68 35 0 
N 28 79 0 
N 34 31 0 
N 84 36 0 
N 50 78 0 
N 31 38 0 
N 22 66 0 
N 68 44 0 
N 26 75 0 
N 42 79 0 
N 97 11 0 
N 96 33 0 
N 25 21 0 
N 90 24 0 
N 21 21 0 
N 26 76 0 
N 29 30 0 
N 3 32 0 
N 36 52 0 
N 74 65 0 
N 1 54 0 
N 19 60 0 
N 84 30 0 
N 48 12 0 
N 42 42 0 
N 99 87 0 
N 70 37 0 
N 65 7 0 
N 3 43 0 
N 83 61 0 
N 48 52 0 
N 42 34 0 
N 42 80 0 
N 65 51 0 
N 45 89 0 
N 25 7 0 
N 80 85 0 
N 17 96 0 
N 36 95 0 
N 97 61 0 
N 36 9 0 
N 64 90 0 
N 11 80 0 
N 64 52 0 
N 93 50 0 
N 3 59 0 
N 49 54 0 
N 10 6 0 
N 95 24 0 
N 44 63 0 
N 81 38 0 
N 0 44 0 
N 41 36 0 
N 58 75 0 
N 13 63 0 
N 99 16 0 
N 32 94 0 
N 81 82 0 
N 32 41 0 
N 80 59 0 
N 74 84 0 
N 21 72 0 
N 58 77 0 
N 68 59 0 
N 85 29 0 
N 7 45 0 
N 23 87 0 
N 3 85 0 
N 38 2 0 
N 88 50 0 
N 39 34 0 
N 4 46 0 
N 77 67 0 
N 76 31 0 
N 5 85 0 
N 13 21 0 
N 54 81 0 
N 45 26 0 
N 25 94 0 
N 10 33 0 
N 48 21 0 
N 95 84 0 
N 72 19 0 
N 6 44 0 
N 86 5 0 
N 76 64 0 
N 46 5 0 
N 75 12 0 
N 4 80 0 
N 3 33 0 
N 62 2 0 
N 59 18 0 
N 4 28 0 
N 38 82 0 
N 18 75 0 
N 40 43 0 
N 40 71 0 
N 82 39 0 
N 16 52 0 
N 78 11 0 
N 2 63 0 
N 59 62 0 
N 81 33 0 
N 22 23 0 
N 50 95 0 
N 77 31 0 
N 92 84 0 
N 60 88 0 
N 67 58 0 
N 83 18 0 
N 44 62 0 
N 18 43 0 
N 71 39 0 
N 14 62 0 
N 92 47 0 
N 9 31 0 
N 86 50 0 
N 20 6 0 
N 16 57 0 
N 64 65 0 
N 51 42 0 
N 31 83 0 
N 74 4 0 
N 74 74 0 
N 86 28 0 
N 70 40 0 
N 85 42 0 
N 18 47 0 
N 50 84 0 
N 73 96 0 
N 31 67 0 
N 61 65 0 
N 36 6 0 
N 30 95 0 
N 63 9 0 
N 80 30 0 
N 18 92 0 
N 8 90 0 
N 71 58 0 
N 24 74 0 
N 93 49 0 
N 79 85 0 
N 97 87 0 
N 55 60 0 
N 16 63 0 
N 41 45 0 
N 18 48 0 
N 10 79 0 
N 3 15 0 
N 49 22 0 
N 65 78 0 
N 29 93 0 
N 21 20 0 
N 96 16 0 
N 98 62 0 
N 26 74 0 
N 31 41 0 
N 10 32 0 
N 66 3 0 
N 11 22 0 
N 84 39 0 
N 49 52 0 
N 7 63 0 
N 87 31 0 
N 29 18 0 
N 38 24 0 
N 78 91 0 
N 36 92 0 
N 17 52 0 
N 47 88 0 
N 97 78 0 
N 6 32 0 
N 19 34 0 
N 23 20 0 
N 90 23 0 
N 91 0 0 
N 98 90 0 
N 11 84 0 
N 30 34 0 
N 64 35 0 
N 96 54 0 
N 81 34 0 
N 13 80 0 
N 14 70 0 
N 20 24 0 
N 34 29 0 
N 75 9 0 
N 1 62 0 
N 63 15 0 
N 21 9 0 
N 92 61 0 
N 62 16 0 
N 33 93 0 
N 66 21 0 
N 91 14 0 
N 92 96 0 
N 92 93 0 
N 12 81 0 
N 64 3 0 
N 5 32 0 
N 3 55 0 
N 83 59 0 
N 91 85 0 
N 35 92 0 
N 67 50 0 
N 74 46 0 
N 10 1 0 
N 70 48 0 
N 44 89 0 
N 32 38 0 
N 72 38 0 
N 90 59 0 
N 66 17 0 
N 99 76 0 
N 58 66 0 
N 11 79 0 
N 87 37 0 
N 33 92 0 
N 20 63 0 
N 84 75 0 
N 31 40 0 
N 83 43 0 
N 41 80 0 
N 78 86 0 
N 70 21 0 
N 83 20 0 
N 17 5 0 
N 6 47 0 
N 51 37 0 
N 55 42 0 
N 97 29 0 
N 14 33 0 
N 40 13 0 
N 85 47 0 
N 15 60 0 
N 89 3 0 
N 17 65 0 
N 82 61 0 
N 21 11 0 
N 42 72 0 
N 76 66 0 
N 72 67 0 
N 0 73 0 
N 70 56 0 
N 13 66 0 
N 34 96 0 
N 2 15 0 
N 42 13 0 
N 66 52 0 
N 38 15 0 
N 88 3 0 
N 49 50 0 
N 78 84 0 
N 87 97 0 
N 66 25 0 
N 8 96 0 
N 87 86 0 
N 77 64 0 
N 5 43 0 
N 53 68 0 
N 50 21 0 
N 68 40 0 
N 73 48 0 
N 92 2 0 
N 92 27 0 
N 34 30 0 
N 23 6 0 
N 47 4 0 
N 97 80 0 
N 96 15 0 
N 67 22 0 
N 75 96 0 
N 9 97 0 
N 65 48 0 
N 21 88 0 
N 75 11 0 
N 15 1 0 
N 51 17 0 
N 32 39 0 
N 25 79 0 
N 42 31 0 
N 15 62 0 
N 95 53 0 
N 46 83 0 
N 71 21 0 
N 1 98 0 
N 70 58 0 
N 54 79 0 
N 31 60 0 
N 87 5 0 
N 38 25 0 
N 63 77 0 
N 57 96 0 
N 91 55 0 
N 13 84 0 
N 46 3 0 
N 7 44 0 
N 13 87 0 
N 50 6 0 
N 54 98 0 
N 38 68 0 
N 60 16 0 
N 39 29 0 
N 90 13 0 
N 18 51 0 
N 26 78 0 
N 66 15 0 
N 45 43 0 
N 1 3 0 
N 87 78 0 
N 92 33 0 
N 54 34 0 
N 57 65 0 
N 24 58 0 
N 38 94 0 
N 93 51 0 
N 32 69 0 
N 45 36 0 
N 48 31 0 
N 38 26 0 
N 68 25 0 
N 40 82 0 
N 74 96 0 
N 42 81 0 
N 26 7 0 
N 75 2 0 
N 24 90 0 
N 52 36 0 
N 14 74 0 
N 78 85 0 
N 95 51 0 
N 20 91 0 
N 46 59 0 
N 17 31 0 
N 71 68 0 
N 40 35 0 
N 97 57 0 
N 50 54 0 
N 29 39 0 
N 12 19 0 
N 41 61 0 
N 67 24 0 
N 76 68 0 
N 48 78 0 
N 61 9 0 
N 92 42 0 
N 3 42 0 
N 71 45 0 
N 31 84 0 
N 79 37 0 
N 39 97 0 
N 68 64 0 
N 74 89 0 
N 42 46 0 
N 72 41 0 
N 3 2 0 
N 14 0 0 
N 61 77 0 
N 6 22 0 
N 14 52 0 
N 3 87 0 
N 87 75 0 
N 30 29 0 
N 65 35 0 
N 41 67 0 
N 70 57 0 
N 26 54 0 
N 53 23 0 
N 19 42 0 
N 59 96 0 
N 92 45 0 
N 55 98 0 
N 40 61 0 
N 37 29 0 
N 49 45 0 
N 62 19 0 
N 21 7 0 
N 90 75 0 
N 41 35 0 
N 15 4 0 
N 34 10 0 
N 73 8 0 
N 46 44 0 
N 47 44 0 
N 9 34 0 
N 75 81 0 
N 36 29 0 
N 88 79 0 
N 3 46 0 
N 59 9 0 
N 79 31 0 
N 6 20 0 
N 87 76 0 
N 45 59 0 
N 59 8 0 
N 50 20 0 
N 57 73 0 
N 96 73 0 
N 28 20 0 
N 40 55 0 
N 76 63 0 
N 84 48 0 
N 80 38 0 
N 91 59 0 
N 75 80 0 
N 35 85 0 
N 93 43 0 
N 66 23 0 
N 38 27 0 
N 14 65 0 
N 4 44 0 
N 20 60 0 
N 30 52 0 
N 62 52 0 
N 42 14 0 
N 80 25 0 
N 83 60 0 
N 60 97 0 
N 70 22 0 
N 84 40 0 
N 67 27 0 
N 35 95 0 
N 14 61 0 
N 49 20 0 
N 8 32 0 
N 50 43 0 
N 8 44 0 
N 0 21 0 
N 36 50 0 
N 96 77 0 
N 35 96 0 
N 87 35 0 
N 90 12 0 
N 7 41 0 
N 66 20 0 
N 35 10 0 
N 36 93 0 
N 55 54 0 
N 73 11 0 
N 72 36 0 
N 38 28 0 
N 66 88 0 
N 20 34 0 
N 20 51 0 
N 83 16 0 
N 8 18 0 
N 58 61 0 
N 87 4 0 
N 23 5 0 
N 31 19 0 
N 80 31 0 
N 4 88 0 
N 20 55 0 
N 63 64 0 
N 42 47 0 
N 4 87 0 
N 97 89 0 
N 60 20 0 
N 17 66 0 
N 70 94 0 
N 94 51 0 
N 50 44 0 
N 28 69 0 
N 19 49 0 
N 73 10 0 
N 68 65 0 
N 97 77 0 
N 71 57 0 
N 35 11 0 
N 68 41 0 
N 27 54 0 
N 57 74 0 
N 4 58 0 
N 80 61 0 
N 52 69 0 
N 4 85 0 
N 28 55 0 
N 86 51 0 
N 22 11 0 
N 63 50 0 
N 40 28 0 
N 97 16 0 
N 64 38 0 
N 19 32 0 
N 7 66 0 
N 67 7 0 
N 54 96 0 
N 14 60 0 
N 99 10 0 
N 74 79 0 
C 0 0 0 
C 25 0 0 
C 50 0 0 
C 75 0 0 
C 100 0 0 
C 0 25 0 
C 25 25 0 
C 50 25 0 
C 75 25 0 
C 100 25 0 
C 0 50 0 
C 25 50 0 
C 50 50 0 
C 75 50 0 
C 100 50 0 
C 0 75 0 
C 25 75 0 
C 50 75 0 
C 75 75 0 
C 100 75 0 
C 0 100 0 
C 25 100 0 
C 50 100 0 
C 75 100 0 
C 100 100 0 
O 41 62 0 
O 6 24 0 
O 18 57 0 
O 1 41 0 
O 20 98 0 
O 92 60 0 
O 71 49 0 
O 60 95 0 
O 68 63 0 
O 56 84 0 
O 34 93 0 
O 69 95 0 
O 20 87 0 
O 22 58 0 
O 22 19 0 
O 64 77 0 
O 91 62 0 
O 21 24 0 
O 74 53 0 
O 69 61 0 
O 94 31 0 
O 40 33 0 
O 61 99 0 
O 6 80 0 
O 73 83 0 
O 99 62 0 
O 64 97 0 
O 10 22 0 
O 65 89 0 
O 49 77 0 
O 63 89 0 
O 49 11 0 
O 68 52 0 
O 80 27 0 
O 36 65 0 
O 30 59 0 
O 53 99 0 
O 35 53 0 
O 19 50 0 
O 87 51 0 
O 99 53 0 
O 45 4 0 
O 52 67 0 
O 44 99 0 
O 7 97 0 
O 87 91 0 
O 68 84 0 
O 41 47 0 
O 89 86 0 
O 8 98 0 
O 66 99 0 
O 60 84 0 
O 87 82 0 
O 88 24 0 
O 82 31 0 
O 86 36 0 
O 45 0 0 
O 94 33 0 
O 47 73 0 
O 64 78 0 
O 27 13 0 
O 56 55 0 
O 0 74 0 
O 92 99 0 
O 29 19 0 
O 18 91 0 
O 57 67 0 
O 82 21 0 
O 98 15 0 
O 54 4 0 
O 62 86 0 
O 38 58 0 
O 16 0 0 
O 52 81 0 
O 59 1 0 
O 86 48 0 
O 76 4 0 
O 98 28 0 
O 76 89 0 
O 99 3 0 
O 6 3 0 
O 19 59 0 
O 61 86 0 
O 72 96 0 
O 7 23 0 
O 41 97 0 
O 40 54 0 
O 73 80 0 
O 63 18 0 
O 22 63 0 
O 71 89 0 
O 71 62 0 
O 52 72 0 
O 95 22 0 
O 99 12 0 
O 61 89 0 
O 85 90 0 
O 57 76 0 
O 71 40 0 
O 21 67 0 
O 90 84 0 
O 38 0 0 
O 31 51 0 
O 1 84 0 
O 46 62 0 
O 82 2 0 
O 94 27 0 
O 13 73 0 
O 87 89 0 
O 30 55 0 
O 65 93 0 
O 68 92 0 
O 31 68 0 
O 3 16 0 
O 75 97 0 
O 30 57 0 
O 2 56 0 
O 64 86 0 
O 34 7 0 
O 52 54 0 
O 4 22 0 
O 95 28 0 
O 75 45 0 
O 96 28 0 
O 83 4 0 
O 53 80 0 
O 24 19 0 
O 66 92 0 
O 77 63 0 
O 51 72 0 
O 53 66 0 
O 27 60 0 
O 18 53 0 
O 10 18 0 
O 39 55 0 
O 96 31 0 
O 55 58 0 
O 38 30 0 
O 17 95 0 
O 92 31 0 
O 87 80 0 
O 16 98 0 
O 32 85 0 
O 3 18 0 
O 57 0 0 
O 15 29 0 
O 17 76 0 
O 59 93 0 
O 0 31 0 
O 23 65 0 
O 63 66 0 
O 21 53 0 
O 98 20 0 
O 43 90 0 
O 2 60 0 
O 68 86 0 
O 34 1 0 
O 72 59 0 
O 1 22 0 
O 39 30 0 
O 5 99 0 
O 38 57 0 
O 71 52 0 
O 89 85 0 
O 51 5 0 
O 57 85 0 
O 77 90 0 
O 88 0 0 
O 45 84 0 
O 63 20 0 
O 30 25 0 
O 37 49 0 
O 59 80 0 
O 10 81 0 
O 96 58 0 
O 59 78 0 
O 89 99 0 
O 30 47 0 
O 22 73 0 
O 70 3 0 
O 1 14 0 
O 10 31 0 
O 29 1 0 
O 42 68 0 
O 30 19 0 
O 26 61 0 
O 66 79 0 
O 81 60 0 
O 0 97 0 
O 88 94 0 
O 57 86 0 
O 99 32 0 
O 61 84 0 
O 74 1 0 
O 1 23 0 
O 1 83 0 
O 40 57 0 
O 64 83 0 
O 6 0 0 
O 26 66 0 
O 29 54 0 
O 0 19 0 
O 82 0 0 
O 17 49 0 
O 81 2 0 
O 97 22 0 
O 27 18 0 
O 18 77 0 
O 35 57 0 
O 39 60 0 
O 35 5 0 
O 30 40 0 
O 48 54 0 
O 75 85 0 
O 66 95 0 
O 52 84 0 
O 70 46 0 
O 84 28 0 
O 32 8 0 
O 0 88 0 
O 29 67 0 
O 87 2 0 
O 58 3 0 
O 60 61 0 
O 27 20 0 
O 24 60 0 
O 35 46 0 
O 43 71 0 
O 83 76 0 
O 49 88 0 
O 25 57 0 
727
Atoms. Timestep: 15
N 15 27 0 
N 74 63 0 
N 91 58 0 
N 11 20 0 
N 10 20 0 
N 22 21 0 
N 4 17 0 
N 16 95 0 
N 4 11 0 
N 17 50 0 
N 69 35 0 
N 28 80 0 
N 35 31 0 
N 85 36 0 
N 50 77 0 
N 30 38 0 
N 22 67 0 
N 68 45 0 
N 26 74 0 
N 43 79 0 
N 97 12 0 
N 95 33 0 
N 25 20 0 
N 89 24 0 
N 21 20 0 
N 25 76 0 
N 29 29 0 
N 3 31 0 
N 35 52 0 
N 73 65 0 
N 1 53 0 
N 19 59 0 
N 84 30 0 
N 48 13 0 
N 41 42 0 
N 99 88 0 
N 70 38 0 
N 66 7 0 
N 3 42 0 
N 83 60 0 
N 48 53 0 
N 42 33 0 
N 42 81 0 
N 66 51 0 
N 44 89 0 
N 26 7 0 
N 80 85 0 
N 17 95 0 
N 36 96 0 
N 97 60 0 
N 36 8 0 
N 64 89 0 
N 11 80 0 
N 65 52 0 
N 93 51 0 
N 3 60 0 
N 48 54 0 
N 10 7 0 
N 95 23 0 
N 44 62 0 
N 82 38 0 
N 0 43 0 
N 40 36 0 
N 58 75 0 
N 14 63 0 
N 98 16 0 
N 32 93 0 
N 82 82 0 
N 31 41 0 
N 81 59 0 
N 74 83 0 
N 21 73 0 
N 58 76 0 
N 69 59 0 
N 84 29 0 
N 7 44 0 
N 22 87 0 
N 2 85 0 
N 38 1 0 
N 88 49 0 
N 39 33 0 
N 3 46 0 
N 76 67 0 
N 77 31 0 
N 5 84 0 
N 12 21 0 
N 53 81 0 
N 44 26 0 
N 25 95 0 
N 11 33 0 
N 48 21 0 
N 94 84 0 
N 71 19 0 
N 6 43 0 
N 86 4 0 
N 75 64 0 
N 46 4 0 
N 76 12 0 
N 5 80 0 
N 2 33 0 
N 62 3 0 
N 60 18 0 
N 5 28 0 
N 38 81 0 
N 18 76 0 
N 40 44 0 
N 41 71 0 
N 83 39 0 
N 17 52 0 
N 77 11 0 
N 2 63 0 
N 60 62 0 
N 82 33 0 
N 22 22 0 
N 50 96 0 
N 78 31 0 
N 91 84 0 
N 60 89 0 
N 68 58 0 
N 83 19 0 
N 45 62 0 
N 18 44 0 
N 70 39 0 
N 14 61 0 
N 92 48 0 
N 9 30 0 
N 86 49 0 
N 20 6 0 
N 17 57 0 
N 64 66 0 
N 52 42 0 
N 31 84 0 
N 75 4 0 
N 74 75 0 
N 85 28 0 
N 71 40 0 
N 86 42 0 
N 17 47 0 
N 51 84 0 
N 72 96 0 
N 31 68 0 
N 61 66 0 
N 35 6 0 
N 30 94 0 
N 63 10 0 
N 80 29 0 
N 18 91 0 
N 7 90 0 
N 72 58 0 
N 24 73 0 
N 93 48 0 
N 79 85 0 
N 97 86 0 
N 55 59 0 
N 17 63 0 
N 40 45 0 
N 18 49 0 
N 10 80 0 
N 3 16 0 
N 49 21 0 
N 64 78 0 
N 29 92 0 
N 21 19 0 
N 97 16 0 
N 99 62 0 
N 25 74 0 
N 31 42 0 
N 10 31 0 
N 66 4 0 
N 10 22 0 
N 85 39 0 
N 49 53 0 
N 7 62 0 
N 87 32 0 
N 29 19 0 
N 38 25 0 
N 78 90 0 
N 36 91 0 
N 17 53 0 
N 48 88 0 
N 96 78 0 
N 6 31 0 
N 18 34 0 
N 22 20 0 
N 89 23 0 
N 91 1 0 
N 97 90 0 
N 10 84 0 
N 30 33 0 
N 65 35 0 
N 97 54 0 
N 82 34 0 
N 13 81 0 
N 14 71 0 
N 21 24 0 
N 34 30 0 
N 75 8 0 
N 2 62 0 
N 63 16 0 
N 21 10 0 
N 92 60 0 
N 62 17 0 
N 34 93 0 
N 66 22 0 
N 92 14 0 
N 92 97 0 
N 91 93 0 
N 11 81 0 
N 64 4 0 
N 4 32 0 
N 3 56 0 
N 82 59 0 
N 90 85 0 
N 35 92 0 
N 67 51 0 
N 74 45 0 
N 9 1 0 
N 71 48 0 
N 44 90 0 
N 32 39 0 
N 72 39 0 
N 90 60 0 
N 65 17 0 
N 98 76 0 
N 58 67 0 
N 11 79 0 
N 86 37 0 
N 34 92 0 
N 21 63 0 
N 84 76 0 
N 30 40 0 
N 83 44 0 
N 41 81 0 
N 78 85 0 
N 69 21 0 
N 82 20 0 
N 17 4 0 
N 6 46 0 
N 50 37 0 
N 56 42 0 
N 97 28 0 
N 14 34 0 
N 40 12 0 
N 86 47 0 
N 15 59 0 
N 89 2 0 
N 17 66 0 
N 81 61 0 
N 21 12 0 
N 42 71 0 
N 75 66 0 
N 72 66 0 
N 0 74 0 
N 70 57 0 
N 13 67 0 
N 34 96 0 
N 2 16 0 
N 42 12 0 
N 67 52 0 
N 37 15 0 
N 88 2 0 
N 48 50 0 
N 77 84 0 
N 88 97 0 
N 65 25 0 
N 7 96 0 
N 88 86 0 
N 77 64 0 
N 5 42 0 
N 53 67 0 
N 50 20 0 
N 69 40 0 
N 73 49 0 
N 92 3 0 
N 93 27 0 
N 35 30 0 
N 22 6 0 
N 47 3 0 
N 97 81 0 
N 96 15 0 
N 67 21 0 
N 75 97 0 
N 8 97 0 
N 66 48 0 
N 20 88 0 
N 75 10 0 
N 16 1 0 
N 50 17 0 
N 32 40 0 
N 24 79 0 
N 42 32 0 
N 16 62 0 
N 96 53 0 
N 45 83 0 
N 71 20 0 
N 1 97 0 
N 70 59 0 
N 54 80 0 
N 31 59 0 
N 87 4 0 
N 38 26 0 
N 63 76 0 
N 57 95 0 
N 91 56 0 
N 12 84 0 
N 45 3 0 
N 7 43 0 
N 14 87 0 
N 51 6 0 
N 53 98 0 
N 39 68 0 
N 60 17 0 
N 39 30 0 
N 91 13 0 
N 18 52 0 
N 26 77 0 
N 66 16 0 
N 45 44 0 
N 2 3 0 
N 87 78 0 
N 93 33 0 
N 53 34 0 
N 57 66 0 
N 23 58 0 
N 37 94 0 
N 93 52 0 
N 31 69 0 
N 45 35 0 
N 48 32 0 
N 38 27 0 
N 67 25 0 
N 40 83 0 
N 74 96 0 
N 42 82 0 
N 26 8 0 
N 75 1 0 
N 23 90 0 
N 51 36 0 
N 14 73 0 
N 77 85 0 
N 96 51 0 
N 19 91 0 
N 46 60 0 
N 16 31 0 
N 71 67 0 
N 40 34 0 
N 97 56 0 
N 51 54 0 
N 29 40 0 
N 11 19 0 
N 41 62 0 
N 66 24 0 
N 75 68 0 
N 49 78 0 
N 61 8 0 
N 91 42 0 
N 2 42 0 
N 71 46 0 
N 31 85 0 
N 79 36 0 
N 40 97 0 
N 68 63 0 
N 75 89 0 
N 41 46 0 
N 72 40 0 
N 4 2 0 
N 15 0 0 
N 62 77 0 
N 6 23 0 
N 14 53 0 
N 2 87 0 
N 87 76 0 
N 30 28 0 
N 66 35 0 
N 41 68 0 
N 71 57 0 
N 27 54 0 
N 53 22 0 
N 18 42 0 
N 59 97 0 
N 91 45 0 
N 55 99 0 
N 40 62 0 
N 37 30 0 
N 48 45 0 
N 62 18 0 
N 20 7 0 
N 89 75 0 
N 41 34 0 
N 16 4 0 
N 34 9 0 
N 74 8 0 
N 46 45 0 
N 47 45 0 
N 9 33 0 
N 74 81 0 
N 36 30 0 
N 87 79 0 
N 2 46 0 
N 58 9 0 
N 80 31 0 
N 6 21 0 
N 87 77 0 
N 45 60 0 
N 58 8 0 
N 49 20 0 
N 57 74 0 
N 95 73 0 
N 27 20 0 
N 40 54 0 
N 77 63 0 
N 85 48 0 
N 80 37 0 
N 92 59 0 
N 75 80 0 
N 34 85 0 
N 92 43 0 
N 65 23 0 
N 38 28 0 
N 14 66 0 
N 4 43 0 
N 20 59 0 
N 31 52 0 
N 63 52 0 
N 43 14 0 
N 80 26 0 
N 82 60 0 
N 60 96 0 
N 69 22 0 
N 85 40 0 
N 67 26 0 
N 34 95 0 
N 15 61 0 
N 48 20 0 
N 7 32 0 
N 51 43 0 
N 8 43 0 
N 0 22 0 
N 37 50 0 
N 95 77 0 
N 35 96 0 
N 86 35 0 
N 91 12 0 
N 6 41 0 
N 65 20 0 
N 35 9 0 
N 35 93 0 
N 56 54 0 
N 74 11 0 
N 72 37 0 
N 38 29 0 
N 66 89 0 
N 20 33 0 
N 21 51 0 
N 82 16 0 
N 9 18 0 
N 59 61 0 
N 87 3 0 
N 22 5 0 
N 30 19 0 
N 81 31 0 
N 3 88 0 
N 20 54 0 
N 63 65 0 
N 41 47 0 
N 4 87 0 
N 97 88 0 
N 61 20 0 
N 18 66 0 
N 70 95 0 
N 94 52 0 
N 50 45 0 
N 29 69 0 
N 19 50 0 
N 74 10 0 
N 68 65 0 
N 97 76 0 
N 72 57 0 
N 34 11 0 
N 69 41 0 
N 28 54 0 
N 57 75 0 
N 4 57 0 
N 80 60 0 
N 52 68 0 
N 4 84 0 
N 29 55 0 
N 87 51 0 
N 23 11 0 
N 64 50 0 
N 39 28 0 
N 97 15 0 
N 64 39 0 
N 18 32 0 
N 7 65 0 
N 68 7 0 
N 53 96 0 
N 14 59 0 
N 99 11 0 
N 74 80 0 
C 0 0 0 
C 25 0 0 
C 50 0 0 
C 75 0 0 
C 100 0 0 
C 0 25 0 
C 25 25 0 
C 50 25 0 
C 75 25 0 
C 100 25 0 
C 0 50 0 
C 25 50 0 
C 50 50 0 
C 75 50 0 
C 100 50 0 
C 0 75 0 
C 25 75 0 
C 50 75 0 
C 75 75 0 
C 100 75 0 
C 0 100 0 
C 25 100 0 
C 50 100 0 
C 75 100 0 
C 100 100 0 
O 6 25 0 
O 18 58 0 
O 1 42 0 
O 20 97 0 
O 71 50 0 
O 59 95 0 
O 55 84 0 
O 69 94 0 
O 20 86 0 
O 22 59 0 
O 23 19 0 
O 63 77 0 
O 92 62 0 
O 74 54 0 
O 70 61 0 
O 95 31 0 
O 40 32 0 
O 60 99 0 
O 6 79 0 
O 72 83 0 
O 63 97 0 
O 65 88 0 
O 49 76 0 
O 62 89 0 
O 49 12 0 
O 68 51 0 
O 81 27 0 
O 36 66 0 
O 30 60 0 
O 54 99 0 
O 35 54 0 
O 98 53 0 
O 45 5 0 
O 51 67 0 
O 44 0 0 
O 6 97 0 
O 87 92 0 
O 68 83 0 
O 90 86 0 
O 7 98 0 
O 67 99 0 
O 60 85 0 
O 86 82 0 
O 87 24 0 
O 82 30 0 
O 87 36 0 
O 45 1 0 
O 94 32 0 
O 48 73 0 
O 28 13 0 
O 55 55 0 
O 92 0 0 
O 57 68 0 
O 83 21 0 
O 99 15 0 
O 55 4 0 
O 62 85 0 
O 38 57 0 
O 17 0 0 
O 51 81 0 
O 60 1 0 
O 87 48 0 
O 76 5 0 
O 98 29 0 
O 76 88 0 
O 99 2 0 
O 5 3 0 
O 61 87 0 
O 7 24 0 
O 41 98 0 
O 73 79 0 
O 63 19 0 
O 23 63 0 
O 70 89 0 
O 71 63 0 
O 53 72 0 
O 95 21 0 
O 98 12 0 
O 61 88 0 
O 86 90 0 
O 56 76 0 
O 20 67 0 
O 89 84 0 
O 39 0 0 
O 30 51 0 
O 1 85 0 
O 46 61 0 
O 83 2 0 
O 95 27 0 
O 13 74 0 
O 87 90 0 
O 31 55 0 
O 64 93 0 
O 69 92 0 
O 30 58 0 
O 2 55 0 
O 65 86 0 
O 34 6 0 
O 52 55 0 
O 4 23 0 
O 95 29 0 
O 76 45 0 
O 96 27 0 
O 83 3 0 
O 52 80 0 
O 24 18 0 
O 65 92 0 
O 51 73 0 
O 54 66 0 
O 28 60 0 
O 18 54 0 
O 10 19 0 
O 40 55 0 
O 96 30 0 
O 56 58 0 
O 38 31 0 
O 92 32 0 
O 86 80 0 
O 17 98 0 
O 32 86 0 
O 3 17 0 
O 57 99 0 
O 15 28 0 
O 17 75 0 
O 59 94 0 
O 0 32 0 
O 23 64 0 
O 63 67 0 
O 21 54 0 
O 99 20 0 
O 43 91 0 
O 2 61 0 
O 69 86 0 
O 34 0 0 
O 72 60 0 
O 1 21 0 
O 5 98 0 
O 38 56 0 
O 70 52 0 
O 88 85 0 
O 52 5 0 
O 57 86 0 
O 76 90 0 
O 89 0 0 
O 44 84 0 
O 62 20 0 
O 29 25 0 
O 37 48 0 
O 60 80 0 
O 10 82 0 
O 95 58 0 
O 59 79 0 
O 90 99 0 
O 29 47 0 
O 22 72 0 
O 71 3 0 
O 1 13 0 
O 29 0 0 
O 42 69 0 
O 26 60 0 
O 65 79 0 
O 81 60 0 
O 0 98 0 
O 89 94 0 
O 58 86 0 
O 99 31 0 
O 61 85 0 
O 73 1 0 
O 1 24 0 
O 0 83 0 
O 39 57 0 
O 63 83 0 
O 5 0 0 
O 25 66 0 
O 29 53 0 
O 99 19 0 
O 82 99 0 
O 17 48 0 
O 80 2 0 
O 98 22 0 
O 27 17 0 
O 17 77 0 
O 35 58 0 
O 39 59 0 
O 35 4 0 
O 74 85 0 
O 67 95 0 
O 52 85 0 
O 69 46 0 
O 83 28 0 
O 31 8 0 
O 1 88 0 
O 29 66 0 
O 87 1 0 
O 58 2 0 
O 60 60 0 
O 24 61 0 
O 35 47 0 
O 43 72 0 
O 82 76 0 
O 49 89 0 
O 26 57 0 
708
Atoms. Timestep: 16
N 15 28 0 
N 73 63 0 
N 92 58 0 
N 10 20 0 
N 9 20 0 
N 23 21 0 
N 4 18 0 
N 16 96 0 
N 3 11 0 
N 17 51 0 
N 69 36 0 
N 28 81 0 
N 34 31 0 
N 85 36 0 
N 50 76 0 
N 30 39 0 
N 21 67 0 
N 69 45 0 
N 26 73 0 
N 44 79 0 
N 98 12 0 
N 95 32 0 
N 24 20 0 
N 88 24 0 
N 22 20 0 
N 24 76 0 
N 29 28 0 
N 2 31 0 
N 35 53 0 
N 73 64 0 
N 2 53 0 
N 18 59 0 
N 83 30 0 
N 49 13 0 
N 40 42 0 
N 99 87 0 
N 70 39 0 
N 67 7 0 
N 2 42 0 
N 84 60 0 
N 49 53 0 
N 42 32 0 
N 43 81 0 
N 67 51 0 
N 43 89 0 
N 26 8 0 
N 79 85 0 
N 17 96 0 
N 35 96 0 
N 97 59 0 
N 36 7 0 
N 65 89 0 
N 11 81 0 
N 66 52 0 
N 94 51 0 
N 2 60 0 
N 48 55 0 
N 9 7 0 
N 95 22 0 
N 43 62 0 
N 82 37 0 
N 0 42 0 
N 40 35 0 
N 58 76 0 
N 15 63 0 
N 99 16 0 
N 32 92 0 
N 83 82 0 
N 31 42 0 
N 80 59 0 
N 73 83 0 
N 21 72 0 
N 57 76 0 
N 70 59 0 
N 83 29 0 
N 7 45 0 
N 22 86 0 
N 1 85 0 
N 38 0 0 
N 88 48 0 
N 39 32 0 
N 2 46 0 
N 76 66 0 
N 77 30 0 
N 4 84 0 
N 12 22 0 
N 52 81 0 
N 43 26 0 
N 25 96 0 
N 12 33 0 
N 48 20 0 
N 93 84 0 
N 70 19 0 
N 6 44 0 
N 86 3 0 
N 75 63 0 
N 46 5 0 
N 76 12 0 
N 5 81 0 
N 1 33 0 
N 61 3 0 
N 60 19 0 
N 6 28 0 
N 38 82 0 
N 18 77 0 
N 40 45 0 
N 41 70 0 
N 83 38 0 
N 17 53 0 
N 76 11 0 
N 2 62 0 
N 60 62 0 
N 82 32 0 
N 23 22 0 
N 49 96 0 
N 78 30 0 
N 90 84 0 
N 61 89 0 
N 68 59 0 
N 83 19 0 
N 45 62 0 
N 18 45 0 
N 69 39 0 
N 14 60 0 
N 91 48 0 
N 8 30 0 
N 87 49 0 
N 20 7 0 
N 18 57 0 
N 64 67 0 
N 52 42 0 
N 31 85 0 
N 76 4 0 
N 73 75 0 
N 84 28 0 
N 71 41 0 
N 87 42 0 
N 17 48 0 
N 52 84 0 
N 71 96 0 
N 31 67 0 
N 62 66 0 
N 34 6 0 
N 30 93 0 
N 63 11 0 
N 81 29 0 
N 19 91 0 
N 7 91 0 
N 72 59 0 
N 23 73 0 
N 93 48 0 
N 78 85 0 
N 97 85 0 
N 56 59 0 
N 18 63 0 
N 39 45 0 
N 18 48 0 
N 10 81 0 
N 3 17 0 
N 49 20 0 
N 65 78 0 
N 29 91 0 
N 22 19 0 
N 97 16 0 
N 98 62 0 
N 25 73 0 
N 30 42 0 
N 10 30 0 
N 66 5 0 
N 9 22 0 
N 85 38 0 
N 49 54 0 
N 7 61 0 
N 87 33 0 
N 28 19 0 
N 38 26 0 
N 77 90 0 
N 37 91 0 
N 17 54 0 
N 48 89 0 
N 95 78 0 
N 6 30 0 
N 17 34 0 
N 23 20 0 
N 88 23 0 
N 91 0 0 
N 97 89 0 
N 10 83 0 
N 29 33 0 
N 65 36 0 
N 98 54 0 
N 82 34 0 
N 12 81 0 
N 13 71 0 
N 21 23 0 
N 35 30 0 
N 75 7 0 
N 2 61 0 
N 63 17 0 
N 21 11 0 
N 92 61 0 
N 62 18 0 
N 34 93 0 
N 65 22 0 
N 93 14 0 
N 92 96 0 
N 90 93 0 
N 11 82 0 
N 64 3 0 
N 3 32 0 
N 3 55 0 
N 82 59 0 
N 90 86 0 
N 34 92 0 
N 68 51 0 
N 75 45 0 
N 8 1 0 
N 71 49 0 
N 44 91 0 
N 32 40 0 
N 72 40 0 
N 91 60 0 
N 64 17 0 
N 98 77 0 
N 58 68 0 
N 10 79 0 
N 87 37 0 
N 34 91 0 
N 22 63 0 
N 83 76 0 
N 30 41 0 
N 83 45 0 
N 41 82 0 
N 77 85 0 
N 68 21 0 
N 83 20 0 
N 17 3 0 
N 5 46 0 
N 50 36 0 
N 55 42 0 
N 98 28 0 
N 15 34 0 
N 41 12 0 
N 87 47 0 
N 15 58 0 
N 89 1 0 
N 18 66 0 
N 80 61 0 
N 21 13 0 
N 42 70 0 
N 74 66 0 
N 72 65 0 
N 0 74 0 
N 70 58 0 
N 14 67 0 
N 34 95 0 
N 2 17 0 
N 43 12 0 
N 68 52 0 
N 37 14 0 
N 88 1 0 
N 48 51 0 
N 76 84 0 
N 88 96 0 
N 64 25 0 
N 6 96 0 
N 88 85 0 
N 77 63 0 
N 4 42 0 
N 53 67 0 
N 50 19 0 
N 69 41 0 
N 73 50 0 
N 92 2 0 
N 94 27 0 
N 36 30 0 
N 22 7 0 
N 46 3 0 
N 96 81 0 
N 97 15 0 
N 67 20 0 
N 75 96 0 
N 7 97 0 
N 66 49 0 
N 20 87 0 
N 75 9 0 
N 17 1 0 
N 49 17 0 
N 31 40 0 
N 24 78 0 
N 41 32 0 
N 17 62 0 
N 97 53 0 
N 44 83 0 
N 70 20 0 
N 1 98 0 
N 70 60 0 
N 53 80 0 
N 30 59 0 
N 87 3 0 
N 38 27 0 
N 64 76 0 
N 58 95 0 
N 92 56 0 
N 11 84 0 
N 45 4 0 
N 8 43 0 
N 15 87 0 
N 51 5 0 
N 53 99 0 
N 40 68 0 
N 61 17 0 
N 39 31 0 
N 92 13 0 
N 18 53 0 
N 27 77 0 
N 66 17 0 
N 44 44 0 
N 3 3 0 
N 86 78 0 
N 93 32 0 
N 53 33 0 
N 57 67 0 
N 23 59 0 
N 38 94 0 
N 94 52 0 
N 30 69 0 
N 44 35 0 
N 47 32 0 
N 38 28 0 
N 67 24 0 
N 40 84 0 
N 73 96 0 
N 43 82 0 
N 27 8 0 
N 74 1 0 
N 23 89 0 
N 51 35 0 
N 14 74 0 
N 76 85 0 
N 96 52 0 
N 19 90 0 
N 46 61 0 
N 16 30 0 
N 71 66 0 
N 40 33 0 
N 97 55 0 
N 51 55 0 
N 29 41 0 
N 10 19 0 
N 40 62 0 
N 66 23 0 
N 74 68 0 
N 49 77 0 
N 61 7 0 
N 90 42 0 
N 1 42 0 
N 70 46 0 
N 31 86 0 
N 79 36 0 
N 41 97 0 
N 69 63 0 
N 76 89 0 
N 41 47 0 
N 72 41 0 
N 4 3 0 
N 16 0 0 
N 63 77 0 
N 6 24 0 
N 15 53 0 
N 1 87 0 
N 86 76 0 
N 30 27 0 
N 67 35 0 
N 41 69 0 
N 71 58 0 
N 28 54 0 
N 54 22 0 
N 17 42 0 
N 59 96 0 
N 90 45 0 
N 54 99 0 
N 39 62 0 
N 37 31 0 
N 48 46 0 
N 62 19 0 
N 20 8 0 
N 89 76 0 
N 41 33 0 
N 16 3 0 
N 34 8 0 
N 74 7 0 
N 45 45 0 
N 47 46 0 
N 9 32 0 
N 73 81 0 
N 36 31 0 
N 87 80 0 
N 1 46 0 
N 58 8 0 
N 81 31 0 
N 6 22 0 
N 86 77 0 
N 45 61 0 
N 58 7 0 
N 49 19 0 
N 57 75 0 
N 94 73 0 
N 27 19 0 
N 40 55 0 
N 76 63 0 
N 86 48 0 
N 80 36 0 
N 92 59 0 
N 74 80 0 
N 34 86 0 
N 92 42 0 
N 64 23 0 
N 38 29 0 
N 15 66 0 
N 5 43 0 
N 21 59 0 
N 30 52 0 
N 64 52 0 
N 44 14 0 
N 81 26 0 
N 82 60 0 
N 60 95 0 
N 68 22 0 
N 86 40 0 
N 66 26 0 
N 34 94 0 
N 16 61 0 
N 48 19 0 
N 6 32 0 
N 52 43 0 
N 8 42 0 
N 0 21 0 
N 37 49 0 
N 94 77 0 
N 35 95 0 
N 86 36 0 
N 91 11 0 
N 5 41 0 
N 65 19 0 
N 35 8 0 
N 35 93 0 
N 55 54 0 
N 75 11 0 
N 72 38 0 
N 38 30 0 
N 66 88 0 
N 19 33 0 
N 21 52 0 
N 82 17 0 
N 9 19 0 
N 60 61 0 
N 87 2 0 
N 21 5 0 
N 30 18 0 
N 82 31 0 
N 2 88 0 
N 21 54 0 
N 63 66 0 
N 41 48 0 
N 3 87 0 
N 96 88 0 
N 62 20 0 
N 18 67 0 
N 69 95 0 
N 94 53 0 
N 51 45 0 
N 29 68 0 
N 18 50 0 
N 74 9 0 
N 68 64 0 
N 96 76 0 
N 72 57 0 
N 34 10 0 
N 69 42 0 
N 29 54 0 
N 56 75 0 
N 4 56 0 
N 81 60 0 
N 52 67 0 
N 4 83 0 
N 30 55 0 
N 87 50 0 
N 23 12 0 
N 65 50 0 
N 39 29 0 
N 98 15 0 
N 64 40 0 
N 17 32 0 
N 7 64 0 
N 69 7 0 
N 54 96 0 
N 14 58 0 
N 98 11 0 
N 73 80 0 
C 0 0 0 
C 25 0 0 
C 50 0 0 
C 75 0 0 
C 100 0 0 
C 0 25 0 
C 25 25 0 
C 50 25 0 
C 75 25 0 
C 100 25 0 
C 0 50 0 
C 25 50 0 
C 50 50 0 
C 75 50 0 
C 100 50 0 
C 0 75 0 
C 25 75 0 
C 50 75 0 
C 75 75 0 
C 100 75 0 
C 0 100 0 
C 25 100 0 
C 50 100 0 
C 75 100 0 
C 100 100 0 
O 6 26 0 
O 19 58 0 
O 21 97 0 
O 70 50 0 
O 59 94 0 
O 55 83 0 
O 68 94 0 
O 21 86 0 
O 22 60 0 
O 24 19 0 
O 91 62 0 
O 74 53 0 
O 70 62 0 
O 96 31 0 
O 40 31 0 
O 59 99 0 
O 7 79 0 
O 72 84 0 
O 63 98 0 
O 64 88 0 
O 48 76 0 
O 63 89 0 
O 50 12 0 
O 81 28 0 
O 36 67 0 
O 31 60 0 
O 36 54 0 
O 98 52 0 
O 45 6 0 
O 51 68 0 
O 45 0 0 
O 5 97 0 
O 88 92 0 
O 69 83 0 
O 7 99 0 
O 67 98 0 
O 60 86 0 
O 85 82 0 
O 87 23 0 
O 81 30 0 
O 88 36 0 
O 44 1 0 
O 94 31 0 
O 47 73 0 
O 28 14 0 
O 56 55 0 
O 92 99 0 
O 56 68 0 
O 84 21 0 
O 0 15 0 
O 55 3 0 
O 62 84 0 
O 37 57 0 
O 17 99 0 
O 50 81 0 
O 59 1 0 
O 87 48 0 
O 76 6 0 
O 99 29 0 
O 75 88 0 
O 99 1 0 
O 5 4 0 
O 60 87 0 
O 7 25 0 
O 41 99 0 
O 73 78 0 
O 63 18 0 
O 23 62 0 
O 71 89 0 
O 72 63 0 
O 53 71 0 
O 95 20 0 
O 62 88 0 
O 86 89 0 
O 56 77 0 
O 19 67 0 
O 88 84 0 
O 39 99 0 
O 30 50 0 
O 82 2 0 
O 95 26 0 
O 12 74 0 
O 87 91 0 
O 32 55 0 
O 63 93 0 
O 69 91 0 
O 31 58 0 
O 1 55 0 
O 65 85 0 
O 53 55 0 
O 3 23 0 
O 94 29 0 
O 76 46 0 
O 97 27 0 
O 83 4 0 
O 51 80 0 
O 23 18 0 
O 65 93 0 
O 51 74 0 
O 54 65 0 
O 28 61 0 
O 19 54 0 
O 95 30 0 
O 55 58 0 
O 38 32 0 
O 91 32 0 
O 85 80 0 
O 18 98 0 
O 32 87 0 
O 57 98 0 
O 16 75 0 
O 58 94 0 
O 0 33 0 
O 22 64 0 
O 63 68 0 
O 0 20 0 
O 43 92 0 
O 69 87 0 
O 34 1 0 
O 72 61 0 
O 2 21 0 
O 6 98 0 
O 38 55 0 
O 69 52 0 
O 53 5 0 
O 57 87 0 
O 76 91 0 
O 88 0 0 
O 43 84 0 
O 30 25 0 
O 38 48 0 
O 60 81 0 
O 9 82 0 
O 94 58 0 
O 59 78 0 
O 90 0 0 
O 30 47 0 
O 22 73 0 
O 70 3 0 
O 1 12 0 
O 29 1 0 
O 43 69 0 
O 25 60 0 
O 66 79 0 
O 0 99 0 
O 88 94 0 
O 58 87 0 
O 99 32 0 
O 61 86 0 
O 73 0 0 
O 1 23 0 
O 0 82 0 
O 40 57 0 
O 64 83 0 
O 5 1 0 
O 25 65 0 
O 28 53 0 
O 98 19 0 
O 82 0 0 
O 80 3 0 
O 98 21 0 
O 27 16 0 
O 17 78 0 
O 35 59 0 
O 40 59 0 
O 35 5 0 
O 75 85 0 
O 67 96 0 
O 51 85 0 
O 68 46 0 
O 82 28 0 
O 32 8 0 
O 0 88 0 
O 29 67 0 
O 87 0 0 
O 59 2 0 
O 59 60 0 
O 25 61 0 
O 35 48 0 
O 43 73 0 
O 81 76 0 
O 50 89 0 
O 25 57 0 
686
Atoms. Timestep: 17
N 15 27 0 
N 72 63 0 
N 93 58 0 
N 9 20 0 
N 9 21 0 
N 23 21 0 
N 3 18 0 
N 16 97 0 
N 3 12 0 
N 17 52 0 
N 68 36 0 
N 29 81 0 
N 34 30 0 
N 86 36 0 
N 49 76 0 
N 30 39 0 
N 22 67 0 
N 68 45 0 
N 26 72 0 
N 44 80 0 
N 97 12 0 
N 95 31 0 
N 24 19 0 
N 88 23 0 
N 23 20 0 
N 24 75 0 
N 30 28 0 
N 2 32 0 
N 35 54 0 
N 73 64 0 
N 1 53 0 
N 18 58 0 
N 83 29 0 
N 49 12 0 
N 40 43 0 
N 98 87 0 
N 70 40 0 
N 68 7 0 
N 2 41 0 
N 84 61 0 
N 50 53 0 
N 42 31 0 
N 43 82 0 
N 68 51 0 
N 43 90 0 
N 27 8 0 
N 79 86 0 
N 17 97 0 
N 35 95 0 
N 97 58 0 
N 35 7 0 
N 64 89 0 
N 11 82 0 
N 67 52 0 
N 94 52 0 
N 2 59 0 
N 48 55 0 
N 8 7 0 
N 95 21 0 
N 42 62 0 
N 82 38 0 
N 1 42 0 
N 39 35 0 
N 58 77 0 
N 16 63 0 
N 98 16 0 
N 32 91 0 
N 84 82 0 
N 31 43 0 
N 79 59 0 
N 73 84 0 
N 22 72 0 
N 57 77 0 
N 70 60 0 
N 82 29 0 
N 7 44 0 
N 21 86 0 
N 0 85 0 
N 39 0 0 
N 88 47 0 
N 38 32 0 
N 3 46 0 
N 76 65 0 
N 77 29 0 
N 4 83 0 
N 12 23 0 
N 51 81 0 
N 43 27 0 
N 25 97 0 
N 13 33 0 
N 49 20 0 
N 93 83 0 
N 71 19 0 
N 6 45 0 
N 86 2 0 
N 74 63 0 
N 46 6 0 
N 76 11 0 
N 6 81 0 
N 0 33 0 
N 61 2 0 
N 60 18 0 
N 6 27 0 
N 39 82 0 
N 18 78 0 
N 39 45 0 
N 40 70 0 
N 84 38 0 
N 18 53 0 
N 76 10 0 
N 1 62 0 
N 59 62 0 
N 82 31 0 
N 24 22 0 
N 49 95 0 
N 79 30 0 
N 89 84 0 
N 62 89 0 
N 69 59 0 
N 84 19 0 
N 44 62 0 
N 19 45 0 
N 68 39 0 
N 14 59 0 
N 91 49 0 
N 7 30 0 
N 88 49 0 
N 21 7 0 
N 19 57 0 
N 64 68 0 
N 53 42 0 
N 31 86 0 
N 76 5 0 
N 73 76 0 
N 83 28 0 
N 71 42 0 
N 88 42 0 
N 17 49 0 
N 51 84 0 
N 70 96 0 
N 32 67 0 
N 63 66 0 
N 35 6 0 
N 31 93 0 
N 63 12 0 
N 80 29 0 
N 20 91 0 
N 6 91 0 
N 72 60 0 
N 22 73 0 
N 94 48 0 
N 77 85 0 
N 96 85 0 
N 55 59 0 
N 19 63 0 
N 38 45 0 
N 18 49 0 
N 9 81 0 
N 2 17 0 
N 49 19 0 
N 65 79 0 
N 29 90 0 
N 22 19 0 
N 97 15 0 
N 97 62 0 
N 24 73 0 
N 30 43 0 
N 10 29 0 
N 66 4 0 
N 9 23 0 
N 86 38 0 
N 49 55 0 
N 7 60 0 
N 87 34 0 
N 27 19 0 
N 38 27 0 
N 77 91 0 
N 37 92 0 
N 18 54 0 
N 49 89 0 
N 95 79 0 
N 6 29 0 
N 16 34 0 
N 23 19 0 
N 87 23 0 
N 90 0 0 
N 97 88 0 
N 9 83 0 
N 29 32 0 
N 65 37 0 
N 98 54 0 
N 82 33 0 
N 12 82 0 
N 13 72 0 
N 21 22 0 
N 36 30 0 
N 74 7 0 
N 1 61 0 
N 63 16 0 
N 22 11 0 
N 92 62 0 
N 63 18 0 
N 34 92 0 
N 65 21 0 
N 93 15 0 
N 93 96 0 
N 90 92 0 
N 10 82 0 
N 64 4 0 
N 3 33 0 
N 2 55 0 
N 82 60 0 
N 89 86 0 
N 33 92 0 
N 68 50 0 
N 75 46 0 
N 7 1 0 
N 70 49 0 
N 44 92 0 
N 31 40 0 
N 73 40 0 
N 91 61 0 
N 64 18 0 
N 98 78 0 
N 57 68 0 
N 9 79 0 
N 88 37 0 
N 34 90 0 
N 22 64 0 
N 82 76 0 
N 30 41 0 
N 82 45 0 
N 42 82 0 
N 76 85 0 
N 68 20 0 
N 83 21 0 
N 17 4 0 
N 6 46 0 
N 50 35 0 
N 56 42 0 
N 98 29 0 
N 14 34 0 
N 42 12 0 
N 87 46 0 
N 16 58 0 
N 89 0 0 
N 18 65 0 
N 79 61 0 
N 21 14 0 
N 43 70 0 
N 73 66 0 
N 72 64 0 
N 0 74 0 
N 70 58 0 
N 14 68 0 
N 34 95 0 
N 1 17 0 
N 44 12 0 
N 69 52 0 
N 36 14 0 
N 88 0 0 
N 48 52 0 
N 75 84 0 
N 88 95 0 
N 63 25 0 
N 5 96 0 
N 88 84 0 
N 77 63 0 
N 3 42 0 
N 53 68 0 
N 50 18 0 
N 69 42 0 
N 72 50 0 
N 92 3 0 
N 94 26 0 
N 36 31 0 
N 22 8 0 
N 46 4 0 
N 96 82 0 
N 96 15 0 
N 67 19 0 
N 76 96 0 
N 6 97 0 
N 67 49 0 
N 21 87 0 
N 75 8 0 
N 17 2 0 
N 50 17 0 
N 30 40 0 
N 24 77 0 
N 41 32 0 
N 18 62 0 
N 98 53 0 
N 44 84 0 
N 69 20 0 
N 0 98 0 
N 70 61 0 
N 52 80 0 
N 31 59 0 
N 87 2 0 
N 38 28 0 
N 65 76 0 
N 58 94 0 
N 93 56 0 
N 10 84 0 
N 45 5 0 
N 7 43 0 
N 16 87 0 
N 52 5 0 
N 54 99 0 
N 40 69 0 
N 62 17 0 
N 40 31 0 
N 92 14 0 
N 19 53 0 
N 26 77 0 
N 66 18 0 
N 43 44 0 
N 3 4 0 
N 85 78 0 
N 93 31 0 
N 52 33 0 
N 56 67 0 
N 23 60 0 
N 39 94 0 
N 94 53 0 
N 30 70 0 
N 44 34 0 
N 47 31 0 
N 38 29 0 
N 67 23 0 
N 41 84 0 
N 74 96 0 
N 43 83 0 
N 28 8 0 
N 73 1 0 
N 23 88 0 
N 51 34 0 
N 13 74 0 
N 75 85 0 
N 97 52 0 
N 19 89 0 
N 45 61 0 
N 15 30 0 
N 71 65 0 
N 40 32 0 
N 98 55 0 
N 52 55 0 
N 29 42 0 
N 9 19 0 
N 40 61 0 
N 66 22 0 
N 74 67 0 
N 48 77 0 
N 60 7 0 
N 90 41 0 
N 1 41 0 
N 69 46 0 
N 31 87 0 
N 80 36 0 
N 41 98 0 
N 69 62 0 
N 75 89 0 
N 40 47 0 
N 72 42 0 
N 4 4 0 
N 16 1 0 
N 63 78 0 
N 6 25 0 
N 16 53 0 
N 0 87 0 
N 86 77 0 
N 30 26 0 
N 67 36 0 
N 42 69 0 
N 71 59 0 
N 28 53 0 
N 55 22 0 
N 17 43 0 
N 59 96 0 
N 90 44 0 
N 54 98 0 
N 39 61 0 
N 37 32 0 
N 48 47 0 
N 63 19 0 
N 20 9 0 
N 88 76 0 
N 41 33 0 
N 16 4 0 
N 33 8 0 
N 74 6 0 
N 44 45 0 
N 46 46 0 
N 9 31 0 
N 73 81 0 
N 36 32 0 
N 86 80 0 
N 1 47 0 
N 58 7 0 
N 81 30 0 
N 6 23 0 
N 85 77 0 
N 44 61 0 
N 59 7 0 
N 49 18 0 
N 56 75 0 
N 93 73 0 
N 26 19 0 
N 39 55 0 
N 76 63 0 
N 87 48 0 
N 81 36 0 
N 93 59 0 
N 73 80 0 
N 34 87 0 
N 91 42 0 
N 64 22 0 
N 38 30 0 
N 14 66 0 
N 4 43 0 
N 21 60 0 
N 30 51 0 
N 65 52 0 
N 45 14 0 
N 81 27 0 
N 82 61 0 
N 59 95 0 
N 67 22 0 
N 86 39 0 
N 66 25 0 
N 34 94 0 
N 17 61 0 
N 48 18 0 
N 6 31 0 
N 52 44 0 
N 7 42 0 
N 0 20 0 
N 38 49 0 
N 94 78 0 
N 35 94 0 
N 87 36 0 
N 91 12 0 
N 5 40 0 
N 64 19 0 
N 35 9 0 
N 35 92 0 
N 56 54 0 
N 75 10 0 
N 72 39 0 
N 38 31 0 
N 65 88 0 
N 19 32 0 
N 20 52 0 
N 83 17 0 
N 8 19 0 
N 59 61 0 
N 87 1 0 
N 21 6 0 
N 29 18 0 
N 83 31 0 
N 1 88 0 
N 22 54 0 
N 63 67 0 
N 40 48 0 
N 2 87 0 
N 95 88 0 
N 63 20 0 
N 19 67 0 
N 68 95 0 
N 95 53 0 
N 52 45 0 
N 29 67 0 
N 18 51 0 
N 74 8 0 
N 68 63 0 
N 95 76 0 
N 72 58 0 
N 34 9 0 
N 69 43 0 
N 29 53 0 
N 56 76 0 
N 3 56 0 
N 80 60 0 
N 51 67 0 
N 3 83 0 
N 31 55 0 
N 87 50 0 
N 23 13 0 
N 66 50 0 
N 40 29 0 
N 98 15 0 
N 65 40 0 
N 17 31 0 
N 7 65 0 
N 70 7 0 
N 55 96 0 
N 14 58 0 
N 97 11 0 
N 73 79 0 
C 0 0 0 
C 25 0 0 
C 50 0 0 
C 75 0 0 
C 100 0 0 
C 0 25 0 
C 25 25 0 
C 50 25 0 
C 75 25 0 
C 100 25 0 
C 0 50 0 
C 25 50 0 
C 50 50 0 
C 75 50 0 
C 100 50 0 
C 0 75 0 
C 25 75 0 
C 50 75 0 
C 75 75 0 
C 100 75 0 
C 0 100 0 
C 25 100 0 
C 50 100 0 
C 75 100 0 
C 100 100 0 
O 5 26 0 
O 19 59 0 
O 21 96 0 
O 69 50 0 
O 60 94 0 
O 56 83 0 
O 68 93 0 
O 22 59 0 
O 90 62 0 
O 74 52 0 
O 70 63 0 
O 97 31 0 
O 59 0 0 
O 8 79 0 
O 72 83 0 
O 63 99 0 
O 64 87 0 
O 47 76 0 
O 63 88 0 
O 50 13 0 
O 81 29 0 
O 37 67 0 
O 31 61 0 
O 36 55 0 
O 99 52 0 
O 45 7 0 
O 51 69 0 
O 45 99 0 
O 5 98 0 
O 88 93 0 
O 69 82 0 
O 7 0 0 
O 67 97 0 
O 59 86 0 
O 86 82 0 
O 89 36 0 
O 44 2 0 
O 94 30 0 
O 46 73 0 
O 27 14 0 
O 57 55 0 
O 92 98 0 
O 56 69 0 
O 84 20 0 
O 0 16 0 
O 56 3 0 
O 62 83 0 
O 36 57 0 
O 16 99 0 
O 50 82 0 
O 58 1 0 
O 75 6 0 
O 0 29 0 
O 76 88 0 
O 99 0 0 
O 5 3 0 
O 60 88 0 
O 7 24 0 
O 41 0 0 
O 73 77 0 
O 23 63 0 
O 70 89 0 
O 53 72 0 
O 95 19 0 
O 62 87 0 
O 85 89 0 
O 56 78 0 
O 40 99 0 
O 30 49 0 
O 83 2 0 
O 95 25 0 
O 11 74 0 
O 86 91 0 
O 32 56 0 
O 63 94 0 
O 70 91 0 
O 31 57 0 
O 0 55 0 
O 65 84 0 
O 53 54 0 
O 3 22 0 
O 94 28 0 
O 77 46 0 
O 96 27 0 
O 83 3 0 
O 51 79 0 
O 22 18 0 
O 66 93 0 
O 51 75 0 
O 53 65 0 
O 27 61 0 
O 19 55 0 
O 95 29 0 
O 56 58 0 
O 91 33 0 
O 85 81 0 
O 18 97 0 
O 33 87 0 
O 57 97 0 
O 16 74 0 
O 63 69 0 
O 43 93 0 
O 70 87 0 
O 34 2 0 
O 73 61 0 
O 3 21 0 
O 7 98 0 
O 38 56 0 
O 53 4 0 
O 58 87 0 
O 76 92 0 
O 43 85 0 
O 30 24 0 
O 37 48 0 
O 59 81 0 
O 8 82 0 
O 94 59 0 
O 59 79 0 
O 29 47 0 
O 69 3 0 
O 1 13 0 
O 29 0 0 
O 44 69 0 
O 26 60 0 
O 66 80 0 
O 99 99 0 
O 89 94 0 
O 58 88 0 
O 99 33 0 
O 62 86 0 
O 73 99 0 
O 2 23 0 
O 0 83 0 
O 39 57 0 
O 65 83 0 
O 5 0 0 
O 24 65 0 
O 98 20 0 
O 82 99 0 
O 80 4 0 
O 99 21 0 
O 26 16 0 
O 16 78 0 
O 34 59 0 
O 40 60 0 
O 35 4 0 
O 67 95 0 
O 50 85 0 
O 67 46 0 
O 82 27 0 
O 32 7 0 
O 99 88 0 
O 86 0 0 
O 60 2 0 
O 60 60 0 
O 24 61 0 
O 35 49 0 
O 42 73 0 
O 81 75 0 
O 50 88 0 
O 26 57 0 
672
Atoms. Timestep: 18
N 15 26 0 
N 71 63 0 
N 94 58 0 
N 9 21 0 
N 8 21 0 
N 24 21 0 
N 3 19 0 
N 16 98 0 
N 2 12 0 
N 17 53 0 
N 68 37 0 
N 28 81 0 
N 33 30 0 
N 87 36 0 
N 48 76 0 
N 29 39 0 
N 22 66 0 
N 67 45 0 
N 26 71 0 
N 44 81 0 
N 96 12 0 
N 96 31 0 
N 24 18 0 
N 89 23 0 
N 24 20 0 
N 23 75 0 
N 30 27 0 
N 3 32 0 
N 36 54 0 
N 73 64 0 
N 2 53 0 
N 18 59 0 
N 84 29 0 
N 50 12 0 
N 39 43 0 
N 99 87 0 
N 70 41 0 
N 68 6 0 
N 2 40 0 
N 84 62 0 
N 50 54 0 
N 42 30 0 
N 43 83 0 
N 68 50 0 
N 43 91 0 
N 27 9 0 
N 78 86 0 
N 18 97 0 
N 35 94 0 
N 97 59 0 
N 35 6 0 
N 64 88 0 
N 10 82 0 
N 67 51 0 
N 94 52 0 
N 1 59 0 
N 48 54 0 
N 8 8 0 
N 95 20 0 
N 42 61 0 
N 82 37 0 
N 1 41 0 
N 38 35 0 
N 58 78 0 
N 16 62 0 
N 98 16 0 
N 31 91 0 
N 85 82 0 
N 30 43 0 
N 79 60 0 
N 72 84 0 
N 21 72 0 
N 57 78 0 
N 70 60 0 
N 82 30 0 
N 8 44 0 
N 21 87 0 
N 0 84 0 
N 40 0 0 
N 89 47 0 
N 38 31 0 
N 4 46 0 
N 76 64 0 
N 77 30 0 
N 3 83 0 
N 12 24 0 
N 50 81 0 
N 43 26 0 
N 24 97 0 
N 14 33 0 
N 50 20 0 
N 93 82 0 
N 70 19 0 
N 7 45 0 
N 86 1 0 
N 73 63 0 
N 46 7 0 
N 76 10 0 
N 6 82 0 
N 1 33 0 
N 60 2 0 
N 60 17 0 
N 5 27 0 
N 40 82 0 
N 17 78 0 
N 39 46 0 
N 41 70 0 
N 84 37 0 
N 19 53 0 
N 77 10 0 
N 1 61 0 
N 59 61 0 
N 83 31 0 
N 24 23 0 
N 48 95 0 
N 80 30 0 
N 88 84 0 
N 62 88 0 
N 69 60 0 
N 84 20 0 
N 44 63 0 
N 19 46 0 
N 67 39 0 
N 15 59 0 
N 91 50 0 
N 7 29 0 
N 88 50 0 
N 21 8 0 
N 19 58 0 
N 64 69 0 
N 53 43 0 
N 32 86 0 
N 76 4 0 
N 73 77 0 
N 83 27 0 
N 70 42 0 
N 89 42 0 
N 17 50 0 
N 50 84 0 
N 71 96 0 
N 33 67 0 
N 63 67 0 
N 35 5 0 
N 31 92 0 
N 63 13 0 
N 80 28 0 
N 20 92 0 
N 6 92 0 
N 72 61 0 
N 22 74 0 
N 95 48 0 
N 77 86 0 
N 95 85 0 
N 56 59 0 
N 19 63 0 
N 37 45 0 
N 18 50 0 
N 8 81 0 
N 1 17 0 
N 49 18 0 
N 66 79 0 
N 29 89 0 
N 22 18 0 
N 97 16 0 
N 96 62 0 
N 24 72 0 
N 30 44 0 
N 9 29 0 
N 66 3 0 
N 9 24 0 
N 87 38 0 
N 50 55 0 
N 7 59 0 
N 88 34 0 
N 27 18 0 
N 37 27 0 
N 76 91 0 
N 38 92 0 
N 18 55 0 
N 49 90 0 
N 95 80 0 
N 5 29 0 
N 17 34 0 
N 23 18 0 
N 87 22 0 
N 90 1 0 
N 98 88 0 
N 8 83 0 
N 30 32 0 
N 65 38 0 
N 99 54 0 
N 83 33 0 
N 12 82 0 
N 12 72 0 
N 21 21 0 
N 36 29 0 
N 73 7 0 
N 0 61 0 
N 63 15 0 
N 22 12 0 
N 92 62 0 
N 63 17 0 
N 35 92 0 
N 66 21 0 
N 94 15 0 
N 92 96 0 
N 90 93 0 
N 9 82 0 
N 64 5 0 
N 4 33 0 
N 1 55 0 
N 83 60 0 
N 88 86 0 
N 33 93 0 
N 69 50 0 
N 75 47 0 
N 7 0 0 
N 70 50 0 
N 44 93 0 
N 31 41 0 
N 74 40 0 
N 91 62 0 
N 64 17 0 
N 97 78 0 
N 57 69 0 
N 8 79 0 
N 89 37 0 
N 35 90 0 
N 23 64 0 
N 82 75 0 
N 29 41 0 
N 82 44 0 
N 42 83 0 
N 76 86 0 
N 69 20 0 
N 83 20 0 
N 16 4 0 
N 6 47 0 
N 50 34 0 
N 57 42 0 
N 97 29 0 
N 15 34 0 
N 42 11 0 
N 86 46 0 
N 16 59 0 
N 89 0 0 
N 19 65 0 
N 78 61 0 
N 20 14 0 
N 44 70 0 
N 73 65 0 
N 71 64 0 
N 0 74 0 
N 70 59 0 
N 14 69 0 
N 34 94 0 
N 0 17 0 
N 45 12 0 
N 69 51 0 
N 35 14 0 
N 88 0 0 
N 48 53 0 
N 75 83 0 
N 88 94 0 
N 63 24 0 
N 5 97 0 
N 88 83 0 
N 76 63 0 
N 3 41 0 
N 53 69 0 
N 50 17 0 
N 68 42 0 
N 71 50 0 
N 92 4 0 
N 95 26 0 
N 35 31 0 
N 22 9 0 
N 45 4 0 
N 95 82 0 
N 96 16 0 
N 68 19 0 
N 76 95 0 
N 7 97 0 
N 68 49 0 
N 21 88 0 
N 76 8 0 
N 17 3 0 
N 50 16 0 
N 29 40 0 
N 24 78 0 
N 40 32 0 
N 19 62 0 
N 99 53 0 
N 44 85 0 
N 70 20 0 
N 1 98 0 
N 70 61 0 
N 52 79 0 
N 31 60 0 
N 87 1 0 
N 37 28 0 
N 65 77 0 
N 58 94 0 
N 93 57 0 
N 9 84 0 
N 45 6 0 
N 8 43 0 
N 16 86 0 
N 52 4 0 
N 54 98 0 
N 41 69 0 
N 62 16 0 
N 40 30 0 
N 93 14 0 
N 19 54 0 
N 26 78 0 
N 66 17 0 
N 42 44 0 
N 4 4 0 
N 85 79 0 
N 93 30 0 
N 52 32 0 
N 56 68 0 
N 22 60 0 
N 39 93 0 
N 95 53 0 
N 30 69 0 
N 44 35 0 
N 47 30 0 
N 37 29 0 
N 68 23 0 
N 41 85 0 
N 73 96 0 
N 43 84 0 
N 29 8 0 
N 73 2 0 
N 22 88 0 
N 51 33 0 
N 12 74 0 
N 75 86 0 
N 98 52 0 
N 19 90 0 
N 45 62 0 
N 14 30 0 
N 70 65 0 
N 39 32 0 
N 97 55 0 
N 53 55 0 
N 29 43 0 
N 8 19 0 
N 40 60 0 
N 67 22 0 
N 74 68 0 
N 47 77 0 
N 60 6 0 
N 89 41 0 
N 1 40 0 
N 68 46 0 
N 32 87 0 
N 81 36 0 
N 41 97 0 
N 70 62 0 
N 75 88 0 
N 40 48 0 
N 72 43 0 
N 4 3 0 
N 16 2 0 
N 63 79 0 
N 5 25 0 
N 16 52 0 
N 1 87 0 
N 86 78 0 
N 30 25 0 
N 67 37 0 
N 43 69 0 
N 71 60 0 
N 28 52 0 
N 55 21 0 
N 18 43 0 
N 60 96 0 
N 89 44 0 
N 54 97 0 
N 39 60 0 
N 36 32 0 
N 48 48 0 
N 62 19 0 
N 20 10 0 
N 87 76 0 
N 41 34 0 
N 16 5 0 
N 33 7 0 
N 75 6 0 
N 43 45 0 
N 45 46 0 
N 9 30 0 
N 73 82 0 
N 35 32 0 
N 86 81 0 
N 2 47 0 
N 57 7 0 
N 81 29 0 
N 6 24 0 
N 85 77 0 
N 44 60 0 
N 59 6 0 
N 49 17 0 
N 56 76 0 
N 92 73 0 
N 26 18 0 
N 39 56 0 
N 76 62 0 
N 87 47 0 
N 81 35 0 
N 92 59 0 
N 73 79 0 
N 33 87 0 
N 90 42 0 
N 64 21 0 
N 37 30 0 
N 14 67 0 
N 4 44 0 
N 21 59 0 
N 30 50 0 
N 65 51 0 
N 46 14 0 
N 82 27 0 
N 83 61 0 
N 59 94 0 
N 68 22 0 
N 87 39 0 
N 66 26 0 
N 34 93 0 
N 18 61 0 
N 48 17 0 
N 6 30 0 
N 53 44 0 
N 8 42 0 
N 1 20 0 
N 37 49 0 
N 93 78 0 
N 36 94 0 
N 88 36 0 
N 91 11 0 
N 6 40 0 
N 64 19 0 
N 35 8 0 
N 35 91 0 
N 56 55 0 
N 75 9 0 
N 72 40 0 
N 37 31 0 
N 65 87 0 
N 20 32 0 
N 19 52 0 
N 83 18 0 
N 8 20 0 
N 59 60 0 
N 87 0 0 
N 21 6 0 
N 29 17 0 
N 83 30 0 
N 2 88 0 
N 21 54 0 
N 63 68 0 
N 39 48 0 
N 3 87 0 
N 96 88 0 
N 62 20 0 
N 20 67 0 
N 67 95 0 
N 95 52 0 
N 53 45 0 
N 29 66 0 
N 19 51 0 
N 74 8 0 
N 69 63 0 
N 95 77 0 
N 73 58 0 
N 33 9 0 
N 68 43 0 
N 29 52 0 
N 56 77 0 
N 2 56 0 
N 80 61 0 
N 51 68 0 
N 2 83 0 
N 31 56 0 
N 87 51 0 
N 23 14 0 
N 67 50 0 
N 40 28 0 
N 98 15 0 
N 66 40 0 
N 16 31 0 
N 7 66 0 
N 69 7 0 
N 56 96 0 
N 15 58 0 
N 96 11 0 
N 73 78 0 
C 0 0 0 
C 25 0 0 
C 50 0 0 
C 75 0 0 
C 100 0 0 
C 0 25 0 
C 25 25 0 
C 50 25 0 
C 75 25 0 
C 100 25 0 
C 0 50 0 
C 25 50 0 
C 50 50 0 
C 75 50 0 
C 100 50 0 
C 0 75 0 
C 25 75 0 
C 50 75 0 
C 75 75 0 
C 100 75 0 
C 0 100 0 
C 25 100 0 
C 50 100 0 
C 75 100 0 
C 100 100 0 
O 6 26 0 
O 19 59 0 
O 21 95 0 
O 60 95 0 
O 56 84 0 
O 68 94 0 
O 22 58 0 
O 89 62 0 
O 73 52 0 
O 70 64 0 
O 97 32 0 
O 58 0 0 
O 71 83 0 
O 63 98 0 
O 64 86 0 
O 47 75 0 
O 63 87 0 
O 51 13 0 
O 37 68 0 
O 30 61 0 
O 35 55 0 
O 99 51 0 
O 44 7 0 
O 50 69 0 
O 45 0 0 
O 5 99 0 
O 88 92 0 
O 69 83 0 
O 67 96 0 
O 60 86 0 
O 86 83 0 
O 90 36 0 
O 44 1 0 
O 95 30 0 
O 47 73 0 
O 26 14 0 
O 58 55 0 
O 92 99 0 
O 55 69 0 
O 0 15 0 
O 57 3 0 
O 61 83 0 
O 36 56 0 
O 15 99 0 
O 50 83 0 
O 58 2 0 
O 99 29 0 
O 76 87 0 
O 98 0 0 
O 6 3 0 
O 61 88 0 
O 7 23 0 
O 41 99 0 
O 23 62 0 
O 70 88 0 
O 53 71 0 
O 94 19 0 
O 62 86 0 
O 84 89 0 
O 56 79 0 
O 39 99 0 
O 31 49 0 
O 83 1 0 
O 96 25 0 
O 10 74 0 
O 86 90 0 
O 32 55 0 
O 64 94 0 
O 70 92 0 
O 32 57 0 
O 99 55 0 
O 66 84 0 
O 54 54 0 
O 3 21 0 
O 94 27 0 
O 76 46 0 
O 95 27 0 
O 82 3 0 
O 51 78 0 
O 66 94 0 
O 51 74 0 
O 54 65 0 
O 28 61 0 
O 20 55 0 
O 96 29 0 
O 55 58 0 
O 92 33 0 
O 84 81 0 
O 58 97 0 
O 16 75 0 
O 63 70 0 
O 43 92 0 
O 69 87 0 
O 33 2 0 
O 74 61 0 
O 4 21 0 
O 8 98 0 
O 38 57 0 
O 54 4 0 
O 58 88 0 
O 75 92 0 
O 43 86 0 
O 29 24 0 
O 37 47 0 
O 58 81 0 
O 7 82 0 
O 94 60 0 
O 59 80 0 
O 30 47 0 
O 68 3 0 
O 2 13 0 
O 29 1 0 
O 44 68 0 
O 27 60 0 
O 66 81 0 
O 98 99 0 
O 89 95 0 
O 57 88 0 
O 99 32 0 
O 63 86 0 
O 73 98 0 
O 2 22 0 
O 99 83 0 
O 40 57 0 
O 65 82 0 
O 6 0 0 
O 23 65 0 
O 98 19 0 
O 82 0 0 
O 80 5 0 
O 99 22 0 
O 27 16 0 
O 16 77 0 
O 34 58 0 
O 35 3 0 
O 51 85 0 
O 66 46 0 
O 32 8 0 
O 0 88 0 
O 85 0 0 
O 61 60 0 
O 24 60 0 
O 34 49 0 
O 43 73 0 
O 80 75 0 
O 50 89 0 
O 26 58 0 
657
Atoms. Timestep: 19
N 14 26 0 
N 72 63 0 
N 94 59 0 
N 8 21 0 
N 7 21 0 
N 24 22 0 
N 3 20 0 
N 16 99 0 
N 2 13 0 
N 18 53 0 
N 68 38 0 
N 27 81 0 
N 34 30 0 
N 88 36 0 
N 48 75 0 
N 30 39 0 
N 22 65 0 
N 66 45 0 
N 26 70 0 
N 43 81 0 
N 95 12 0 
N 96 32 0 
N 24 17 0 
N 90 23 0 
N 24 19 0 
N 22 75 0 
N 30 26 0 
N 3 32 0 
N 35 54 0 
N 73 63 0 
N 1 53 0 
N 18 58 0 
N 85 29 0 
N 50 13 0 
N 38 43 0 
N 99 88 0 
N 69 41 0 
N 68 5 0 
N 2 39 0 
N 85 62 0 
N 51 54 0 
N 43 30 0 
N 43 84 0 
N 68 49 0 
N 43 92 0 
N 26 9 0 
N 79 86 0 
N 18 96 0 
N 36 94 0 
N 97 60 0 
N 35 5 0 
N 64 88 0 
N 10 81 0 
N 66 51 0 
N 94 51 0 
N 2 59 0 
N 49 54 0 
N 7 8 0 
N 94 20 0 
N 41 61 0 
N 83 37 0 
N 2 41 0 
N 38 36 0 
N 57 78 0 
N 17 62 0 
N 97 16 0 
N 30 91 0 
N 85 83 0 
N 30 44 0 
N 78 60 0 
N 72 83 0 
N 21 73 0 
N 57 79 0 
N 71 60 0 
N 83 30 0 
N 9 44 0 
N 21 88 0 
N 1 84 0 
N 40 1 0 
N 90 47 0 
N 38 30 0 
N 5 46 0 
N 75 64 0 
N 76 30 0 
N 4 83 0 
N 11 24 0 
N 50 80 0 
N 42 26 0 
N 24 96 0 
N 13 33 0 
N 50 19 0 
N 94 82 0 
N 70 18 0 
N 8 45 0 
N 85 1 0 
N 73 62 0 
N 45 7 0 
N 76 9 0 
N 7 82 0 
N 1 32 0 
N 59 2 0 
N 60 16 0 
N 6 27 0 
N 40 83 0 
N 18 78 0 
N 39 45 0 
N 41 69 0 
N 84 36 0 
N 20 53 0 
N 77 9 0 
N 2 61 0 
N 59 60 0 
N 84 31 0 
N 25 23 0 
N 47 95 0 
N 81 30 0 
N 88 83 0 
N 61 88 0 
N 69 61 0 
N 84 19 0 
N 44 64 0 
N 19 47 0 
N 67 40 0 
N 16 59 0 
N 91 51 0 
N 7 28 0 
N 89 50 0 
N 22 8 0 
N 19 59 0 
N 64 70 0 
N 53 44 0 
N 32 86 0 
N 76 5 0 
N 73 78 0 
N 84 27 0 
N 70 43 0 
N 89 41 0 
N 18 50 0 
N 50 83 0 
N 71 97 0 
N 33 68 0 
N 63 68 0 
N 35 4 0 
N 30 92 0 
N 62 13 0 
N 80 27 0 
N 21 92 0 
N 6 93 0 
N 73 61 0 
N 21 74 0 
N 96 48 0 
N 76 86 0 
N 96 85 0 
N 56 58 0 
N 19 63 0 
N 37 46 0 
N 18 51 0 
N 7 81 0 
N 1 16 0 
N 49 17 0 
N 66 80 0 
N 29 88 0 
N 22 17 0 
N 96 16 0 
N 95 62 0 
N 24 71 0 
N 30 45 0 
N 9 28 0 
N 67 3 0 
N 8 24 0 
N 88 38 0 
N 51 55 0 
N 8 59 0 
N 88 33 0 
N 27 17 0 
N 36 27 0 
N 76 92 0 
N 39 92 0 
N 18 55 0 
N 49 89 0 
N 95 81 0 
N 5 28 0 
N 16 34 0 
N 23 17 0 
N 88 22 0 
N 91 1 0 
N 97 88 0 
N 7 83 0 
N 29 32 0 
N 64 38 0 
N 99 55 0 
N 84 33 0 
N 11 82 0 
N 11 72 0 
N 21 22 0 
N 35 29 0 
N 73 6 0 
N 0 60 0 
N 63 14 0 
N 22 13 0 
N 91 62 0 
N 63 16 0 
N 36 92 0 
N 67 21 0 
N 94 16 0 
N 92 97 0 
N 89 93 0 
N 8 82 0 
N 65 5 0 
N 4 32 0 
N 1 55 0 
N 84 60 0 
N 87 86 0 
N 33 92 0 
N 69 51 0 
N 76 47 0 
N 6 0 0 
N 71 50 0 
N 43 93 0 
N 31 42 0 
N 75 40 0 
N 90 62 0 
N 64 16 0 
N 97 79 0 
N 56 69 0 
N 8 80 0 
N 90 37 0 
N 35 91 0 
N 23 65 0 
N 81 75 0 
N 29 42 0 
N 82 43 0 
N 42 84 0 
N 76 87 0 
N 69 19 0 
N 83 19 0 
N 15 4 0 
N 6 48 0 
N 51 34 0 
N 57 43 0 
N 96 29 0 
N 14 34 0 
N 43 11 0 
N 85 46 0 
N 17 59 0 
N 90 0 0 
N 20 65 0 
N 77 61 0 
N 21 14 0 
N 44 70 0 
N 74 65 0 
N 72 64 0 
N 1 74 0 
N 71 59 0 
N 14 70 0 
N 34 93 0 
N 0 16 0 
N 45 11 0 
N 69 52 0 
N 34 14 0 
N 88 0 0 
N 49 53 0 
N 74 83 0 
N 88 93 0 
N 62 24 0 
N 5 98 0 
N 87 83 0 
N 76 62 0 
N 4 41 0 
N 54 69 0 
N 51 17 0 
N 68 43 0 
N 72 50 0 
N 92 5 0 
N 95 27 0 
N 34 31 0 
N 23 9 0 
N 45 5 0 
N 96 82 0 
N 96 17 0 
N 68 18 0 
N 76 94 0 
N 7 98 0 
N 68 48 0 
N 21 89 0 
N 77 8 0 
N 17 4 0 
N 51 16 0 
N 30 40 0 
N 24 77 0 
N 39 32 0 
N 19 62 0 
N 99 52 0 
N 44 86 0 
N 70 20 0 
N 1 99 0 
N 70 61 0 
N 52 78 0 
N 30 60 0 
N 87 0 0 
N 36 28 0 
N 66 77 0 
N 58 95 0 
N 93 58 0 
N 9 83 0 
N 44 6 0 
N 7 43 0 
N 16 85 0 
N 53 4 0 
N 55 98 0 
N 41 68 0 
N 62 15 0 
N 40 29 0 
N 94 14 0 
N 19 55 0 
N 26 77 0 
N 66 16 0 
N 41 44 0 
N 5 4 0 
N 85 80 0 
N 94 30 0 
N 52 31 0 
N 55 68 0 
N 22 59 0 
N 40 93 0 
N 95 52 0 
N 30 68 0 
N 43 35 0 
N 48 30 0 
N 37 29 0 
N 68 23 0 
N 41 86 0 
N 73 97 0 
N 43 85 0 
N 30 8 0 
N 73 3 0 
N 22 89 0 
N 51 32 0 
N 11 74 0 
N 75 87 0 
N 98 51 0 
N 19 91 0 
N 44 62 0 
N 14 29 0 
N 70 64 0 
N 39 33 0 
N 98 55 0 
N 54 55 0 
N 29 44 0 
N 8 20 0 
N 40 59 0 
N 68 22 0 
N 74 67 0 
N 47 76 0 
N 60 5 0 
N 89 40 0 
N 1 39 0 
N 67 46 0 
N 33 87 0 
N 82 36 0 
N 41 98 0 
N 70 63 0 
N 76 88 0 
N 40 47 0 
N 73 43 0 
N 5 3 0 
N 16 3 0 
N 63 80 0 
N 5 26 0 
N 16 53 0 
N 0 87 0 
N 86 79 0 
N 29 25 0 
N 67 38 0 
N 44 69 0 
N 71 61 0 
N 28 51 0 
N 55 20 0 
N 19 43 0 
N 60 95 0 
N 89 43 0 
N 55 97 0 
N 38 60 0 
N 35 32 0 
N 48 49 0 
N 62 18 0 
N 20 11 0 
N 86 76 0 
N 40 34 0 
N 16 6 0 
N 32 7 0 
N 75 5 0 
N 42 45 0 
N 45 47 0 
N 8 30 0 
N 72 82 0 
N 34 32 0 
N 86 82 0 
N 2 48 0 
N 57 6 0 
N 82 29 0 
N 6 25 0 
N 85 78 0 
N 43 60 0 
N 59 5 0 
N 49 16 0 
N 57 76 0 
N 91 73 0 
N 26 17 0 
N 38 56 0 
N 76 61 0 
N 86 47 0 
N 82 35 0 
N 93 59 0 
N 73 80 0 
N 33 86 0 
N 90 41 0 
N 63 21 0 
N 36 30 0 
N 14 68 0 
N 4 45 0 
N 20 59 0 
N 31 50 0 
N 65 50 0 
N 47 14 0 
N 82 27 0 
N 84 61 0 
N 59 95 0 
N 68 21 0 
N 88 39 0 
N 66 27 0 
N 34 92 0 
N 19 61 0 
N 48 16 0 
N 6 29 0 
N 53 45 0 
N 7 42 0 
N 0 20 0 
N 37 48 0 
N 94 78 0 
N 36 93 0 
N 88 35 0 
N 92 11 0 
N 6 39 0 
N 64 18 0 
N 34 8 0 
N 36 91 0 
N 57 55 0 
N 75 8 0 
N 71 40 0 
N 37 32 0 
N 64 87 0 
N 21 32 0 
N 20 52 0 
N 84 18 0 
N 7 20 0 
N 60 60 0 
N 86 0 0 
N 21 7 0 
N 28 17 0 
N 84 30 0 
N 1 88 0 
N 20 54 0 
N 63 69 0 
N 39 47 0 
N 3 88 0 
N 95 88 0 
N 61 20 0 
N 21 67 0 
N 67 96 0 
N 95 51 0 
N 53 46 0 
N 30 66 0 
N 20 51 0 
N 74 7 0 
N 69 64 0 
N 96 77 0 
N 74 58 0 
N 33 8 0 
N 67 43 0 
N 29 51 0 
N 56 78 0 
N 2 55 0 
N 79 61 0 
N 50 68 0 
N 2 83 0 
N 32 56 0 
N 88 51 0 
N 24 14 0 
N 67 49 0 
N 40 27 0 
N 97 15 0 
N 66 41 0 
N 16 30 0 
N 8 66 0 
N 69 6 0 
N 56 97 0 
N 16 58 0 
N 95 11 0 
N 72 78 0 
C 0 0 0 
C 25 0 0 
C 50 0 0 
C 75 0 0 
C 100 0 0 
C 0 25 0 
C 25 25 0 
C 50 25 0 
C 75 25 0 
C 100 25 0 
C 0 50 0 
C 25 50 0 
C 50 50 0 
C 75 50 0 
C 100 50 0 
C 0 75 0 
C 25 75 0 
C 50 75 0 
C 75 75 0 
C 100 75 0 
C 0 100 0 
C 25 100 0 
C 50 100 0 
C 75 100 0 
C 100 100 0 
O 7 26 0 
O 20 95 0 
O 56 85 0 
O 67 94 0 
O 22 57 0 
O 88 62 0 
O 73 53 0 
O 97 33 0 
O 58 1 0 
O 71 82 0 
O 63 99 0 
O 64 85 0 
O 46 75 0 
O 62 87 0 
O 51 14 0 
O 37 67 0 
O 29 61 0 
O 34 55 0 
O 99 50 0 
O 43 7 0 
O 50 70 0 
O 45 99 0 
O 4 99 0 
O 89 92 0 
O 70 83 0 
O 59 86 0 
O 86 84 0 
O 89 36 0 
O 44 0 0 
O 95 31 0 
O 47 74 0 
O 26 13 0 
O 59 55 0 
O 92 98 0 
O 55 70 0 
O 0 14 0 
O 57 4 0 
O 60 83 0 
O 36 57 0 
O 15 98 0 
O 57 2 0 
O 99 28 0 
O 98 99 0 
O 6 4 0 
O 7 24 0 
O 40 99 0 
O 22 62 0 
O 70 89 0 
O 53 70 0 
O 93 19 0 
O 61 86 0 
O 84 90 0 
O 56 80 0 
O 39 98 0 
O 32 49 0 
O 84 1 0 
O 95 25 0 
O 9 74 0 
O 86 89 0 
O 33 55 0 
O 65 94 0 
O 71 92 0 
O 33 57 0 
O 66 85 0 
O 53 54 0 
O 4 21 0 
O 94 28 0 
O 77 46 0 
O 82 2 0 
O 51 79 0 
O 66 95 0 
O 51 75 0 
O 54 64 0 
O 28 62 0 
O 20 56 0 
O 55 59 0 
O 93 33 0 
O 85 81 0 
O 58 96 0 
O 16 74 0 
O 62 70 0 
O 69 88 0 
O 33 1 0 
O 74 60 0 
O 5 21 0 
O 8 99 0 
O 37 57 0 
O 55 4 0 
O 59 88 0 
O 74 92 0 
O 42 86 0 
O 30 24 0 
O 36 47 0 
O 58 82 0 
O 93 60 0 
O 59 81 0 
O 30 46 0 
O 68 2 0 
O 30 1 0 
O 45 68 0 
O 28 60 0 
O 67 81 0 
O 99 99 0 
O 88 95 0 
O 56 88 0 
O 98 32 0 
O 63 86 0 
O 72 98 0 
O 2 23 0 
O 99 84 0 
O 40 58 0 
O 65 81 0 
O 99 19 0 
O 82 99 0 
O 80 4 0 
O 99 23 0 
O 28 16 0 
O 17 77 0 
O 34 57 0 
O 36 3 0 
O 51 86 0 
O 66 47 0 
O 31 8 0 
O 0 89 0 
O 85 99 0 
O 61 61 0 
O 24 59 0 
O 35 49 0 
O 42 73 0 
O 80 74 0 
O 51 89 0 
O 26 57 0 
642
Atoms. Timestep: 20
N 13 26 0 
N 72 62 0 
N 94 60 0 
N 7 21 0 
N 6 21 0 
N 24 23 0 
N 3 21 0 
N 16 98 0 
N 1 13 0 
N 18 54 0 
N 68 39 0 
N 26 81 0 
N 33 30 0 
N 89 36 0 
N 48 75 0 
N 30 40 0 
N 22 64 0 
N 66 45 0 
N 27 70 0 
N 43 80 0 
N 95 13 0 
N 96 33 0 
N 24 16 0 
N 91 23 0 
N 25 19 0 
N 22 74 0 
N 30 26 0 
N 4 32 0 
N 34 54 0 
N 74 63 0 
N 2 53 0 
N 18 57 0 
N 86 29 0 
N 51 13 0 
N 37 43 0 
N 98 88 0 
N 69 42 0 
N 68 4 0 
N 3 39 0 
N 86 62 0 
N 52 54 0 
N 43 29 0 
N 43 83 0 
N 68 48 0 
N 44 92 0 
N 26 10 0 
N 79 85 0 
N 19 96 0 
N 37 94 0 
N 97 61 0 
N 36 5 0 
N 64 87 0 
N 10 80 0 
N 66 50 0 
N 94 50 0 
N 2 58 0 
N 50 54 0 
N 8 8 0 
N 94 19 0 
N 41 60 0 
N 84 37 0 
N 3 41 0 
N 37 36 0 
N 57 79 0 
N 18 62 0 
N 97 15 0 
N 30 90 0 
N 85 84 0 
N 30 45 0 
N 78 61 0 
N 71 83 0 
N 21 74 0 
N 57 80 0 
N 72 60 0 
N 83 31 0 
N 10 44 0 
N 20 88 0 
N 2 84 0 
N 40 2 0 
N 91 47 0 
N 38 29 0 
N 6 46 0 
N 75 63 0 
N 76 31 0 
N 5 83 0 
N 11 25 0 
N 51 80 0 
N 41 26 0 
N 24 95 0 
N 12 33 0 
N 51 19 0 
N 95 82 0 
N 70 17 0 
N 9 45 0 
N 84 1 0 
N 73 61 0 
N 44 7 0 
N 77 9 0 
N 7 81 0 
N 2 32 0 
N 58 2 0 
N 60 15 0 
N 6 27 0 
N 41 83 0 
N 18 77 0 
N 38 45 0 
N 42 69 0 
N 85 36 0 
N 20 54 0 
N 77 8 0 
N 2 60 0 
N 60 60 0 
N 84 32 0 
N 25 24 0 
N 47 96 0 
N 82 30 0 
N 88 84 0 
N 62 88 0 
N 70 61 0 
N 85 19 0 
N 44 65 0 
N 20 47 0 
N 66 40 0 
N 17 59 0 
N 91 50 0 
N 7 27 0 
N 90 50 0 
N 22 9 0 
N 19 58 0 
N 64 69 0 
N 53 45 0 
N 32 85 0 
N 76 4 0 
N 73 79 0 
N 85 27 0 
N 69 43 0 
N 90 41 0 
N 18 51 0 
N 50 84 0 
N 71 98 0 
N 33 67 0 
N 62 68 0 
N 35 3 0 
N 30 92 0 
N 61 13 0 
N 80 28 0 
N 20 92 0 
N 5 93 0 
N 73 60 0 
N 20 74 0 
N 97 48 0 
N 76 87 0 
N 97 85 0 
N 56 59 0 
N 19 62 0 
N 36 46 0 
N 18 52 0 
N 7 80 0 
N 1 15 0 
N 49 16 0 
N 67 80 0 
N 30 88 0 
N 23 17 0 
N 95 16 0 
N 94 62 0 
N 23 71 0 
N 30 46 0 
N 8 28 0 
N 67 2 0 
N 7 24 0 
N 88 39 0 
N 52 55 0 
N 9 59 0 
N 89 33 0 
N 27 16 0 
N 35 27 0 
N 75 92 0 
N 39 93 0 
N 18 56 0 
N 50 89 0 
N 96 81 0 
N 6 28 0 
N 15 34 0 
N 23 16 0 
N 88 21 0 
N 90 1 0 
N 97 89 0 
N 8 83 0 
N 30 32 0 
N 65 38 0 
N 99 54 0 
N 84 34 0 
N 11 81 0 
N 10 72 0 
N 22 22 0 
N 34 29 0 
N 72 6 0 
N 1 60 0 
N 62 14 0 
N 23 13 0 
N 90 62 0 
N 62 16 0 
N 36 93 0 
N 67 20 0 
N 93 16 0 
N 92 98 0 
N 89 92 0 
N 8 81 0 
N 66 5 0 
N 5 32 0 
N 1 54 0 
N 84 61 0 
N 87 85 0 
N 33 91 0 
N 70 51 0 
N 77 47 0 
N 6 1 0 
N 72 50 0 
N 44 93 0 
N 31 43 0 
N 75 41 0 
N 89 62 0 
N 64 15 0 
N 98 79 0 
N 56 70 0 
N 9 80 0 
N 89 37 0 
N 35 92 0 
N 23 64 0 
N 80 75 0 
N 30 42 0 
N 82 44 0 
N 41 84 0 
N 76 88 0 
N 69 18 0 
N 83 19 0 
N 15 5 0 
N 7 48 0 
N 51 33 0 
N 58 43 0 
N 96 30 0 
N 13 34 0 
N 43 10 0 
N 84 46 0 
N 17 58 0 
N 91 0 0 
N 20 64 0 
N 77 60 0 
N 21 13 0 
N 44 69 0 
N 74 64 0 
N 73 64 0 
N 2 74 0 
N 72 59 0 
N 15 70 0 
N 33 93 0 
N 0 15 0 
N 45 10 0 
N 69 53 0 
N 34 13 0 
N 88 1 0 
N 50 53 0 
N 73 83 0 
N 88 92 0 
N 61 24 0 
N 5 99 0 
N 87 84 0 
N 76 61 0 
N 5 41 0 
N 54 70 0 
N 51 16 0 
N 68 42 0 
N 72 51 0 
N 92 6 0 
N 95 26 0 
N 33 31 0 
N 23 10 0 
N 45 6 0 
N 97 82 0 
N 96 18 0 
N 68 17 0 
N 76 95 0 
N 8 98 0 
N 67 48 0 
N 20 89 0 
N 78 8 0 
N 17 3 0 
N 51 15 0 
N 30 41 0 
N 23 77 0 
N 38 32 0 
N 20 62 0 
N 99 51 0 
N 44 87 0 
N 69 20 0 
N 2 99 0 
N 70 60 0 
N 52 79 0 
N 29 60 0 
N 86 0 0 
N 35 28 0 
N 66 78 0 
N 58 96 0 
N 93 59 0 
N 9 82 0 
N 43 6 0 
N 8 43 0 
N 17 85 0 
N 54 4 0 
N 56 98 0 
N 42 68 0 
N 61 15 0 
N 40 28 0 
N 93 14 0 
N 19 56 0 
N 25 77 0 
N 66 15 0 
N 41 45 0 
N 6 4 0 
N 85 81 0 
N 94 31 0 
N 52 30 0 
N 55 69 0 
N 22 58 0 
N 40 94 0 
N 96 52 0 
N 31 68 0 
N 43 36 0 
N 49 30 0 
N 36 29 0 
N 68 22 0 
N 42 86 0 
N 72 97 0 
N 42 85 0 
N 31 8 0 
N 73 2 0 
N 22 90 0 
N 51 31 0 
N 10 74 0 
N 74 87 0 
N 98 52 0 
N 20 91 0 
N 45 62 0 
N 14 28 0 
N 71 64 0 
N 38 33 0 
N 98 54 0 
N 53 55 0 
N 29 45 0 
N 7 20 0 
N 40 58 0 
N 68 21 0 
N 74 66 0 
N 47 75 0 
N 60 4 0 
N 89 40 0 
N 1 38 0 
N 66 46 0 
N 33 86 0 
N 83 36 0 
N 40 98 0 
N 70 62 0 
N 75 88 0 
N 39 47 0 
N 74 43 0 
N 6 3 0 
N 15 3 0 
N 64 80 0 
N 6 26 0 
N 17 53 0 
N 0 87 0 
N 86 80 0 
N 30 25 0 
N 67 39 0 
N 45 69 0 
N 72 61 0 
N 29 51 0 
N 55 19 0 
N 19 44 0 
N 60 96 0 
N 89 42 0 
N 56 97 0 
N 38 59 0 
N 35 31 0 
N 48 50 0 
N 61 18 0 
N 21 11 0 
N 85 76 0 
N 39 34 0 
N 15 6 0 
N 31 7 0 
N 75 4 0 
N 42 46 0 
N 44 47 0 
N 8 29 0 
N 71 82 0 
N 33 32 0 
N 86 83 0 
N 3 48 0 
N 57 5 0 
N 82 28 0 
N 7 25 0 
N 85 79 0 
N 42 60 0 
N 59 4 0 
N 50 16 0 
N 57 77 0 
N 91 74 0 
N 26 16 0 
N 38 57 0 
N 76 60 0 
N 86 46 0 
N 83 35 0 
N 93 60 0 
N 72 80 0 
N 34 86 0 
N 90 40 0 
N 62 21 0 
N 35 30 0 
N 15 68 0 
N 4 46 0 
N 20 58 0 
N 31 49 0 
N 65 49 0 
N 48 14 0 
N 83 27 0 
N 85 61 0 
N 59 96 0 
N 68 20 0 
N 89 39 0 
N 66 28 0 
N 34 91 0 
N 20 61 0 
N 48 15 0 
N 7 29 0 
N 53 46 0 
N 7 41 0 
N 1 20 0 
N 37 47 0 
N 95 78 0 
N 37 93 0 
N 89 35 0 
N 93 11 0 
N 7 39 0 
N 63 18 0 
N 33 8 0 
N 37 91 0 
N 57 54 0 
N 75 7 0 
N 72 40 0 
N 36 32 0 
N 64 86 0 
N 21 31 0 
N 20 52 0 
N 85 18 0 
N 6 20 0 
N 61 60 0 
N 86 1 0 
N 21 8 0 
N 28 16 0 
N 85 30 0 
N 0 88 0 
N 20 55 0 
N 63 70 0 
N 38 47 0 
N 2 88 0 
N 95 89 0 
N 60 20 0 
N 21 66 0 
N 67 95 0 
N 95 50 0 
N 53 47 0 
N 30 65 0 
N 20 51 0 
N 74 6 0 
N 69 63 0 
N 96 78 0 
N 74 59 0 
N 32 8 0 
N 66 43 0 
N 29 50 0 
N 56 79 0 
N 3 55 0 
N 79 60 0 
N 50 69 0 
N 3 83 0 
N 33 56 0 
N 88 52 0 
N 24 13 0 
N 66 49 0 
N 39 27 0 
N 96 15 0 
N 66 42 0 
N 15 30 0 
N 9 66 0 
N 68 6 0 
N 56 96 0 
N 16 57 0 
N 94 11 0 
N 71 78 0 
C 0 0 0 
C 25 0 0 
C 50 0 0 
C 75 0 0 
C 100 0 0 
C 0 25 0 
C 25 25 0 
C 50 25 0 
C 75 25 0 
C 100 25 0 
C 0 50 0 
C 25 50 0 
C 50 50 0 
C 75 50 0 
C 100 50 0 
C 0 75 0 
C 25 75 0 
C 50 75 0 
C 75 75 0 
C 100 75 0 
C 0 100 0 
C 25 100 0 
C 50 100 0 
C 75 100 0 
C 100 100 0 
O 8 26 0 
O 20 96 0 
O 57 85 0 
O 67 93 0 
O 23 57 0 
O 88 63 0 
O 73 54 0 
O 97 32 0 
O 58 0 0 
O 64 99 0 
O 65 85 0 
O 45 75 0 
O 61 87 0 
O 50 14 0 
O 37 66 0 
O 29 62 0 
O 35 55 0 
O 99 49 0 
O 42 7 0 
O 51 70 0 
O 45 0 0 
O 4 98 0 
O 69 83 0 
O 59 85 0 
O 86 85 0 
O 44 99 0 
O 95 32 0 
O 47 73 0 
O 26 14 0 
O 59 56 0 
O 55 71 0 
O 99 14 0 
O 58 4 0 
O 60 84 0 
O 35 57 0 
O 15 97 0 
O 57 1 0 
O 99 27 0 
O 98 0 0 
O 40 0 0 
O 23 62 0 
O 69 89 0 
O 53 69 0 
O 93 18 0 
O 60 86 0 
O 83 90 0 
O 55 80 0 
O 39 99 0 
O 32 48 0 
O 94 25 0 
O 8 74 0 
O 86 88 0 
O 32 55 0 
O 65 93 0 
O 71 93 0 
O 33 58 0 
O 67 85 0 
O 54 54 0 
O 4 20 0 
O 94 27 0 
O 77 45 0 
O 82 1 0 
O 51 78 0 
O 66 94 0 
O 51 74 0 
O 54 65 0 
O 28 63 0 
O 20 57 0 
O 55 60 0 
O 92 33 0 
O 17 74 0 
O 62 69 0 
O 70 88 0 
O 34 1 0 
O 74 61 0 
O 5 20 0 
O 8 0 0 
O 37 58 0 
O 55 5 0 
O 60 88 0 
O 74 93 0 
O 29 24 0 
O 36 48 0 
O 57 82 0 
O 59 82 0 
O 68 1 0 
O 29 1 0 
O 46 68 0 
O 28 61 0 
O 68 81 0 
O 99 0 0 
O 89 95 0 
O 56 87 0 
O 98 31 0 
O 63 85 0 
O 72 99 0 
O 1 23 0 
O 98 84 0 
O 66 81 0 
O 99 20 0 
O 83 99 0 
O 80 5 0 
O 99 22 0 
O 17 76 0 
O 34 58 0 
O 36 2 0 
O 50 86 0 
O 67 47 0 
O 1 89 0 
O 85 98 0 
O 60 61 0 
O 24 58 0 
O 34 49 0 
O 41 73 0 
O 80 73 0 
O 51 90 0 
O 26 58 0 
633
Atoms. Timestep: 21
N 12 26 0 
N 73 62 0 
N 94 61 0 
N 6 21 0 
N 5 21 0 
N 25 23 0 
N 4 21 0 
N 16 97 0 
N 1 14 0 
N 19 54 0 
N 68 40 0 
N 26 80 0 
N 32 30 0 
N 89 35 0 
N 47 75 0 
N 31 40 0 
N 22 63 0 
N 67 45 0 
N 28 70 0 
N 44 80 0 
N 95 14 0 
N 97 33 0 
N 25 16 0 
N 92 23 0 
N 25 18 0 
N 21 74 0 
N 29 26 0 
N 5 32 0 
N 35 54 0 
N 74 62 0 
N 3 53 0 
N 18 57 0 
N 87 29 0 
N 50 13 0 
N 37 44 0 
N 98 87 0 
N 70 42 0 
N 68 3 0 
N 3 38 0 
N 87 62 0 
N 53 54 0 
N 43 28 0 
N 43 82 0 
N 68 49 0 
N 44 93 0 
N 26 11 0 
N 79 86 0 
N 20 96 0 
N 38 94 0 
N 96 61 0 
N 36 4 0 
N 65 87 0 
N 10 81 0 
N 67 50 0 
N 95 50 0 
N 3 58 0 
N 51 54 0 
N 8 7 0 
N 94 18 0 
N 41 59 0 
N 85 37 0 
N 3 42 0 
N 36 36 0 
N 56 79 0 
N 18 61 0 
N 97 14 0 
N 30 89 0 
N 85 85 0 
N 31 45 0 
N 78 62 0 
N 70 83 0 
N 20 74 0 
N 57 80 0 
N 72 59 0 
N 83 32 0 
N 11 44 0 
N 20 89 0 
N 3 84 0 
N 40 1 0 
N 91 48 0 
N 37 29 0 
N 6 47 0 
N 75 62 0 
N 76 32 0 
N 6 83 0 
N 12 25 0 
N 51 80 0 
N 41 25 0 
N 24 96 0 
N 11 33 0 
N 50 19 0 
N 95 83 0 
N 69 17 0 
N 10 45 0 
N 83 1 0 
N 74 61 0 
N 43 7 0 
N 78 9 0 
N 8 81 0 
N 3 32 0 
N 58 1 0 
N 59 15 0 
N 6 26 0 
N 41 82 0 
N 17 77 0 
N 37 45 0 
N 42 68 0 
N 86 36 0 
N 20 55 0 
N 77 7 0 
N 2 59 0 
N 60 61 0 
N 84 33 0 
N 26 24 0 
N 46 96 0 
N 83 30 0 
N 88 85 0 
N 62 87 0 
N 71 61 0 
N 85 18 0 
N 45 65 0 
N 21 47 0 
N 66 41 0 
N 18 59 0 
N 92 50 0 
N 7 27 0 
N 90 49 0 
N 22 10 0 
N 20 58 0 
N 64 70 0 
N 54 45 0 
N 33 85 0 
N 76 5 0 
N 73 80 0 
N 86 27 0 
N 70 43 0 
N 91 41 0 
N 19 51 0 
N 50 85 0 
N 71 99 0 
N 33 66 0 
N 62 69 0 
N 35 2 0 
N 29 92 0 
N 60 13 0 
N 81 28 0 
N 20 93 0 
N 5 94 0 
N 73 60 0 
N 19 74 0 
N 98 48 0 
N 75 87 0 
N 97 84 0 
N 55 59 0 
N 20 62 0 
N 36 46 0 
N 19 52 0 
N 7 79 0 
N 2 15 0 
N 50 16 0 
N 67 81 0 
N 29 88 0 
N 23 16 0 
N 95 17 0 
N 93 62 0 
N 24 71 0 
N 31 46 0 
N 8 27 0 
N 68 2 0 
N 7 25 0 
N 89 39 0 
N 53 55 0 
N 9 58 0 
N 90 33 0 
N 27 15 0 
N 34 27 0 
N 75 93 0 
N 39 94 0 
N 19 56 0 
N 50 90 0 
N 96 82 0 
N 6 28 0 
N 14 34 0 
N 23 15 0 
N 89 21 0 
N 90 2 0 
N 96 89 0 
N 8 82 0 
N 29 32 0 
N 65 39 0 
N 99 53 0 
N 85 34 0 
N 11 80 0 
N 11 72 0 
N 22 23 0 
N 33 29 0 
N 72 7 0 
N 1 59 0 
N 62 14 0 
N 24 13 0 
N 90 63 0 
N 61 16 0 
N 37 93 0 
N 67 21 0 
N 94 16 0 
N 92 97 0 
N 89 93 0 
N 8 80 0 
N 67 5 0 
N 6 32 0 
N 1 53 0 
N 85 61 0 
N 86 85 0 
N 33 90 0 
N 70 52 0 
N 77 46 0 
N 7 1 0 
N 73 50 0 
N 44 94 0 
N 31 44 0 
N 76 41 0 
N 89 63 0 
N 64 14 0 
N 98 80 0 
N 56 71 0 
N 9 79 0 
N 90 37 0 
N 34 92 0 
N 23 63 0 
N 80 74 0 
N 30 43 0 
N 82 45 0 
N 41 85 0 
N 75 88 0 
N 68 18 0 
N 83 18 0 
N 15 6 0 
N 6 48 0 
N 51 32 0 
N 58 44 0 
N 96 31 0 
N 12 34 0 
N 42 10 0 
N 83 46 0 
N 18 58 0 
N 92 0 0 
N 21 64 0 
N 76 60 0 
N 21 14 0 
N 44 68 0 
N 74 64 0 
N 72 64 0 
N 3 74 0 
N 71 59 0 
N 16 70 0 
N 34 93 0 
N 0 14 0 
N 45 9 0 
N 69 54 0 
N 34 14 0 
N 87 1 0 
N 51 53 0 
N 72 83 0 
N 88 93 0 
N 61 23 0 
N 4 99 0 
N 87 84 0 
N 75 61 0 
N 5 42 0 
N 54 71 0 
N 51 15 0 
N 68 43 0 
N 72 52 0 
N 92 5 0 
N 94 26 0 
N 32 31 0 
N 24 10 0 
N 44 6 0 
N 97 83 0 
N 95 18 0 
N 68 16 0 
N 76 94 0 
N 7 98 0 
N 67 47 0 
N 20 90 0 
N 78 7 0 
N 17 4 0 
N 51 14 0 
N 31 41 0 
N 23 76 0 
N 38 31 0 
N 21 62 0 
N 99 50 0 
N 45 87 0 
N 69 19 0 
N 2 98 0 
N 71 60 0 
N 51 79 0 
N 29 61 0 
N 85 0 0 
N 34 28 0 
N 66 79 0 
N 58 97 0 
N 92 59 0 
N 9 81 0 
N 42 6 0 
N 9 43 0 
N 17 84 0 
N 54 5 0 
N 57 98 0 
N 43 68 0 
N 61 14 0 
N 40 27 0 
N 93 15 0 
N 19 57 0 
N 25 76 0 
N 67 15 0 
N 40 45 0 
N 7 4 0 
N 85 82 0 
N 94 32 0 
N 52 29 0 
N 55 70 0 
N 22 57 0 
N 40 93 0 
N 96 51 0 
N 32 68 0 
N 42 36 0 
N 49 29 0 
N 35 29 0 
N 68 21 0 
N 43 86 0 
N 72 98 0 
N 43 85 0 
N 31 7 0 
N 73 3 0 
N 22 91 0 
N 50 31 0 
N 9 74 0 
N 73 87 0 
N 99 52 0 
N 20 91 0 
N 45 63 0 
N 13 28 0 
N 71 63 0 
N 37 33 0 
N 98 53 0 
N 54 55 0 
N 29 46 0 
N 6 20 0 
N 39 58 0 
N 68 20 0 
N 74 65 0 
N 46 75 0 
N 59 4 0 
N 90 40 0 
N 2 38 0 
N 67 46 0 
N 34 86 0 
N 83 35 0 
N 40 97 0 
N 71 62 0 
N 74 88 0 
N 39 48 0 
N 75 43 0 
N 5 3 0 
N 15 4 0 
N 65 80 0 
N 7 26 0 
N 17 54 0 
N 1 87 0 
N 86 81 0 
N 30 24 0 
N 67 40 0 
N 45 68 0 
N 72 61 0 
N 29 50 0 
N 55 18 0 
N 20 44 0 
N 59 96 0 
N 90 42 0 
N 56 96 0 
N 37 59 0 
N 35 30 0 
N 49 50 0 
N 60 18 0 
N 21 12 0 
N 85 75 0 
N 38 34 0 
N 15 7 0 
N 31 6 0 
N 75 5 0 
N 41 46 0 
N 44 48 0 
N 8 29 0 
N 70 82 0 
N 32 32 0 
N 86 84 0 
N 4 48 0 
N 56 5 0 
N 83 28 0 
N 8 25 0 
N 85 80 0 
N 42 59 0 
N 58 4 0 
N 50 15 0 
N 57 78 0 
N 91 73 0 
N 26 15 0 
N 37 57 0 
N 76 59 0 
N 85 46 0 
N 83 34 0 
N 93 61 0 
N 71 80 0 
N 34 85 0 
N 91 40 0 
N 61 21 0 
N 34 30 0 
N 15 69 0 
N 4 47 0 
N 20 57 0 
N 32 49 0 
N 66 49 0 
N 49 14 0 
N 82 27 0 
N 85 62 0 
N 59 95 0 
N 68 19 0 
N 90 39 0 
N 67 28 0 
N 34 90 0 
N 21 61 0 
N 49 15 0 
N 7 28 0 
N 53 47 0 
N 7 40 0 
N 2 20 0 
N 36 47 0 
N 96 78 0 
N 38 93 0 
N 90 35 0 
N 93 12 0 
N 8 39 0 
N 62 18 0 
N 33 7 0 
N 38 91 0 
N 56 54 0 
N 75 6 0 
N 73 40 0 
N 35 32 0 
N 65 86 0 
N 21 30 0 
N 20 53 0 
N 86 18 0 
N 5 20 0 
N 61 61 0 
N 85 1 0 
N 22 8 0 
N 28 15 0 
N 86 30 0 
N 1 88 0 
N 20 56 0 
N 62 70 0 
N 38 48 0 
N 2 89 0 
N 94 89 0 
N 60 19 0 
N 21 65 0 
N 67 94 0 
N 96 50 0 
N 54 47 0 
N 30 64 0 
N 20 51 0 
N 74 5 0 
N 69 62 0 
N 96 79 0 
N 74 60 0 
N 32 7 0 
N 66 44 0 
N 29 49 0 
N 56 80 0 
N 2 55 0 
N 79 61 0 
N 50 70 0 
N 4 83 0 
N 33 55 0 
N 88 53 0 
N 25 13 0 
N 67 49 0 
N 39 26 0 
N 96 14 0 
N 67 42 0 
N 14 30 0 
N 9 67 0 
N 68 5 0 
N 57 96 0 
N 17 57 0 
N 94 12 0 
N 71 79 0 
C 0 0 0 
C 25 0 0 
C 50 0 0 
C 75 0 0 
C 100 0 0 
C 0 25 0 
C 25 25 0 
C 50 25 0 
C 75 25 0 
C 100 25 0 
C 0 50 0 
C 25 50 0 
C 50 50 0 
C 75 50 0 
C 100 50 0 
C 0 75 0 
C 25 75 0 
C 50 75 0 
C 75 75 0 
C 100 75 0 
C 0 100 0 
C 25 100 0 
C 50 100 0 
C 75 100 0 
C 100 100 0 
O 9 26 0 
O 56 85 0 
O 67 92 0 
O 24 57 0 
O 88 64 0 
O 73 53 0 
O 97 31 0 
O 59 0 0 
O 64 0 0 
O 65 84 0 
O 45 76 0 
O 61 88 0 
O 50 14 0 
O 37 65 0 
O 30 62 0 
O 34 55 0 
O 98 49 0 
O 42 8 0 
O 51 69 0 
O 44 0 0 
O 3 98 0 
O 68 83 0 
O 59 84 0 
O 43 99 0 
O 96 32 0 
O 47 72 0 
O 26 13 0 
O 58 56 0 
O 55 72 0 
O 98 14 0 
O 61 84 0 
O 35 56 0 
O 14 97 0 
O 57 0 0 
O 99 26 0 
O 98 1 0 
O 40 99 0 
O 24 62 0 
O 69 88 0 
O 53 70 0 
O 93 19 0 
O 60 85 0 
O 82 90 0 
O 55 81 0 
O 39 0 0 
O 31 48 0 
O 93 25 0 
O 8 73 0 
O 87 88 0 
O 31 55 0 
O 66 93 0 
O 70 93 0 
O 34 58 0 
O 68 85 0 
O 55 54 0 
O 3 20 0 
O 94 28 0 
O 78 45 0 
O 82 2 0 
O 52 78 0 
O 66 95 0 
O 52 74 0 
O 54 64 0 
O 27 63 0 
O 54 60 0 
O 92 34 0 
O 17 75 0 
O 70 87 0 
O 33 1 0 
O 9 0 0 
O 38 58 0 
O 55 6 0 
O 60 87 0 
O 73 93 0 
O 28 24 0 
O 35 48 0 
O 57 81 0 
O 58 82 0 
O 68 0 0 
O 30 1 0 
O 46 67 0 
O 28 62 0 
O 69 81 0 
O 99 1 0 
O 90 95 0 
O 56 86 0 
O 99 31 0 
O 62 85 0 
O 72 0 0 
O 1 22 0 
O 98 85 0 
O 65 81 0 
O 99 21 0 
O 83 98 0 
O 80 4 0 
O 98 22 0 
O 16 76 0 
O 34 57 0 
O 36 1 0 
O 50 87 0 
O 1 90 0 
O 86 98 0 
O 23 58 0 
O 35 49 0 
O 42 73 0 
O 79 73 0 
O 52 90 0 
O 27 58 0 
621
Atoms. Timestep: 22
N 11 26 0 
N 73 62 0 
N 94 62 0 
N 5 21 0 
N 4 21 0 
N 25 24 0 
N 4 22 0 
N 15 97 0 
N 1 15 0 
N 20 54 0 
N 68 41 0 
N 26 79 0 
N 31 30 0 
N 90 35 0 
N 47 76 0 
N 31 41 0 
N 23 63 0 
N 68 45 0 
N 27 70 0 
N 44 79 0 
N 94 14 0 
N 96 33 0 
N 25 17 0 
N 92 24 0 
N 25 19 0 
N 21 75 0 
N 29 25 0 
N 6 32 0 
N 35 55 0 
N 74 61 0 
N 3 54 0 
N 19 57 0 
N 87 28 0 
N 51 13 0 
N 37 45 0 
N 98 86 0 
N 71 42 0 
N 68 2 0 
N 4 38 0 
N 87 63 0 
N 54 54 0 
N 43 27 0 
N 44 82 0 
N 69 49 0 
N 44 92 0 
N 26 10 0 
N 79 87 0 
N 20 97 0 
N 39 94 0 
N 96 62 0 
N 36 3 0 
N 66 87 0 
N 10 80 0 
N 67 51 0 
N 96 50 0 
N 4 58 0 
N 52 54 0 
N 9 7 0 
N 94 19 0 
N 41 58 0 
N 86 37 0 
N 4 42 0 
N 35 36 0 
N 56 80 0 
N 18 62 0 
N 98 14 0 
N 30 89 0 
N 86 85 0 
N 31 46 0 
N 78 63 0 
N 69 83 0 
N 19 74 0 
N 57 81 0 
N 72 58 0 
N 83 33 0 
N 11 43 0 
N 19 89 0 
N 3 85 0 
N 40 2 0 
N 91 47 0 
N 36 29 0 
N 7 47 0 
N 75 62 0 
N 76 33 0 
N 7 83 0 
N 13 25 0 
N 52 80 0 
N 41 24 0 
N 23 96 0 
N 10 33 0 
N 50 18 0 
N 95 84 0 
N 69 16 0 
N 10 44 0 
N 82 1 0 
N 75 61 0 
N 43 8 0 
N 79 9 0 
N 8 81 0 
N 3 31 0 
N 58 0 0 
N 59 14 0 
N 6 26 0 
N 42 82 0 
N 17 76 0 
N 36 45 0 
N 42 67 0 
N 87 36 0 
N 21 55 0 
N 78 7 0 
N 3 59 0 
N 60 60 0 
N 85 33 0 
N 27 24 0 
N 46 95 0 
N 83 29 0 
N 88 86 0 
N 61 87 0 
N 72 61 0 
N 85 19 0 
N 45 66 0 
N 22 47 0 
N 66 42 0 
N 18 58 0 
N 92 49 0 
N 7 26 0 
N 90 48 0 
N 22 9 0 
N 21 58 0 
N 63 70 0 
N 54 46 0 
N 33 84 0 
N 76 4 0 
N 73 81 0 
N 86 26 0 
N 70 44 0 
N 92 41 0 
N 19 52 0 
N 50 86 0 
N 71 98 0 
N 33 65 0 
N 62 70 0 
N 35 1 0 
N 29 91 0 
N 59 13 0 
N 82 28 0 
N 19 93 0 
N 4 94 0 
N 73 59 0 
N 18 74 0 
N 98 49 0 
N 74 87 0 
N 98 84 0 
N 54 59 0 
N 21 62 0 
N 36 47 0 
N 19 53 0 
N 7 78 0 
N 2 14 0 
N 51 16 0 
N 68 81 0 
N 30 88 0 
N 24 16 0 
N 96 17 0 
N 93 63 0 
N 24 70 0 
N 31 47 0 
N 9 27 0 
N 68 1 0 
N 8 25 0 
N 89 38 0 
N 54 55 0 
N 10 58 0 
N 91 33 0 
N 28 15 0 
N 34 26 0 
N 74 93 0 
N 39 95 0 
N 20 56 0 
N 51 90 0 
N 96 83 0 
N 7 28 0 
N 13 34 0 
N 24 15 0 
N 89 20 0 
N 90 3 0 
N 97 89 0 
N 8 82 0 
N 28 32 0 
N 66 39 0 
N 98 53 0 
N 86 34 0 
N 12 80 0 
N 11 73 0 
N 22 24 0 
N 32 29 0 
N 72 6 0 
N 1 60 0 
N 61 14 0 
N 25 13 0 
N 89 63 0 
N 61 15 0 
N 37 94 0 
N 67 20 0 
N 94 17 0 
N 92 96 0 
N 90 93 0 
N 8 80 0 
N 68 5 0 
N 6 33 0 
N 2 53 0 
N 85 62 0 
N 86 86 0 
N 33 89 0 
N 71 52 0 
N 78 46 0 
N 8 1 0 
N 73 51 0 
N 44 94 0 
N 31 44 0 
N 76 42 0 
N 89 64 0 
N 64 13 0 
N 98 81 0 
N 56 72 0 
N 8 79 0 
N 90 36 0 
N 34 91 0 
N 23 62 0 
N 80 73 0 
N 31 43 0 
N 81 45 0 
N 41 86 0 
N 74 88 0 
N 68 17 0 
N 83 19 0 
N 16 6 0 
N 6 49 0 
N 51 31 0 
N 57 44 0 
N 97 31 0 
N 12 33 0 
N 42 9 0 
N 83 45 0 
N 19 58 0 
N 92 1 0 
N 22 64 0 
N 76 59 0 
N 22 14 0 
N 45 68 0 
N 74 63 0 
N 73 64 0 
N 4 74 0 
N 71 60 0 
N 16 71 0 
N 33 93 0 
N 0 14 0 
N 45 8 0 
N 70 54 0 
N 34 13 0 
N 87 2 0 
N 52 53 0 
N 71 83 0 
N 88 94 0 
N 61 22 0 
N 5 99 0 
N 87 85 0 
N 75 60 0 
N 6 42 0 
N 54 72 0 
N 52 15 0 
N 68 44 0 
N 72 53 0 
N 92 4 0 
N 94 25 0 
N 31 31 0 
N 25 10 0 
N 44 7 0 
N 98 83 0 
N 95 19 0 
N 68 15 0 
N 76 93 0 
N 7 97 0 
N 67 48 0 
N 20 91 0 
N 78 6 0 
N 16 4 0 
N 52 14 0 
N 31 42 0 
N 22 76 0 
N 37 31 0 
N 22 62 0 
N 99 49 0 
N 46 87 0 
N 69 18 0 
N 3 98 0 
N 72 60 0 
N 52 79 0 
N 29 62 0 
N 85 1 0 
N 33 28 0 
N 66 80 0 
N 59 97 0 
N 92 60 0 
N 9 80 0 
N 43 6 0 
N 9 42 0 
N 17 83 0 
N 55 5 0 
N 57 97 0 
N 43 67 0 
N 60 14 0 
N 39 27 0 
N 93 16 0 
N 20 57 0 
N 24 76 0 
N 67 14 0 
N 40 46 0 
N 8 4 0 
N 85 83 0 
N 95 32 0 
N 52 28 0 
N 55 71 0 
N 23 57 0 
N 40 94 0 
N 97 51 0 
N 33 68 0 
N 42 37 0 
N 48 29 0 
N 35 28 0 
N 68 21 0 
N 43 87 0 
N 72 97 0 
N 44 85 0 
N 31 6 0 
N 72 3 0 
N 22 92 0 
N 49 31 0 
N 8 74 0 
N 72 87 0 
N 99 51 0 
N 19 91 0 
N 45 64 0 
N 13 27 0 
N 72 63 0 
N 36 33 0 
N 98 52 0 
N 55 55 0 
N 29 47 0 
N 5 20 0 
N 38 58 0 
N 68 20 0 
N 73 65 0 
N 45 75 0 
N 59 3 0 
N 91 40 0 
N 2 37 0 
N 68 46 0 
N 34 85 0 
N 84 35 0 
N 40 98 0 
N 72 62 0 
N 73 88 0 
N 38 48 0 
N 75 44 0 
N 4 3 0 
N 15 5 0 
N 65 81 0 
N 8 26 0 
N 17 55 0 
N 1 87 0 
N 86 82 0 
N 29 24 0 
N 67 41 0 
N 46 68 0 
N 73 61 0 
N 29 49 0 
N 55 17 0 
N 20 45 0 
N 59 95 0 
N 91 42 0 
N 57 96 0 
N 38 59 0 
N 34 30 0 
N 49 51 0 
N 60 17 0 
N 22 12 0 
N 85 74 0 
N 37 34 0 
N 15 8 0 
N 30 6 0 
N 75 4 0 
N 41 47 0 
N 43 48 0 
N 9 29 0 
N 69 82 0 
N 31 32 0 
N 86 84 0 
N 4 49 0 
N 56 6 0 
N 84 28 0 
N 9 25 0 
N 86 80 0 
N 42 58 0 
N 58 3 0 
N 50 15 0 
N 57 79 0 
N 91 72 0 
N 26 16 0 
N 37 58 0 
N 75 59 0 
N 85 45 0 
N 84 34 0 
N 92 61 0 
N 70 80 0 
N 34 84 0 
N 92 40 0 
N 61 20 0 
N 34 29 0 
N 16 69 0 
N 5 47 0 
N 21 57 0 
N 32 48 0 
N 66 50 0 
N 50 14 0 
N 82 26 0 
N 85 63 0 
N 59 94 0 
N 68 19 0 
N 91 39 0 
N 68 28 0 
N 34 89 0 
N 22 61 0 
N 49 15 0 
N 8 28 0 
N 54 47 0 
N 7 39 0 
N 3 20 0 
N 36 48 0 
N 97 78 0 
N 39 93 0 
N 90 34 0 
N 93 13 0 
N 9 39 0 
N 62 17 0 
N 33 6 0 
N 39 91 0 
N 55 54 0 
N 76 6 0 
N 74 40 0 
N 34 32 0 
N 65 85 0 
N 22 30 0 
N 21 53 0 
N 87 18 0 
N 4 20 0 
N 61 60 0 
N 85 2 0 
N 23 8 0 
N 28 16 0 
N 86 29 0 
N 1 88 0 
N 21 56 0 
N 61 70 0 
N 37 48 0 
N 1 89 0 
N 94 88 0 
N 59 19 0 
N 22 65 0 
N 67 93 0 
N 96 49 0 
N 54 48 0 
N 30 63 0 
N 20 52 0 
N 73 5 0 
N 70 62 0 
N 97 79 0 
N 74 59 0 
N 32 6 0 
N 66 45 0 
N 30 49 0 
N 56 81 0 
N 2 54 0 
N 80 61 0 
N 51 70 0 
N 5 83 0 
N 34 55 0 
N 88 54 0 
N 26 13 0 
N 67 49 0 
N 38 26 0 
N 96 14 0 
N 68 42 0 
N 14 29 0 
N 8 67 0 
N 68 4 0 
N 57 95 0 
N 17 57 0 
N 94 13 0 
N 70 79 0 
C 0 0 0 
C 25 0 0 
C 50 0 0 
C 75 0 0 
C 100 0 0 
C 0 25 0 
C 25 25 0 
C 50 25 0 
C 75 25 0 
C 100 25 0 
C 0 50 0 
C 25 50 0 
C 50 50 0 
C 75 50 0 
C 100 50 0 
C 0 75 0 
C 25 75 0 
C 50 75 0 
C 75 75 0 
C 100 75 0 
C 0 100 0 
C 25 100 0 
C 50 100 0 
C 75 100 0 
C 100 100 0 
O 10 26 0 
O 57 85 0 
O 66 92 0 
O 25 57 0 
O 87 64 0 
O 74 53 0 
O 59 99 0 
O 63 0 0 
O 66 84 0 
O 46 76 0 
O 61 89 0 
O 37 66 0 
O 30 61 0 
O 42 7 0 
O 50 69 0 
O 45 0 0 
O 68 82 0 
O 59 85 0 
O 44 99 0 
O 96 31 0 
O 47 73 0 
O 58 55 0 
O 55 73 0 
O 60 84 0 
O 36 56 0 
O 14 98 0 
O 57 1 0 
O 0 26 0 
O 98 2 0 
O 39 99 0 
O 24 63 0 
O 68 88 0 
O 53 69 0 
O 93 18 0 
O 61 85 0 
O 81 90 0 
O 55 80 0 
O 40 0 0 
O 30 48 0 
O 92 25 0 
O 7 73 0 
O 87 87 0 
O 32 55 0 
O 66 94 0 
O 70 92 0 
O 34 57 0 
O 67 85 0 
O 93 28 0 
O 78 44 0 
O 82 3 0 
O 53 78 0 
O 65 95 0 
O 53 74 0 
O 53 64 0 
O 27 64 0 
O 53 60 0 
O 92 35 0 
O 18 75 0 
O 70 86 0 
O 33 2 0 
O 9 99 0 
O 55 7 0 
O 60 88 0 
O 73 94 0 
O 28 25 0 
O 34 48 0 
O 59 82 0 
O 67 0 0 
O 31 1 0 
O 46 66 0 
O 28 63 0 
O 69 80 0 
O 99 2 0 
O 90 94 0 
O 56 87 0 
O 0 31 0 
O 63 85 0 
O 72 1 0 
O 1 21 0 
O 97 85 0 
O 98 21 0 
O 83 97 0 
O 80 3 0 
O 98 23 0 
O 16 75 0 
O 34 56 0 
O 36 0 0 
O 49 87 0 
O 1 91 0 
O 86 97 0 
O 23 59 0 
O 35 50 0 
O 43 73 0 
O 79 72 0 
O 52 91 0 
O 27 59 0 
606
Atoms. Timestep: 23
N 10 26 0 
N 73 62 0 
N 93 62 0 
N 5 21 0 
N 4 21 0 
N 24 24 0 
N 3 22 0 
N 16 97 0 
N 1 16 0 
N 20 55 0 
N 68 42 0 
N 26 78 0 
N 32 30 0 
N 91 35 0 
N 46 76 0 
N 32 41 0 
N 24 63 0 
N 68 44 0 
N 27 71 0 
N 44 78 0 
N 94 15 0 
N 95 33 0 
N 25 17 0 
N 92 25 0 
N 25 20 0 
N 20 75 0 
N 28 25 0 
N 5 32 0 
N 35 56 0 
N 74 61 0 
N 3 55 0 
N 20 57 0 
N 88 28 0 
N 52 13 0 
N 37 46 0 
N 97 86 0 
N 71 43 0 
N 67 2 0 
N 4 37 0 
N 87 64 0 
N 55 54 0 
N 42 27 0 
N 45 82 0 
N 69 50 0 
N 44 93 0 
N 26 9 0 
N 79 88 0 
N 19 97 0 
N 39 95 0 
N 95 62 0 
N 36 2 0 
N 66 86 0 
N 9 80 0 
N 67 52 0 
N 95 50 0 
N 4 59 0 
N 53 54 0 
N 9 8 0 
N 93 19 0 
N 40 58 0 
N 87 37 0 
N 3 42 0 
N 35 37 0 
N 55 80 0 
N 19 62 0 
N 98 15 0 
N 31 89 0 
N 86 86 0 
N 32 46 0 
N 78 64 0 
N 68 83 0 
N 18 74 0 
N 57 80 0 
N 72 57 0 
N 83 34 0 
N 11 42 0 
N 19 90 0 
N 4 85 0 
N 40 1 0 
N 91 46 0 
N 36 28 0 
N 6 47 0 
N 75 61 0 
N 77 33 0 
N 7 83 0 
N 12 25 0 
N 53 80 0 
N 41 25 0 
N 23 97 0 
N 10 32 0 
N 50 17 0 
N 95 85 0 
N 68 16 0 
N 10 43 0 
N 82 0 0 
N 75 60 0 
N 43 8 0 
N 80 9 0 
N 8 80 0 
N 2 31 0 
N 59 0 0 
N 59 13 0 
N 7 26 0 
N 43 82 0 
N 17 75 0 
N 36 46 0 
N 41 67 0 
N 88 36 0 
N 22 55 0 
N 79 7 0 
N 3 58 0 
N 60 59 0 
N 86 33 0 
N 27 25 0 
N 46 94 0 
N 83 29 0 
N 88 87 0 
N 61 88 0 
N 73 61 0 
N 85 18 0 
N 46 66 0 
N 23 47 0 
N 66 43 0 
N 19 58 0 
N 92 48 0 
N 8 26 0 
N 90 47 0 
N 22 8 0 
N 21 59 0 
N 63 71 0 
N 54 47 0 
N 33 83 0 
N 77 4 0 
N 73 82 0 
N 87 26 0 
N 71 44 0 
N 92 41 0 
N 19 53 0 
N 50 87 0 
N 72 98 0 
N 34 65 0 
N 62 71 0 
N 35 0 0 
N 29 90 0 
N 58 13 0 
N 83 28 0 
N 20 93 0 
N 4 93 0 
N 73 58 0 
N 18 75 0 
N 97 49 0 
N 74 88 0 
N 98 85 0 
N 53 59 0 
N 22 62 0 
N 36 48 0 
N 19 54 0 
N 8 78 0 
N 2 15 0 
N 52 16 0 
N 67 81 0 
N 30 87 0 
N 25 16 0 
N 96 18 0 
N 92 63 0 
N 24 69 0 
N 31 48 0 
N 10 27 0 
N 68 0 0 
N 9 25 0 
N 89 37 0 
N 55 55 0 
N 11 58 0 
N 92 33 0 
N 28 16 0 
N 34 25 0 
N 74 94 0 
N 39 96 0 
N 21 56 0 
N 52 90 0 
N 96 84 0 
N 7 27 0 
N 13 33 0 
N 25 15 0 
N 90 20 0 
N 89 3 0 
N 97 88 0 
N 7 82 0 
N 28 31 0 
N 67 39 0 
N 98 52 0 
N 87 34 0 
N 13 80 0 
N 10 73 0 
N 23 24 0 
N 31 29 0 
N 72 6 0 
N 2 60 0 
N 60 14 0 
N 25 14 0 
N 89 64 0 
N 60 15 0 
N 38 94 0 
N 67 20 0 
N 94 18 0 
N 92 97 0 
N 90 94 0 
N 8 79 0 
N 67 5 0 
N 5 33 0 
N 1 53 0 
N 85 63 0 
N 86 87 0 
N 33 88 0 
N 72 52 0 
N 78 45 0 
N 9 1 0 
N 73 52 0 
N 44 95 0 
N 31 45 0 
N 77 42 0 
N 88 64 0 
N 63 13 0 
N 97 81 0 
N 56 73 0 
N 7 79 0 
N 91 36 0 
N 34 90 0 
N 24 62 0 
N 79 73 0 
N 32 43 0 
N 81 44 0 
N 42 86 0 
N 73 88 0 
N 67 17 0 
N 83 18 0 
N 16 7 0 
N 6 48 0 
N 51 30 0 
N 57 45 0 
N 96 31 0 
N 12 32 0 
N 42 8 0 
N 83 46 0 
N 20 58 0 
N 93 1 0 
N 23 64 0 
N 75 59 0 
N 22 15 0 
N 46 68 0 
N 74 62 0 
N 74 64 0 
N 5 74 0 
N 72 60 0 
N 16 72 0 
N 33 92 0 
N 0 15 0 
N 45 7 0 
N 70 53 0 
N 33 13 0 
N 86 2 0 
N 53 53 0 
N 70 83 0 
N 89 94 0 
N 61 21 0 
N 6 99 0 
N 88 85 0 
N 74 60 0 
N 6 41 0 
N 54 73 0 
N 53 15 0 
N 69 44 0 
N 73 53 0 
N 93 4 0 
N 93 25 0 
N 30 31 0 
N 25 9 0 
N 43 7 0 
N 97 83 0 
N 95 18 0 
N 67 15 0 
N 75 93 0 
N 7 98 0 
N 67 49 0 
N 19 91 0 
N 78 5 0 
N 16 5 0 
N 53 14 0 
N 32 42 0 
N 21 76 0 
N 36 31 0 
N 22 63 0 
N 99 48 0 
N 47 87 0 
N 68 18 0 
N 4 98 0 
N 72 59 0 
N 52 78 0 
N 29 61 0 
N 85 2 0 
N 32 28 0 
N 66 80 0 
N 59 98 0 
N 92 61 0 
N 9 79 0 
N 42 6 0 
N 9 41 0 
N 17 82 0 
N 55 5 0 
N 58 97 0 
N 43 66 0 
N 60 13 0 
N 38 27 0 
N 93 17 0 
N 21 57 0 
N 24 75 0 
N 67 13 0 
N 40 47 0 
N 9 4 0 
N 85 84 0 
N 95 31 0 
N 53 28 0 
N 55 72 0 
N 24 57 0 
N 40 95 0 
N 96 51 0 
N 34 68 0 
N 42 38 0 
N 48 28 0 
N 34 28 0 
N 68 20 0 
N 44 87 0 
N 72 96 0 
N 44 86 0 
N 31 5 0 
N 72 2 0 
N 21 92 0 
N 49 30 0 
N 8 73 0 
N 72 86 0 
N 99 50 0 
N 18 91 0 
N 45 65 0 
N 12 27 0 
N 73 63 0 
N 35 33 0 
N 97 52 0 
N 56 55 0 
N 30 47 0 
N 5 20 0 
N 37 58 0 
N 68 19 0 
N 74 65 0 
N 45 76 0 
N 59 4 0 
N 91 39 0 
N 2 36 0 
N 69 46 0 
N 34 84 0 
N 85 35 0 
N 39 98 0 
N 72 62 0 
N 72 88 0 
N 38 48 0 
N 75 43 0 
N 5 3 0 
N 14 5 0 
N 66 81 0 
N 9 26 0 
N 17 56 0 
N 1 88 0 
N 86 83 0 
N 28 24 0 
N 67 42 0 
N 46 67 0 
N 73 60 0 
N 29 48 0 
N 55 16 0 
N 21 45 0 
N 59 96 0 
N 91 41 0 
N 58 96 0 
N 37 59 0 
N 33 30 0 
N 50 51 0 
N 60 16 0 
N 23 12 0 
N 84 74 0 
N 37 35 0 
N 14 8 0 
N 30 5 0 
N 74 4 0 
N 41 48 0 
N 42 48 0 
N 10 29 0 
N 68 82 0 
N 30 32 0 
N 87 84 0 
N 3 49 0 
N 55 6 0 
N 84 29 0 
N 10 25 0 
N 87 80 0 
N 42 57 0 
N 57 3 0 
N 50 14 0 
N 56 79 0 
N 90 72 0 
N 26 17 0 
N 36 58 0 
N 74 59 0 
N 85 44 0 
N 85 34 0 
N 92 62 0 
N 69 80 0 
N 35 84 0 
N 92 40 0 
N 60 20 0 
N 33 29 0 
N 16 70 0 
N 4 47 0 
N 22 57 0 
N 33 48 0 
N 67 50 0 
N 51 14 0 
N 83 26 0 
N 86 63 0 
N 58 94 0 
N 67 19 0 
N 92 39 0 
N 69 28 0 
N 34 88 0 
N 22 60 0 
N 49 14 0 
N 8 27 0 
N 55 47 0 
N 6 39 0 
N 3 21 0 
N 35 48 0 
N 97 79 0 
N 39 93 0 
N 91 34 0 
N 93 14 0 
N 10 39 0 
N 61 17 0 
N 33 5 0 
N 39 92 0 
N 55 53 0 
N 76 5 0 
N 74 41 0 
N 33 32 0 
N 65 86 0 
N 23 30 0 
N 22 53 0 
N 88 18 0 
N 4 20 0 
N 61 59 0 
N 84 2 0 
N 23 7 0 
N 28 17 0 
N 86 28 0 
N 1 89 0 
N 22 56 0 
N 61 69 0 
N 37 48 0 
N 1 90 0 
N 95 88 0 
N 59 18 0 
N 23 65 0 
N 66 93 0 
N 96 48 0 
N 55 48 0 
N 30 62 0 
N 20 53 0 
N 72 5 0 
N 71 62 0 
N 97 80 0 
N 74 58 0 
N 32 5 0 
N 67 45 0 
N 30 48 0 
N 55 81 0 
N 2 55 0 
N 80 62 0 
N 50 70 0 
N 6 83 0 
N 34 56 0 
N 87 54 0 
N 27 13 0 
N 68 49 0 
N 38 25 0 
N 96 15 0 
N 68 43 0 
N 13 29 0 
N 7 67 0 
N 68 3 0 
N 58 95 0 
N 18 57 0 
N 94 13 0 
N 69 79 0 
C 0 0 0 
C 25 0 0 
C 50 0 0 
C 75 0 0 
C 100 0 0 
C 0 25 0 
C 25 25 0 
C 50 25 0 
C 75 25 0 
C 100 25 0 
C 0 50 0 
C 25 50 0 
C 50 50 0 
C 75 50 0 
C 100 50 0 
C 0 75 0 
C 25 75 0 
C 50 75 0 
C 75 75 0 
C 100 75 0 
C 0 100 0 
C 25 100 0 
C 50 100 0 
C 75 100 0 
C 100 100 0 
O 58 85 0 
O 66 91 0 
O 25 56 0 
O 74 54 0 
O 58 99 0 
O 63 1 0 
O 65 84 0 
O 62 89 0 
O 38 66 0 
O 31 61 0 
O 41 7 0 
O 51 69 0 
O 45 1 0 
O 59 84 0 
O 44 98 0 
O 46 73 0 
O 58 54 0 
O 55 74 0 
O 60 85 0 
O 37 56 0 
O 14 97 0 
O 58 1 0 
O 99 26 0 
O 98 1 0 
O 39 0 0 
O 69 88 0 
O 54 69 0 
O 93 18 0 
O 61 86 0 
O 81 89 0 
O 40 99 0 
O 6 73 0 
O 87 88 0 
O 33 55 0 
O 66 95 0 
O 70 93 0 
O 34 58 0 
O 66 85 0 
O 93 29 0 
O 77 44 0 
O 82 2 0 
O 53 79 0 
O 65 96 0 
O 52 74 0 
O 53 65 0 
O 26 64 0 
O 52 60 0 
O 93 35 0 
O 70 87 0 
O 32 2 0 
O 9 98 0 
O 54 7 0 
O 59 88 0 
O 72 94 0 
O 34 49 0 
O 58 82 0 
O 67 99 0 
O 31 0 0 
O 28 62 0 
O 0 2 0 
O 57 87 0 
O 0 32 0 
O 63 86 0 
O 72 0 0 
O 0 21 0 
O 96 85 0 
O 98 20 0 
O 83 98 0 
O 80 2 0 
O 98 22 0 
O 15 75 0 
O 36 1 0 
O 49 88 0 
O 0 91 0 
O 87 97 0 
O 22 59 0 
O 35 49 0 
O 43 74 0 
O 78 72 0 
O 51 91 0 
O 26 59 0 
599
Atoms. Timestep: 24
N 11 26 0 
N 73 62 0 
N 93 63 0 
N 4 21 0 
N 4 22 0 
N 25 24 0 
N 3 21 0 
N 15 97 0 
N 1 17 0 
N 21 55 0 
N 69 42 0 
N 26 77 0 
N 32 31 0 
N 92 35 0 
N 46 75 0 
N 33 41 0 
N 25 63 0 
N 69 44 0 
N 26 71 0 
N 44 77 0 
N 94 16 0 
N 94 33 0 
N 25 16 0 
N 92 26 0 
N 25 19 0 
N 19 75 0 
N 28 24 0 
N 4 32 0 
N 36 56 0 
N 74 60 0 
N 4 55 0 
N 20 56 0 
N 88 29 0 
N 53 13 0 
N 36 46 0 
N 96 86 0 
N 71 44 0 
N 67 3 0 
N 3 37 0 
N 87 65 0 
N 56 54 0 
N 42 26 0 
N 46 82 0 
N 69 51 0 
N 44 94 0 
N 27 9 0 
N 79 89 0 
N 18 97 0 
N 39 95 0 
N 94 62 0 
N 36 1 0 
N 66 85 0 
N 9 79 0 
N 67 53 0 
N 94 50 0 
N 4 58 0 
N 54 54 0 
N 9 9 0 
N 93 20 0 
N 39 58 0 
N 87 36 0 
N 3 41 0 
N 35 36 0 
N 56 80 0 
N 20 62 0 
N 98 16 0 
N 31 88 0 
N 87 86 0 
N 33 46 0 
N 78 65 0 
N 67 83 0 
N 17 74 0 
N 58 80 0 
N 72 56 0 
N 83 35 0 
N 11 41 0 
N 18 90 0 
N 3 85 0 
N 40 0 0 
N 91 45 0 
N 36 29 0 
N 6 46 0 
N 75 60 0 
N 77 34 0 
N 6 83 0 
N 12 26 0 
N 53 79 0 
N 41 24 0 
N 22 97 0 
N 9 32 0 
N 49 17 0 
N 95 86 0 
N 68 17 0 
N 10 42 0 
N 82 1 0 
N 75 59 0 
N 42 8 0 
N 80 8 0 
N 7 80 0 
N 2 32 0 
N 58 0 0 
N 59 12 0 
N 7 26 0 
N 43 81 0 
N 16 75 0 
N 36 47 0 
N 40 67 0 
N 88 35 0 
N 23 55 0 
N 79 6 0 
N 3 59 0 
N 59 59 0 
N 87 33 0 
N 27 26 0 
N 46 95 0 
N 84 29 0 
N 88 88 0 
N 61 89 0 
N 73 61 0 
N 85 19 0 
N 46 66 0 
N 24 47 0 
N 66 44 0 
N 19 57 0 
N 93 48 0 
N 8 26 0 
N 90 46 0 
N 23 8 0 
N 21 59 0 
N 63 72 0 
N 55 47 0 
N 32 83 0 
N 77 3 0 
N 72 82 0 
N 88 26 0 
N 72 44 0 
N 93 41 0 
N 20 53 0 
N 49 87 0 
N 72 97 0 
N 35 65 0 
N 61 71 0 
N 36 0 0 
N 30 90 0 
N 57 13 0 
N 84 28 0 
N 20 94 0 
N 4 92 0 
N 73 57 0 
N 18 75 0 
N 97 48 0 
N 73 88 0 
N 97 85 0 
N 53 60 0 
N 23 62 0 
N 35 48 0 
N 19 55 0 
N 8 77 0 
N 1 15 0 
N 52 15 0 
N 67 81 0 
N 30 86 0 
N 25 15 0 
N 97 18 0 
N 92 64 0 
N 24 68 0 
N 31 49 0 
N 11 27 0 
N 68 1 0 
N 10 25 0 
N 90 37 0 
N 56 55 0 
N 12 58 0 
N 93 33 0 
N 29 16 0 
N 34 26 0 
N 73 94 0 
N 39 96 0 
N 22 56 0 
N 51 90 0 
N 96 85 0 
N 8 27 0 
N 13 32 0 
N 26 15 0 
N 91 20 0 
N 89 2 0 
N 97 87 0 
N 7 81 0 
N 28 32 0 
N 68 39 0 
N 98 51 0 
N 88 34 0 
N 13 79 0 
N 9 73 0 
N 23 25 0 
N 32 29 0 
N 72 5 0 
N 3 60 0 
N 60 13 0 
N 26 14 0 
N 88 64 0 
N 59 15 0 
N 39 94 0 
N 67 21 0 
N 95 18 0 
N 91 97 0 
N 90 95 0 
N 7 79 0 
N 67 6 0 
N 4 33 0 
N 1 52 0 
N 84 63 0 
N 87 87 0 
N 32 88 0 
N 73 52 0 
N 77 45 0 
N 9 2 0 
N 74 52 0 
N 44 96 0 
N 31 46 0 
N 77 43 0 
N 88 65 0 
N 63 12 0 
N 96 81 0 
N 56 74 0 
N 7 78 0 
N 92 36 0 
N 33 90 0 
N 25 62 0 
N 78 73 0 
N 33 43 0 
N 80 44 0 
N 42 87 0 
N 72 88 0 
N 67 17 0 
N 83 17 0 
N 16 8 0 
N 5 48 0 
N 51 29 0 
N 58 45 0 
N 96 30 0 
N 11 32 0 
N 41 8 0 
N 82 46 0 
N 20 58 0 
N 92 1 0 
N 24 64 0 
N 75 58 0 
N 22 14 0 
N 46 69 0 
N 74 62 0 
N 73 64 0 
N 6 74 0 
N 73 60 0 
N 16 73 0 
N 33 91 0 
N 0 16 0 
N 45 8 0 
N 70 54 0 
N 34 13 0 
N 85 2 0 
N 54 53 0 
N 70 84 0 
N 89 95 0 
N 61 20 0 
N 6 98 0 
N 88 86 0 
N 74 59 0 
N 5 41 0 
N 54 74 0 
N 53 14 0 
N 70 44 0 
N 74 53 0 
N 93 3 0 
N 93 26 0 
N 31 31 0 
N 25 8 0 
N 43 7 0 
N 97 84 0 
N 95 19 0 
N 67 16 0 
N 74 93 0 
N 8 98 0 
N 67 50 0 
N 19 92 0 
N 78 4 0 
N 15 5 0 
N 54 14 0 
N 33 42 0 
N 21 75 0 
N 36 32 0 
N 23 63 0 
N 98 48 0 
N 47 88 0 
N 67 18 0 
N 5 98 0 
N 72 58 0 
N 52 79 0 
N 29 61 0 
N 84 2 0 
N 33 28 0 
N 66 81 0 
N 59 99 0 
N 91 61 0 
N 9 78 0 
N 42 7 0 
N 9 40 0 
N 16 82 0 
N 55 6 0 
N 58 98 0 
N 42 66 0 
N 60 12 0 
N 38 26 0 
N 93 18 0 
N 21 58 0 
N 23 75 0 
N 67 14 0 
N 39 47 0 
N 9 5 0 
N 86 84 0 
N 95 30 0 
N 54 28 0 
N 55 73 0 
N 25 57 0 
N 40 96 0 
N 96 50 0 
N 34 67 0 
N 42 39 0 
N 48 27 0 
N 34 28 0 
N 68 21 0 
N 45 87 0 
N 72 95 0 
N 45 86 0 
N 31 4 0 
N 72 1 0 
N 20 92 0 
N 50 30 0 
N 7 73 0 
N 72 87 0 
N 98 50 0 
N 18 92 0 
N 44 65 0 
N 13 27 0 
N 74 63 0 
N 35 34 0 
N 97 51 0 
N 57 55 0 
N 31 47 0 
N 4 20 0 
N 37 57 0 
N 68 19 0 
N 74 65 0 
N 45 75 0 
N 59 3 0 
N 91 38 0 
N 2 35 0 
N 69 45 0 
N 33 84 0 
N 86 35 0 
N 39 97 0 
N 72 61 0 
N 71 88 0 
N 37 48 0 
N 75 44 0 
N 4 3 0 
N 14 6 0 
N 66 82 0 
N 9 26 0 
N 17 55 0 
N 0 88 0 
N 87 83 0 
N 28 23 0 
N 67 43 0 
N 46 67 0 
N 73 59 0 
N 30 48 0 
N 54 16 0 
N 22 45 0 
N 59 97 0 
N 91 40 0 
N 58 96 0 
N 37 59 0 
N 34 30 0 
N 50 52 0 
N 59 16 0 
N 23 11 0 
N 83 74 0 
N 37 36 0 
N 14 9 0 
N 30 4 0 
N 73 4 0 
N 40 48 0 
N 42 49 0 
N 9 29 0 
N 67 82 0 
N 31 32 0 
N 87 85 0 
N 2 49 0 
N 54 6 0 
N 85 29 0 
N 11 25 0 
N 87 81 0 
N 42 56 0 
N 58 3 0 
N 50 13 0 
N 55 79 0 
N 89 72 0 
N 27 17 0 
N 35 58 0 
N 74 58 0 
N 84 44 0 
N 86 34 0 
N 91 62 0 
N 69 81 0 
N 36 84 0 
N 93 40 0 
N 60 19 0 
N 34 29 0 
N 16 71 0 
N 3 47 0 
N 23 57 0 
N 33 49 0 
N 67 51 0 
N 52 14 0 
N 83 27 0 
N 86 64 0 
N 58 94 0 
N 67 19 0 
N 92 38 0 
N 69 29 0 
N 34 87 0 
N 22 59 0 
N 49 13 0 
N 9 27 0 
N 56 47 0 
N 5 39 0 
N 2 21 0 
N 35 49 0 
N 97 80 0 
N 39 92 0 
N 92 34 0 
N 93 15 0 
N 10 38 0 
N 60 17 0 
N 32 5 0 
N 39 91 0 
N 56 53 0 
N 77 5 0 
N 74 42 0 
N 34 32 0 
N 65 85 0 
N 23 31 0 
N 23 53 0 
N 89 18 0 
N 3 20 0 
N 61 58 0 
N 83 2 0 
N 24 7 0 
N 29 17 0 
N 87 28 0 
N 1 90 0 
N 23 56 0 
N 60 69 0 
N 37 49 0 
N 0 90 0 
N 95 87 0 
N 58 18 0 
N 24 65 0 
N 66 92 0 
N 95 48 0 
N 55 49 0 
N 30 61 0 
N 21 53 0 
N 72 4 0 
N 71 61 0 
N 96 80 0 
N 74 57 0 
N 32 4 0 
N 68 45 0 
N 30 49 0 
N 54 81 0 
N 2 56 0 
N 80 63 0 
N 50 69 0 
N 6 82 0 
N 34 55 0 
N 86 54 0 
N 27 12 0 
N 68 50 0 
N 39 25 0 
N 95 15 0 
N 69 43 0 
N 13 30 0 
N 6 67 0 
N 68 4 0 
N 58 95 0 
N 17 57 0 
N 93 13 0 
N 68 79 0 
C 0 0 0 
C 25 0 0 
C 50 0 0 
C 75 0 0 
C 100 0 0 
C 0 25 0 
C 25 25 0 
C 50 25 0 
C 75 25 0 
C 100 25 0 
C 0 50 0 
C 25 50 0 
C 50 50 0 
C 75 50 0 
C 100 50 0 
C 0 75 0 
C 25 75 0 
C 50 75 0 
C 75 75 0 
C 100 75 0 
C 0 100 0 
C 25 100 0 
C 50 100 0 
C 75 100 0 
C 100 100 0 
O 58 86 0 
O 66 90 0 
O 26 56 0 
O 73 54 0 
O 57 99 0 
O 64 1 0 
O 64 84 0 
O 62 90 0 
O 37 66 0 
O 31 62 0 
O 40 7 0 
O 52 69 0 
O 45 0 0 
O 59 83 0 
O 44 99 0 
O 45 73 0 
O 58 53 0 
O 55 75 0 
O 60 84 0 
O 38 56 0 
O 14 98 0 
O 58 2 0 
O 99 25 0 
O 97 1 0 
O 39 1 0 
O 68 88 0 
O 53 69 0 
O 61 87 0 
O 82 89 0 
O 39 99 0 
O 6 72 0 
O 86 88 0 
O 32 55 0 
O 67 95 0 
O 70 92 0 
O 34 59 0 
O 93 30 0 
O 78 44 0 
O 81 2 0 
O 65 97 0 
O 53 74 0 
O 52 65 0 
O 25 64 0 
O 51 60 0 
O 94 35 0 
O 69 87 0 
O 32 3 0 
O 9 97 0 
O 54 8 0 
O 59 87 0 
O 71 94 0 
O 34 50 0 
O 57 82 0 
O 67 98 0 
O 31 99 0 
O 29 62 0 
O 0 3 0 
O 58 87 0 
O 0 31 0 
O 62 86 0 
O 73 0 0 
O 0 20 0 
O 98 21 0 
O 84 98 0 
O 80 1 0 
O 97 22 0 
O 15 76 0 
O 48 88 0 
O 99 91 0 
O 88 97 0 
O 44 74 0 
O 79 72 0 
O 50 91 0 
O 25 59 0 
594
Atoms. Timestep: 25
N 12 26 0 
N 73 62 0 
N 93 64 0 
N 4 20 0 
N 3 22 0 
N 26 24 0 
N 2 21 0 
N 15 98 0 
N 1 18 0 
N 22 55 0 
N 70 42 0 
N 25 77 0 
N 33 31 0 
N 93 35 0 
N 46 74 0 
N 34 41 0 
N 25 64 0 
N 69 44 0 
N 26 70 0 
N 44 76 0 
N 94 17 0 
N 93 33 0 
N 25 17 0 
N 93 26 0 
N 25 20 0 
N 19 76 0 
N 29 24 0 
N 4 31 0 
N 37 56 0 
N 74 59 0 
N 4 56 0 
N 21 56 0 
N 88 30 0 
N 53 12 0 
N 35 46 0 
N 97 86 0 
N 72 44 0 
N 66 3 0 
N 3 36 0 
N 86 65 0 
N 56 55 0 
N 42 25 0 
N 46 81 0 
N 69 52 0 
N 44 95 0 
N 28 9 0 
N 80 89 0 
N 18 98 0 
N 39 96 0 
N 94 63 0 
N 37 1 0 
N 65 85 0 
N 9 78 0 
N 67 54 0 
N 94 49 0 
N 4 59 0 
N 55 54 0 
N 9 10 0 
N 93 21 0 
N 38 58 0 
N 88 36 0 
N 2 41 0 
N 34 36 0 
N 56 81 0 
N 20 63 0 
N 98 17 0 
N 31 89 0 
N 86 86 0 
N 34 46 0 
N 79 65 0 
N 67 84 0 
N 16 74 0 
N 57 80 0 
N 72 55 0 
N 84 35 0 
N 11 40 0 
N 18 91 0 
N 4 85 0 
N 40 1 0 
N 92 45 0 
N 35 29 0 
N 6 45 0 
N 75 59 0 
N 77 33 0 
N 6 82 0 
N 13 26 0 
N 53 78 0 
N 41 23 0 
N 22 98 0 
N 8 32 0 
N 50 17 0 
N 95 87 0 
N 67 17 0 
N 10 41 0 
N 81 1 0 
N 75 58 0 
N 41 8 0 
N 81 8 0 
N 7 79 0 
N 1 32 0 
N 57 0 0 
N 58 12 0 
N 7 25 0 
N 44 81 0 
N 16 76 0 
N 36 48 0 
N 40 66 0 
N 89 35 0 
N 24 55 0 
N 80 6 0 
N 3 60 0 
N 58 59 0 
N 87 32 0 
N 28 26 0 
N 45 95 0 
N 85 29 0 
N 87 88 0 
N 61 90 0 
N 73 61 0 
N 86 19 0 
N 46 65 0 
N 24 48 0 
N 66 44 0 
N 19 56 0 
N 93 47 0 
N 9 26 0 
N 89 46 0 
N 24 8 0 
N 22 59 0 
N 63 73 0 
N 55 48 0 
N 31 83 0 
N 77 2 0 
N 72 83 0 
N 89 26 0 
N 73 44 0 
N 93 40 0 
N 20 54 0 
N 49 88 0 
N 71 97 0 
N 35 66 0 
N 61 72 0 
N 37 0 0 
N 31 90 0 
N 57 12 0 
N 85 28 0 
N 19 94 0 
N 4 91 0 
N 73 56 0 
N 18 76 0 
N 96 48 0 
N 72 88 0 
N 98 85 0 
N 52 60 0 
N 23 63 0 
N 35 49 0 
N 20 55 0 
N 8 76 0 
N 1 16 0 
N 53 15 0 
N 66 81 0 
N 30 87 0 
N 26 15 0 
N 97 19 0 
N 92 65 0 
N 24 67 0 
N 31 50 0 
N 12 27 0 
N 68 2 0 
N 11 25 0 
N 90 36 0 
N 57 55 0 
N 13 58 0 
N 93 32 0 
N 29 17 0 
N 34 27 0 
N 73 94 0 
N 39 97 0 
N 22 56 0 
N 51 91 0 
N 96 85 0 
N 9 27 0 
N 12 32 0 
N 26 16 0 
N 91 21 0 
N 88 2 0 
N 97 88 0 
N 7 81 0 
N 29 32 0 
N 69 39 0 
N 97 51 0 
N 88 33 0 
N 13 78 0 
N 8 73 0 
N 24 25 0 
N 32 30 0 
N 72 4 0 
N 3 61 0 
N 60 12 0 
N 26 13 0 
N 88 65 0 
N 59 14 0 
N 39 94 0 
N 67 20 0 
N 96 18 0 
N 90 97 0 
N 90 96 0 
N 7 78 0 
N 66 6 0 
N 3 33 0 
N 1 51 0 
N 83 63 0 
N 86 87 0 
N 32 89 0 
N 73 53 0 
N 78 45 0 
N 9 3 0 
N 74 53 0 
N 44 97 0 
N 32 46 0 
N 78 43 0 
N 88 66 0 
N 64 12 0 
N 96 82 0 
N 56 75 0 
N 6 78 0 
N 91 36 0 
N 33 91 0 
N 25 62 0 
N 78 72 0 
N 33 44 0 
N 79 44 0 
N 42 88 0 
N 71 88 0 
N 66 17 0 
N 83 16 0 
N 16 9 0 
N 5 47 0 
N 52 29 0 
N 58 46 0 
N 95 30 0 
N 11 31 0 
N 40 8 0 
N 82 45 0 
N 20 57 0 
N 93 1 0 
N 24 65 0 
N 75 57 0 
N 22 15 0 
N 46 70 0 
N 74 61 0 
N 73 64 0 
N 6 74 0 
N 73 60 0 
N 15 73 0 
N 32 91 0 
N 0 17 0 
N 45 7 0 
N 71 54 0 
N 34 12 0 
N 84 2 0 
N 55 53 0 
N 70 85 0 
N 89 96 0 
N 60 20 0 
N 7 98 0 
N 88 87 0 
N 74 58 0 
N 4 41 0 
N 53 74 0 
N 54 14 0 
N 70 44 0 
N 74 54 0 
N 94 3 0 
N 93 27 0 
N 31 32 0 
N 25 9 0 
N 42 7 0 
N 98 84 0 
N 95 20 0 
N 67 15 0 
N 73 93 0 
N 9 98 0 
N 68 50 0 
N 19 93 0 
N 78 3 0 
N 15 6 0 
N 54 13 0 
N 34 42 0 
N 21 76 0 
N 36 33 0 
N 23 64 0 
N 98 47 0 
N 48 88 0 
N 66 18 0 
N 5 97 0 
N 72 57 0 
N 52 78 0 
N 29 62 0 
N 83 2 0 
N 33 29 0 
N 66 82 0 
N 59 0 0 
N 91 62 0 
N 10 78 0 
N 41 7 0 
N 8 40 0 
N 16 81 0 
N 55 7 0 
N 57 98 0 
N 41 66 0 
N 60 11 0 
N 37 26 0 
N 94 18 0 
N 22 58 0 
N 23 76 0 
N 67 13 0 
N 39 48 0 
N 9 6 0 
N 86 85 0 
N 94 30 0 
N 54 27 0 
N 55 74 0 
N 26 57 0 
N 40 97 0 
N 95 50 0 
N 35 67 0 
N 42 40 0 
N 48 26 0 
N 34 28 0 
N 68 20 0 
N 45 88 0 
N 72 94 0 
N 46 86 0 
N 31 5 0 
N 72 0 0 
N 20 93 0 
N 50 29 0 
N 6 73 0 
N 71 87 0 
N 98 49 0 
N 18 93 0 
N 43 65 0 
N 14 27 0 
N 73 63 0 
N 35 35 0 
N 96 51 0 
N 57 54 0 
N 31 48 0 
N 3 20 0 
N 38 57 0 
N 67 19 0 
N 73 65 0 
N 45 74 0 
N 59 2 0 
N 91 37 0 
N 2 34 0 
N 70 45 0 
N 32 84 0 
N 87 35 0 
N 39 98 0 
N 72 60 0 
N 70 88 0 
N 37 49 0 
N 76 44 0 
N 3 3 0 
N 14 7 0 
N 66 83 0 
N 10 26 0 
N 18 55 0 
N 1 88 0 
N 86 83 0 
N 29 23 0 
N 67 44 0 
N 45 67 0 
N 73 59 0 
N 30 49 0 
N 54 15 0 
N 23 45 0 
N 59 98 0 
N 91 39 0 
N 58 97 0 
N 36 59 0 
N 34 31 0 
N 50 53 0 
N 58 16 0 
N 23 12 0 
N 83 73 0 
N 37 37 0 
N 13 9 0 
N 30 5 0 
N 73 3 0 
N 40 49 0 
N 41 49 0 
N 9 30 0 
N 67 82 0 
N 32 32 0 
N 88 85 0 
N 1 49 0 
N 54 7 0 
N 85 30 0 
N 12 25 0 
N 87 82 0 
N 41 56 0 
N 58 4 0 
N 51 13 0 
N 54 79 0 
N 90 72 0 
N 28 17 0 
N 34 58 0 
N 73 58 0 
N 83 44 0 
N 87 34 0 
N 90 62 0 
N 69 82 0 
N 36 85 0 
N 93 39 0 
N 60 18 0 
N 34 29 0 
N 15 71 0 
N 3 46 0 
N 23 56 0 
N 33 50 0 
N 67 52 0 
N 52 13 0 
N 84 27 0 
N 85 64 0 
N 58 95 0 
N 66 19 0 
N 92 37 0 
N 70 29 0 
N 34 88 0 
N 23 59 0 
N 49 12 0 
N 10 27 0 
N 56 48 0 
N 5 38 0 
N 1 21 0 
N 34 49 0 
N 98 80 0 
N 39 93 0 
N 93 34 0 
N 93 16 0 
N 10 37 0 
N 60 16 0 
N 32 6 0 
N 39 91 0 
N 57 53 0 
N 78 5 0 
N 75 42 0 
N 34 33 0 
N 64 85 0 
N 22 31 0 
N 23 54 0 
N 90 18 0 
N 2 20 0 
N 61 57 0 
N 82 2 0 
N 25 7 0 
N 30 17 0 
N 88 28 0 
N 1 91 0 
N 24 56 0 
N 59 69 0 
N 36 49 0 
N 0 91 0 
N 96 87 0 
N 57 18 0 
N 25 65 0 
N 66 91 0 
N 94 48 0 
N 56 49 0 
N 31 61 0 
N 21 54 0 
N 72 3 0 
N 71 60 0 
N 96 80 0 
N 74 56 0 
N 32 3 0 
N 68 44 0 
N 30 50 0 
N 54 82 0 
N 3 56 0 
N 79 63 0 
N 51 69 0 
N 6 81 0 
N 33 55 0 
N 85 54 0 
N 28 12 0 
N 68 51 0 
N 40 25 0 
N 95 16 0 
N 70 43 0 
N 13 31 0 
N 6 68 0 
N 68 5 0 
N 59 95 0 
N 17 56 0 
N 94 13 0 
N 67 79 0 
C 0 0 0 
C 25 0 0 
C 50 0 0 
C 75 0 0 
C 100 0 0 
C 0 25 0 
C 25 25 0 
C 50 25 0 
C 75 25 0 
C 100 25 0 
C 0 50 0 
C 25 50 0 
C 50 50 0 
C 75 50 0 
C 100 50 0 
C 0 75 0 
C 25 75 0 
C 50 75 0 
C 75 75 0 
C 100 75 0 
C 0 100 0 
C 25 100 0 
C 50 100 0 
C 75 100 0 
C 100 100 0 
O 58 87 0 
O 67 90 0 
O 25 56 0 
O 72 54 0 
O 58 99 0 
O 63 1 0 
O 63 84 0 
O 62 89 0 
O 36 66 0 
O 30 62 0 
O 40 6 0 
O 52 68 0 
O 46 0 0 
O 58 83 0 
O 45 99 0 
O 45 72 0 
O 58 52 0 
O 54 75 0 
O 61 84 0 
O 39 56 0 
O 14 97 0 
O 58 1 0 
O 98 25 0 
O 97 2 0 
O 39 2 0 
O 67 88 0 
O 53 70 0 
O 61 88 0 
O 82 90 0 
O 38 99 0 
O 6 71 0 
O 85 88 0 
O 32 56 0 
O 66 95 0 
O 70 91 0 
O 33 59 0 
O 93 31 0 
O 77 44 0 
O 80 2 0 
O 66 97 0 
O 52 64 0 
O 50 60 0 
O 95 35 0 
O 70 87 0 
O 10 97 0 
O 53 8 0 
O 59 88 0 
O 71 93 0 
O 35 50 0 
O 56 82 0 
O 68 98 0 
O 30 99 0 
O 99 3 0 
O 58 88 0 
O 1 31 0 
O 62 87 0 
O 73 1 0 
O 1 20 0 
O 98 22 0 
O 85 98 0 
O 80 0 0 
O 96 22 0 
O 14 76 0 
O 99 90 0 
O 89 97 0 
O 44 73 0 
O 80 72 0 
O 50 92 0 
O 26 59 0 
582
Atoms. Timestep: 26
N 13 26 0 
N 74 62 0 
N 92 64 0 
N 5 20 0 
N 4 22 0 
N 27 24 0 
N 2 22 0 
N 14 98 0 
N 1 19 0 
N 23 55 0 
N 70 43 0 
N 24 77 0 
N 33 32 0 
N 94 35 0 
N 45 74 0 
N 33 41 0 
N 26 64 0 
N 69 45 0 
N 26 69 0 
N 44 75 0 
N 95 17 0 
N 94 33 0 
N 25 18 0 
N 94 26 0 
N 25 21 0 
N 18 76 0 
N 30 24 0 
N 4 30 0 
N 37 56 0 
N 75 59 0 
N 4 57 0 
N 21 57 0 
N 89 30 0 
N 53 11 0 
N 35 47 0 
N 97 86 0 
N 71 44 0 
N 65 3 0 
N 4 36 0 
N 86 66 0 
N 57 55 0 
N 41 25 0 
N 45 81 0 
N 68 52 0 
N 45 95 0 
N 29 9 0 
N 81 89 0 
N 19 98 0 
N 39 97 0 
N 93 63 0 
N 37 2 0 
N 64 85 0 
N 10 78 0 
N 66 54 0 
N 94 48 0 
N 5 59 0 
N 56 54 0 
N 10 10 0 
N 94 21 0 
N 38 57 0 
N 89 36 0 
N 2 40 0 
N 33 36 0 
N 56 82 0 
N 20 64 0 
N 98 18 0 
N 31 90 0 
N 85 86 0 
N 34 47 0 
N 80 65 0 
N 66 84 0 
N 16 75 0 
N 57 81 0 
N 71 55 0 
N 85 35 0 
N 12 40 0 
N 18 92 0 
N 4 86 0 
N 40 2 0 
N 93 45 0 
N 36 29 0 
N 6 44 0 
N 75 60 0 
N 77 34 0 
N 6 81 0 
N 14 26 0 
N 53 77 0 
N 41 22 0 
N 22 97 0 
N 8 33 0 
N 51 17 0 
N 95 88 0 
N 66 17 0 
N 10 40 0 
N 80 1 0 
N 76 58 0 
N 40 8 0 
N 81 7 0 
N 7 78 0 
N 1 31 0 
N 57 1 0 
N 58 11 0 
N 8 25 0 
N 44 80 0 
N 15 76 0 
N 37 48 0 
N 40 67 0 
N 90 35 0 
N 25 55 0 
N 80 5 0 
N 4 60 0 
N 57 59 0 
N 87 32 0 
N 28 27 0 
N 45 96 0 
N 86 29 0 
N 87 88 0 
N 62 90 0 
N 74 61 0 
N 87 19 0 
N 47 65 0 
N 24 49 0 
N 66 45 0 
N 19 57 0 
N 93 46 0 
N 10 26 0 
N 90 46 0 
N 24 8 0 
N 23 59 0 
N 63 74 0 
N 55 49 0 
N 30 83 0 
N 78 2 0 
N 72 84 0 
N 89 25 0 
N 73 45 0 
N 93 39 0 
N 21 54 0 
N 49 89 0 
N 71 96 0 
N 36 66 0 
N 60 72 0 
N 38 0 0 
N 30 90 0 
N 56 12 0 
N 86 28 0 
N 18 94 0 
N 4 90 0 
N 73 55 0 
N 17 76 0 
N 96 47 0 
N 71 88 0 
N 98 86 0 
N 51 60 0 
N 23 62 0 
N 35 50 0 
N 20 56 0 
N 9 76 0 
N 1 17 0 
N 53 15 0 
N 66 82 0 
N 30 88 0 
N 26 16 0 
N 97 18 0 
N 91 65 0 
N 25 67 0 
N 32 50 0 
N 11 27 0 
N 68 3 0 
N 12 25 0 
N 91 36 0 
N 57 54 0 
N 13 59 0 
N 93 31 0 
N 30 17 0 
N 35 27 0 
N 72 94 0 
N 39 98 0 
N 23 56 0 
N 51 92 0 
N 97 85 0 
N 8 27 0 
N 11 32 0 
N 27 16 0 
N 91 22 0 
N 88 3 0 
N 98 88 0 
N 7 80 0 
N 29 33 0 
N 68 39 0 
N 96 51 0 
N 88 32 0 
N 14 78 0 
N 8 72 0 
N 24 25 0 
N 32 31 0 
N 72 3 0 
N 3 62 0 
N 60 11 0 
N 26 14 0 
N 88 66 0 
N 58 14 0 
N 38 94 0 
N 67 19 0 
N 96 19 0 
N 90 98 0 
N 89 96 0 
N 7 77 0 
N 65 6 0 
N 3 32 0 
N 1 50 0 
N 83 64 0 
N 86 88 0 
N 32 90 0 
N 72 53 0 
N 77 45 0 
N 9 4 0 
N 74 52 0 
N 44 98 0 
N 32 47 0 
N 78 42 0 
N 88 67 0 
N 64 11 0 
N 96 83 0 
N 55 75 0 
N 6 77 0 
N 91 35 0 
N 32 91 0 
N 25 61 0 
N 79 72 0 
N 34 44 0 
N 79 43 0 
N 42 89 0 
N 70 88 0 
N 65 17 0 
N 83 15 0 
N 16 10 0 
N 5 46 0 
N 53 29 0 
N 58 47 0 
N 94 30 0 
N 10 31 0 
N 40 7 0 
N 83 45 0 
N 20 58 0 
N 93 2 0 
N 25 65 0 
N 76 57 0 
N 23 15 0 
N 45 70 0 
N 75 61 0 
N 73 65 0 
N 6 73 0 
N 74 60 0 
N 15 74 0 
N 31 91 0 
N 0 18 0 
N 45 6 0 
N 72 54 0 
N 35 12 0 
N 83 2 0 
N 56 53 0 
N 71 85 0 
N 89 97 0 
N 59 20 0 
N 7 99 0 
N 88 88 0 
N 74 57 0 
N 3 41 0 
N 53 75 0 
N 53 14 0 
N 70 45 0 
N 73 54 0 
N 94 2 0 
N 93 28 0 
N 32 32 0 
N 24 9 0 
N 41 7 0 
N 99 84 0 
N 96 20 0 
N 66 15 0 
N 72 93 0 
N 9 99 0 
N 68 51 0 
N 18 93 0 
N 79 3 0 
N 14 6 0 
N 53 13 0 
N 35 42 0 
N 20 76 0 
N 36 34 0 
N 24 64 0 
N 97 47 0 
N 48 89 0 
N 65 18 0 
N 6 97 0 
N 72 58 0 
N 52 77 0 
N 30 62 0 
N 82 2 0 
N 34 29 0 
N 66 83 0 
N 58 0 0 
N 91 63 0 
N 10 77 0 
N 41 6 0 
N 8 39 0 
N 16 80 0 
N 54 7 0 
N 57 99 0 
N 41 66 0 
N 60 10 0 
N 37 25 0 
N 94 19 0 
N 23 58 0 
N 22 76 0 
N 66 13 0 
N 38 48 0 
N 9 7 0 
N 85 85 0 
N 94 31 0 
N 54 26 0 
N 54 74 0 
N 26 58 0 
N 40 98 0 
N 95 49 0 
N 36 67 0 
N 41 40 0 
N 49 26 0 
N 35 28 0 
N 68 21 0 
N 45 89 0 
N 71 94 0 
N 47 86 0 
N 31 6 0 
N 73 0 0 
N 20 94 0 
N 51 29 0 
N 6 72 0 
N 70 87 0 
N 97 49 0 
N 17 93 0 
N 42 65 0 
N 14 28 0 
N 72 63 0 
N 35 36 0 
N 95 51 0 
N 58 54 0 
N 32 48 0 
N 3 21 0 
N 38 56 0 
N 67 18 0 
N 72 65 0 
N 45 73 0 
N 59 3 0 
N 92 37 0 
N 2 33 0 
N 70 46 0 
N 31 84 0 
N 88 35 0 
N 38 98 0 
N 72 59 0 
N 70 89 0 
N 36 49 0 
N 77 44 0 
N 4 3 0 
N 14 8 0 
N 65 83 0 
N 11 26 0 
N 19 55 0 
N 2 88 0 
N 86 84 0 
N 30 23 0 
N 67 44 0 
N 45 68 0 
N 73 58 0 
N 31 49 0 
N 54 15 0 
N 24 45 0 
N 59 99 0 
N 91 38 0 
N 58 98 0 
N 35 59 0 
N 34 32 0 
N 50 54 0 
N 57 16 0 
N 23 13 0 
N 82 73 0 
N 37 38 0 
N 12 9 0 
N 30 6 0 
N 73 2 0 
N 40 50 0 
N 41 50 0 
N 8 30 0 
N 67 83 0 
N 32 33 0 
N 89 85 0 
N 1 48 0 
N 53 7 0 
N 85 31 0 
N 13 25 0 
N 86 82 0 
N 40 56 0 
N 58 3 0 
N 52 13 0 
N 54 78 0 
N 89 72 0 
N 28 18 0 
N 33 58 0 
N 73 57 0 
N 82 44 0 
N 87 33 0 
N 90 63 0 
N 70 82 0 
N 37 85 0 
N 93 38 0 
N 60 17 0 
N 34 30 0 
N 15 72 0 
N 2 46 0 
N 24 56 0 
N 33 50 0 
N 67 53 0 
N 52 12 0 
N 85 27 0 
N 85 65 0 
N 58 96 0 
N 65 19 0 
N 93 37 0 
N 70 30 0 
N 34 89 0 
N 24 59 0 
N 50 12 0 
N 10 28 0 
N 57 48 0 
N 5 39 0 
N 1 22 0 
N 34 50 0 
N 98 81 0 
N 38 93 0 
N 93 34 0 
N 93 17 0 
N 10 36 0 
N 59 16 0 
N 33 6 0 
N 38 91 0 
N 58 53 0 
N 78 4 0 
N 75 43 0 
N 35 33 0 
N 63 85 0 
N 21 31 0 
N 24 54 0 
N 90 19 0 
N 1 20 0 
N 61 56 0 
N 81 2 0 
N 25 8 0 
N 30 18 0 
N 88 29 0 
N 1 90 0 
N 25 56 0 
N 58 69 0 
N 36 50 0 
N 0 90 0 
N 97 87 0 
N 56 18 0 
N 26 65 0 
N 67 91 0 
N 94 47 0 
N 56 50 0 
N 30 61 0 
N 21 55 0 
N 72 2 0 
N 70 60 0 
N 96 81 0 
N 74 55 0 
N 32 4 0 
N 68 44 0 
N 30 50 0 
N 55 82 0 
N 3 57 0 
N 80 63 0 
N 51 68 0 
N 6 80 0 
N 32 55 0 
N 84 54 0 
N 29 12 0 
N 69 51 0 
N 40 24 0 
N 96 16 0 
N 71 43 0 
N 12 31 0 
N 6 69 0 
N 68 6 0 
N 59 96 0 
N 18 56 0 
N 95 13 0 
N 67 80 0 
C 0 0 0 
C 25 0 0 
C 50 0 0 
C 75 0 0 
C 100 0 0 
C 0 25 0 
C 25 25 0 
C 50 25 0 
C 75 25 0 
C 100 25 0 
C 0 50 0 
C 25 50 0 
C 50 50 0 
C 75 50 0 
C 100 50 0 
C 0 75 0 
C 25 75 0 
C 50 75 0 
C 75 75 0 
C 100 75 0 
C 0 100 0 
C 25 100 0 
C 50 100 0 
C 75 100 0 
C 100 100 0 
O 59 87 0 
O 66 90 0 
O 58 99 0 
O 62 1 0 
O 63 83 0 
O 63 89 0 
O 40 5 0 
O 52 69 0 
O 46 99 0 
O 58 84 0 
O 45 98 0 
O 45 71 0 
O 58 51 0 
O 54 76 0 
O 61 83 0 
O 39 57 0 
O 14 96 0 
O 59 1 0 
O 98 24 0 
O 96 2 0 
O 38 2 0 
O 67 87 0 
O 54 70 0 
O 60 88 0 
O 82 91 0 
O 37 99 0 
O 6 70 0 
O 84 88 0 
O 32 57 0 
O 67 95 0 
O 69 91 0 
O 34 59 0 
O 80 3 0 
O 65 97 0 
O 52 65 0 
O 50 59 0 
O 95 36 0 
O 11 97 0 
O 52 8 0 
O 59 89 0 
O 70 93 0 
O 68 97 0 
O 30 98 0 
O 99 2 0 
O 57 88 0 
O 61 87 0 
O 72 1 0 
O 98 23 0 
O 84 98 0 
O 79 0 0 
O 96 21 0 
O 14 77 0 
O 98 90 0 
O 44 74 0 
O 80 73 0 
O 50 93 0 
O 26 60 0 
570
Atoms. Timestep: 27
N 14 26 0 
N 75 62 0 
N 92 65 0 
N 6 20 0 
N 5 22 0 
N 28 24 0 
N 2 23 0 
N 14 97 0 
N 2 19 0 
N 23 56 0 
N 69 43 0 
N 25 77 0 
N 33 33 0 
N 94 36 0 
N 45 75 0 
N 33 42 0 
N 26 63 0 
N 69 45 0 
N 26 68 0 
N 44 74 0 
N 95 18 0 
N 95 33 0 
N 26 18 0 
N 94 25 0 
N 25 22 0 
N 18 77 0 
N 30 25 0 
N 5 30 0 
N 37 57 0 
N 76 59 0 
N 4 58 0 
N 21 58 0 
N 90 30 0 
N 53 10 0 
N 35 48 0 
N 97 87 0 
N 70 44 0 
N 64 3 0 
N 5 36 0 
N 86 67 0 
N 58 55 0 
N 40 25 0 
N 45 80 0 
N 68 51 0 
N 45 96 0 
N 30 9 0 
N 82 89 0 
N 18 98 0 
N 39 98 0 
N 93 64 0 
N 38 2 0 
N 64 84 0 
N 10 79 0 
N 65 54 0 
N 94 47 0 
N 6 59 0 
N 57 54 0 
N 10 11 0 
N 94 22 0 
N 39 57 0 
N 89 36 0 
N 2 39 0 
N 32 36 0 
N 56 83 0 
N 20 63 0 
N 98 19 0 
N 31 91 0 
N 85 85 0 
N 33 47 0 
N 80 66 0 
N 65 84 0 
N 16 76 0 
N 57 82 0 
N 70 55 0 
N 85 36 0 
N 13 40 0 
N 17 92 0 
N 4 87 0 
N 39 2 0 
N 93 44 0 
N 37 29 0 
N 7 44 0 
N 76 60 0 
N 77 35 0 
N 7 81 0 
N 15 26 0 
N 53 77 0 
N 40 22 0 
N 22 96 0 
N 8 34 0 
N 51 16 0 
N 95 89 0 
N 66 16 0 
N 11 40 0 
N 79 1 0 
N 77 58 0 
N 40 8 0 
N 80 7 0 
N 8 78 0 
N 2 31 0 
N 58 1 0 
N 57 11 0 
N 9 25 0 
N 44 79 0 
N 14 76 0 
N 37 49 0 
N 39 67 0 
N 90 36 0 
N 26 55 0 
N 80 4 0 
N 5 60 0 
N 56 59 0 
N 88 32 0 
N 28 26 0 
N 45 97 0 
N 86 30 0 
N 87 89 0 
N 63 90 0 
N 75 61 0 
N 88 19 0 
N 48 65 0 
N 25 49 0 
N 66 46 0 
N 20 57 0 
N 93 46 0 
N 10 25 0 
N 90 45 0 
N 24 9 0 
N 23 60 0 
N 63 75 0 
N 55 50 0 
N 30 83 0 
N 78 1 0 
N 72 85 0 
N 89 24 0 
N 73 46 0 
N 94 39 0 
N 22 54 0 
N 49 90 0 
N 71 95 0 
N 37 66 0 
N 60 71 0 
N 38 1 0 
N 30 90 0 
N 56 11 0 
N 86 27 0 
N 18 95 0 
N 5 90 0 
N 72 55 0 
N 17 77 0 
N 96 46 0 
N 70 88 0 
N 98 86 0 
N 50 60 0 
N 23 61 0 
N 34 50 0 
N 21 56 0 
N 10 76 0 
N 2 17 0 
N 53 14 0 
N 65 82 0 
N 30 89 0 
N 27 16 0 
N 97 18 0 
N 91 66 0 
N 26 67 0 
N 32 51 0 
N 11 26 0 
N 68 4 0 
N 13 25 0 
N 92 36 0 
N 58 54 0 
N 13 60 0 
N 93 32 0 
N 30 18 0 
N 35 26 0 
N 71 94 0 
N 38 98 0 
N 24 56 0 
N 50 92 0 
N 98 85 0 
N 7 27 0 
N 12 32 0 
N 27 17 0 
N 91 23 0 
N 89 3 0 
N 98 89 0 
N 8 80 0 
N 30 33 0 
N 67 39 0 
N 96 50 0 
N 88 33 0 
N 14 77 0 
N 9 72 0 
N 24 24 0 
N 32 32 0 
N 71 3 0 
N 4 62 0 
N 60 10 0 
N 26 15 0 
N 88 67 0 
N 58 13 0 
N 38 95 0 
N 66 19 0 
N 97 19 0 
N 89 98 0 
N 88 96 0 
N 8 77 0 
N 65 5 0 
N 4 32 0 
N 1 49 0 
N 83 65 0 
N 85 88 0 
N 32 91 0 
N 72 52 0 
N 77 46 0 
N 9 5 0 
N 73 52 0 
N 45 98 0 
N 32 48 0 
N 79 42 0 
N 87 67 0 
N 64 10 0 
N 97 83 0 
N 55 76 0 
N 6 78 0 
N 92 35 0 
N 32 92 0 
N 25 60 0 
N 79 73 0 
N 33 44 0 
N 80 43 0 
N 43 89 0 
N 70 87 0 
N 65 16 0 
N 83 16 0 
N 15 10 0 
N 6 46 0 
N 53 28 0 
N 58 48 0 
N 94 31 0 
N 11 31 0 
N 40 7 0 
N 84 45 0 
N 19 58 0 
N 94 2 0 
N 25 64 0 
N 77 57 0 
N 23 16 0 
N 45 71 0 
N 76 61 0 
N 74 65 0 
N 6 74 0 
N 74 60 0 
N 15 75 0 
N 30 91 0 
N 1 18 0 
N 44 6 0 
N 71 54 0 
N 35 11 0 
N 84 2 0 
N 57 53 0 
N 70 85 0 
N 88 97 0 
N 59 19 0 
N 7 98 0 
N 88 88 0 
N 74 56 0 
N 3 40 0 
N 53 76 0 
N 52 14 0 
N 70 46 0 
N 73 53 0 
N 94 1 0 
N 93 27 0 
N 32 33 0 
N 24 10 0 
N 41 6 0 
N 99 85 0 
N 96 21 0 
N 66 14 0 
N 72 93 0 
N 9 98 0 
N 67 51 0 
N 17 93 0 
N 80 3 0 
N 14 7 0 
N 53 12 0 
N 34 42 0 
N 20 77 0 
N 36 35 0 
N 24 63 0 
N 97 46 0 
N 48 90 0 
N 64 18 0 
N 7 97 0 
N 71 58 0 
N 52 76 0 
N 30 61 0 
N 81 2 0 
N 34 28 0 
N 65 83 0 
N 59 0 0 
N 91 64 0 
N 11 77 0 
N 40 6 0 
N 8 38 0 
N 16 79 0 
N 54 8 0 
N 57 98 0 
N 41 67 0 
N 59 10 0 
N 36 25 0 
N 94 20 0 
N 24 58 0 
N 22 77 0 
N 66 12 0 
N 38 49 0 
N 10 7 0 
N 84 85 0 
N 94 32 0 
N 54 25 0 
N 54 75 0 
N 26 59 0 
N 40 99 0 
N 95 48 0 
N 35 67 0 
N 40 40 0 
N 49 25 0 
N 36 28 0 
N 68 22 0 
N 45 90 0 
N 71 93 0 
N 48 86 0 
N 31 7 0 
N 74 0 0 
N 19 94 0 
N 52 29 0 
N 7 72 0 
N 69 87 0 
N 97 48 0 
N 17 94 0 
N 43 65 0 
N 14 27 0 
N 72 64 0 
N 35 37 0 
N 95 50 0 
N 58 53 0 
N 32 49 0 
N 3 22 0 
N 39 56 0 
N 67 17 0 
N 72 66 0 
N 45 72 0 
N 59 2 0 
N 93 37 0 
N 2 34 0 
N 69 46 0 
N 30 84 0 
N 88 36 0 
N 37 98 0 
N 71 59 0 
N 70 90 0 
N 36 50 0 
N 76 44 0 
N 4 2 0 
N 14 9 0 
N 64 83 0 
N 11 25 0 
N 19 56 0 
N 2 87 0 
N 86 85 0 
N 30 23 0 
N 67 45 0 
N 45 69 0 
N 73 57 0 
N 31 50 0 
N 54 14 0 
N 25 45 0 
N 59 98 0 
N 91 37 0 
N 58 99 0 
N 34 59 0 
N 34 32 0 
N 50 55 0 
N 57 15 0 
N 23 14 0 
N 81 73 0 
N 38 38 0 
N 11 9 0 
N 30 7 0 
N 74 2 0 
N 39 50 0 
N 41 51 0 
N 9 30 0 
N 67 83 0 
N 32 34 0 
N 89 86 0 
N 1 47 0 
N 52 7 0 
N 85 32 0 
N 14 25 0 
N 85 82 0 
N 40 57 0 
N 58 2 0 
N 52 12 0 
N 54 77 0 
N 88 72 0 
N 29 18 0 
N 33 57 0 
N 72 57 0 
N 81 44 0 
N 87 34 0 
N 89 63 0 
N 70 83 0 
N 37 86 0 
N 94 38 0 
N 60 16 0 
N 33 30 0 
N 14 72 0 
N 2 45 0 
N 24 57 0 
N 33 51 0 
N 67 52 0 
N 52 11 0 
N 85 26 0 
N 85 66 0 
N 58 97 0 
N 64 19 0 
N 94 37 0 
N 70 29 0 
N 34 90 0 
N 24 60 0 
N 50 11 0 
N 10 27 0 
N 57 49 0 
N 5 38 0 
N 1 23 0 
N 34 51 0 
N 98 82 0 
N 37 93 0 
N 94 34 0 
N 94 17 0 
N 11 36 0 
N 59 15 0 
N 34 6 0 
N 37 91 0 
N 58 52 0 
N 79 4 0 
N 74 43 0 
N 34 33 0 
N 63 84 0 
N 22 31 0 
N 24 55 0 
N 90 20 0 
N 1 21 0 
N 61 55 0 
N 80 2 0 
N 26 8 0 
N 30 19 0 
N 88 30 0 
N 2 90 0 
N 26 56 0 
N 58 68 0 
N 36 51 0 
N 0 90 0 
N 98 87 0 
N 55 18 0 
N 26 65 0 
N 67 90 0 
N 94 46 0 
N 56 51 0 
N 30 60 0 
N 22 55 0 
N 72 1 0 
N 69 60 0 
N 97 81 0 
N 74 54 0 
N 32 3 0 
N 68 45 0 
N 30 51 0 
N 55 83 0 
N 3 58 0 
N 80 64 0 
N 52 68 0 
N 6 79 0 
N 32 56 0 
N 84 55 0 
N 29 13 0 
N 69 51 0 
N 41 24 0 
N 96 17 0 
N 71 43 0 
N 12 30 0 
N 6 70 0 
N 68 7 0 
N 59 97 0 
N 18 57 0 
N 95 14 0 
N 67 81 0 
C 0 0 0 
C 25 0 0 
C 50 0 0 
C 75 0 0 
C 100 0 0 
C 0 25 0 
C 25 25 0 
C 50 25 0 
C 75 25 0 
C 100 25 0 
C 0 50 0 
C 25 50 0 
C 50 50 0 
C 75 50 0 
C 100 50 0 
C 0 75 0 
C 25 75 0 
C 50 75 0 
C 75 75 0 
C 100 75 0 
C 0 100 0 
C 25 100 0 
C 50 100 0 
C 75 100 0 
C 100 100 0 
O 58 87 0 
O 66 91 0 
O 61 1 0 
O 62 83 0 
O 64 89 0 
O 39 5 0 
O 53 69 0 
O 47 99 0 
O 58 85 0 
O 57 51 0 
O 54 76 0 
O 61 84 0 
O 14 95 0 
O 60 1 0 
O 99 24 0 
O 95 2 0 
O 67 86 0 
O 54 69 0 
O 61 88 0 
O 81 91 0 
O 36 99 0 
O 84 89 0 
O 31 57 0 
O 67 96 0 
O 68 91 0 
O 65 98 0 
O 52 66 0 
O 49 59 0 
O 95 37 0 
O 10 97 0 
O 51 8 0 
O 60 89 0 
O 70 92 0 
O 68 96 0 
O 30 99 0 
O 0 2 0 
O 57 87 0 
O 61 86 0 
O 97 23 0 
O 84 99 0 
O 78 0 0 
O 97 90 0 
O 80 74 0 
O 51 93 0 
O 26 61 0 
565
Atoms. Timestep: 28
N 15 26 0 
N 76 62 0 
N 91 65 0 
N 6 21 0 
N 5 23 0 
N 28 25 0 
N 3 23 0 
N 14 96 0 
N 3 19 0 
N 24 56 0 
N 69 44 0 
N 26 77 0 
N 33 34 0 
N 94 35 0 
N 45 74 0 
N 34 42 0 
N 26 62 0 
N 69 46 0 
N 26 67 0 
N 44 73 0 
N 95 19 0 
N 96 33 0 
N 26 19 0 
N 94 24 0 
N 25 23 0 
N 17 77 0 
N 30 26 0 
N 5 29 0 
N 36 57 0 
N 76 60 0 
N 4 59 0 
N 20 58 0 
N 91 30 0 
N 53 9 0 
N 35 49 0 
N 96 87 0 
N 70 45 0 
N 63 3 0 
N 5 35 0 
N 86 68 0 
N 58 56 0 
N 40 26 0 
N 46 80 0 
N 67 51 0 
N 45 97 0 
N 30 10 0 
N 83 89 0 
N 17 98 0 
N 38 98 0 
N 92 64 0 
N 39 2 0 
N 63 84 0 
N 10 80 0 
N 64 54 0 
N 94 48 0 
N 7 59 0 
N 57 55 0 
N 10 12 0 
N 94 23 0 
N 38 57 0 
N 90 36 0 
N 3 39 0 
N 31 36 0 
N 56 84 0 
N 21 63 0 
N 98 20 0 
N 31 91 0 
N 84 85 0 
N 32 47 0 
N 80 67 0 
N 65 83 0 
N 16 76 0 
N 57 83 0 
N 69 55 0 
N 86 36 0 
N 14 40 0 
N 16 92 0 
N 5 87 0 
N 39 3 0 
N 94 44 0 
N 37 28 0 
N 7 43 0 
N 77 60 0 
N 76 35 0 
N 7 82 0 
N 15 25 0 
N 53 76 0 
N 40 21 0 
N 22 95 0 
N 9 34 0 
N 51 15 0 
N 95 90 0 
N 67 16 0 
N 11 39 0 
N 80 1 0 
N 78 58 0 
N 40 7 0 
N 80 8 0 
N 9 78 0 
N 3 31 0 
N 58 1 0 
N 56 11 0 
N 9 24 0 
N 44 78 0 
N 14 77 0 
N 36 49 0 
N 39 66 0 
N 90 35 0 
N 26 56 0 
N 79 4 0 
N 6 60 0 
N 55 59 0 
N 89 32 0 
N 29 26 0 
N 46 97 0 
N 86 29 0 
N 86 89 0 
N 64 90 0 
N 76 61 0 
N 88 20 0 
N 49 65 0 
N 26 49 0 
N 65 46 0 
N 21 57 0 
N 94 46 0 
N 10 24 0 
N 90 44 0 
N 25 9 0 
N 24 60 0 
N 62 75 0 
N 55 51 0 
N 30 84 0 
N 78 0 0 
N 72 86 0 
N 90 24 0 
N 72 46 0 
N 94 38 0 
N 21 54 0 
N 49 91 0 
N 71 94 0 
N 37 65 0 
N 59 71 0 
N 37 1 0 
N 30 91 0 
N 55 11 0 
N 87 27 0 
N 18 95 0 
N 6 90 0 
N 71 55 0 
N 16 77 0 
N 97 46 0 
N 70 89 0 
N 97 86 0 
N 49 60 0 
N 23 61 0 
N 34 51 0 
N 22 56 0 
N 10 77 0 
N 2 18 0 
N 53 13 0 
N 64 82 0 
N 30 89 0 
N 28 16 0 
N 97 19 0 
N 90 66 0 
N 26 66 0 
N 32 52 0 
N 11 25 0 
N 68 5 0 
N 14 25 0 
N 92 35 0 
N 58 54 0 
N 14 60 0 
N 94 32 0 
N 30 19 0 
N 35 25 0 
N 70 94 0 
N 38 99 0 
N 25 56 0 
N 51 92 0 
N 97 85 0 
N 7 26 0 
N 13 32 0 
N 28 17 0 
N 92 23 0 
N 88 3 0 
N 97 89 0 
N 9 80 0 
N 31 33 0 
N 68 39 0 
N 96 49 0 
N 89 33 0 
N 14 78 0 
N 9 73 0 
N 25 24 0 
N 31 32 0 
N 71 4 0 
N 5 62 0 
N 60 9 0 
N 26 16 0 
N 88 68 0 
N 57 13 0 
N 38 96 0 
N 66 20 0 
N 97 20 0 
N 88 98 0 
N 88 97 0 
N 9 77 0 
N 65 6 0 
N 4 31 0 
N 1 48 0 
N 82 65 0 
N 85 89 0 
N 32 92 0 
N 71 52 0 
N 78 46 0 
N 9 6 0 
N 73 53 0 
N 46 98 0 
N 31 48 0 
N 78 42 0 
N 87 68 0 
N 64 9 0 
N 97 84 0 
N 55 75 0 
N 6 79 0 
N 93 35 0 
N 31 92 0 
N 25 61 0 
N 79 74 0 
N 33 45 0 
N 80 42 0 
N 44 89 0 
N 69 87 0 
N 65 17 0 
N 84 16 0 
N 15 11 0 
N 7 46 0 
N 53 27 0 
N 57 48 0 
N 94 30 0 
N 12 31 0 
N 39 7 0 
N 84 46 0 
N 19 59 0 
N 95 2 0 
N 25 64 0 
N 78 57 0 
N 23 15 0 
N 46 71 0 
N 77 61 0 
N 74 66 0 
N 7 74 0 
N 74 61 0 
N 15 76 0 
N 30 92 0 
N 1 19 0 
N 44 5 0 
N 70 54 0 
N 36 11 0 
N 84 3 0 
N 56 53 0 
N 69 85 0 
N 87 97 0 
N 60 19 0 
N 7 99 0 
N 87 88 0 
N 74 57 0 
N 4 40 0 
N 53 75 0 
N 51 14 0 
N 71 46 0 
N 73 54 0 
N 95 1 0 
N 93 26 0 
N 32 34 0 
N 25 10 0 
N 41 5 0 
N 99 86 0 
N 97 21 0 
N 65 14 0 
N 71 93 0 
N 10 98 0 
N 67 52 0 
N 16 93 0 
N 81 3 0 
N 14 8 0 
N 53 11 0 
N 34 43 0 
N 20 76 0 
N 36 36 0 
N 25 63 0 
N 97 45 0 
N 48 91 0 
N 64 17 0 
N 8 97 0 
N 70 58 0 
N 52 75 0 
N 29 61 0 
N 81 1 0 
N 35 28 0 
N 64 83 0 
N 59 1 0 
N 90 64 0 
N 12 77 0 
N 39 6 0 
N 8 37 0 
N 16 80 0 
N 53 8 0 
N 58 98 0 
N 41 66 0 
N 59 9 0 
N 36 24 0 
N 95 20 0 
N 24 59 0 
N 22 76 0 
N 66 13 0 
N 38 49 0 
N 10 8 0 
N 84 84 0 
N 95 32 0 
N 53 25 0 
N 54 74 0 
N 26 60 0 
N 39 99 0 
N 96 48 0 
N 34 67 0 
N 40 41 0 
N 49 24 0 
N 36 27 0 
N 68 23 0 
N 46 90 0 
N 70 93 0 
N 49 86 0 
N 31 8 0 
N 74 0 0 
N 18 94 0 
N 53 29 0 
N 8 72 0 
N 68 87 0 
N 97 47 0 
N 17 95 0 
N 43 66 0 
N 15 27 0 
N 72 65 0 
N 34 37 0 
N 95 49 0 
N 58 53 0 
N 31 49 0 
N 4 22 0 
N 38 56 0 
N 67 18 0 
N 72 67 0 
N 46 72 0 
N 60 2 0 
N 93 36 0 
N 3 34 0 
N 69 47 0 
N 30 85 0 
N 88 35 0 
N 36 98 0 
N 70 59 0 
N 70 91 0 
N 35 50 0 
N 77 44 0 
N 3 2 0 
N 14 10 0 
N 63 83 0 
N 11 24 0 
N 20 56 0 
N 3 87 0 
N 86 86 0 
N 30 24 0 
N 66 45 0 
N 46 69 0 
N 73 58 0 
N 31 50 0 
N 54 13 0 
N 26 45 0 
N 60 98 0 
N 92 37 0 
N 59 99 0 
N 33 59 0 
N 34 33 0 
N 49 55 0 
N 56 15 0 
N 24 14 0 
N 80 73 0 
N 37 38 0 
N 11 10 0 
N 30 8 0 
N 75 2 0 
N 38 50 0 
N 41 52 0 
N 10 30 0 
N 67 84 0 
N 31 34 0 
N 88 86 0 
N 1 46 0 
N 51 7 0 
N 86 32 0 
N 14 24 0 
N 85 83 0 
N 40 57 0 
N 58 2 0 
N 52 11 0 
N 54 76 0 
N 87 72 0 
N 29 19 0 
N 33 57 0 
N 72 58 0 
N 81 45 0 
N 88 34 0 
N 88 63 0 
N 69 83 0 
N 37 87 0 
N 94 37 0 
N 60 15 0 
N 32 30 0 
N 14 73 0 
N 2 44 0 
N 25 57 0 
N 33 52 0 
N 66 52 0 
N 52 10 0 
N 85 25 0 
N 85 67 0 
N 57 97 0 
N 63 19 0 
N 95 37 0 
N 69 29 0 
N 35 90 0 
N 24 61 0 
N 51 11 0 
N 10 26 0 
N 57 50 0 
N 5 37 0 
N 1 24 0 
N 34 52 0 
N 98 83 0 
N 36 93 0 
N 95 34 0 
N 95 17 0 
N 12 36 0 
N 59 14 0 
N 35 6 0 
N 38 91 0 
N 57 52 0 
N 79 3 0 
N 75 43 0 
N 34 34 0 
N 62 84 0 
N 23 31 0 
N 25 55 0 
N 91 20 0 
N 2 21 0 
N 60 55 0 
N 79 2 0 
N 27 8 0 
N 30 20 0 
N 89 30 0 
N 3 90 0 
N 26 57 0 
N 57 68 0 
N 35 51 0 
N 1 90 0 
N 98 88 0 
N 54 18 0 
N 26 64 0 
N 67 91 0 
N 95 46 0 
N 57 51 0 
N 31 60 0 
N 23 55 0 
N 73 1 0 
N 68 60 0 
N 97 82 0 
N 74 53 0 
N 32 4 0 
N 68 46 0 
N 31 51 0 
N 55 84 0 
N 3 59 0 
N 80 65 0 
N 53 68 0 
N 6 80 0 
N 32 57 0 
N 84 56 0 
N 30 13 0 
N 69 51 0 
N 41 23 0 
N 96 18 0 
N 70 43 0 
N 13 30 0 
N 6 71 0 
N 68 8 0 
N 60 97 0 
N 19 57 0 
N 95 15 0 
N 67 82 0 
C 0 0 0 
C 25 0 0 
C 50 0 0 
C 75 0 0 
C 100 0 0 
C 0 25 0 
C 25 25 0 
C 50 25 0 
C 75 25 0 
C 100 25 0 
C 0 50 0 
C 25 50 0 
C 50 50 0 
C 75 50 0 
C 100 50 0 
C 0 75 0 
C 25 75 0 
C 50 75 0 
C 75 75 0 
C 100 75 0 
C 0 100 0 
C 25 100 0 
C 50 100 0 
C 75 100 0 
C 100 100 0 
O 58 88 0 
O 65 91 0 
O 60 1 0 
O 62 82 0 
O 64 88 0 
O 39 4 0 
O 54 69 0 
O 47 0 0 
O 57 85 0 
O 60 84 0 
O 13 95 0 
O 60 0 0 
O 98 24 0 
O 67 87 0 
O 54 68 0 
O 60 88 0 
O 80 91 0 
O 37 99 0 
O 84 88 0 
O 30 57 0 
O 67 97 0 
O 68 92 0 
O 64 98 0 
O 51 66 0 
O 50 59 0 
O 10 96 0 
O 51 9 0 
O 61 89 0 
O 69 92 0 
O 69 96 0 
O 30 0 0 
O 99 2 0 
O 56 87 0 
O 61 85 0 
O 97 22 0 
O 83 99 0 
O 97 91 0 
O 81 74 0 
O 50 93 0 
O 27 61 0 
559
Atoms. Timestep: 29
N 15 25 0 
N 77 62 0 
N 91 66 0 
N 7 21 0 
N 6 23 0 
N 28 24 0 
N 4 23 0 
N 14 95 0 
N 4 19 0 
N 25 56 0 
N 68 44 0 
N 26 76 0 
N 33 35 0 
N 95 35 0 
N 46 74 0 
N 33 42 0 
N 27 62 0 
N 69 47 0 
N 27 67 0 
N 45 73 0 
N 95 20 0 
N 97 33 0 
N 27 19 0 
N 94 25 0 
N 26 23 0 
N 17 78 0 
N 30 25 0 
N 4 29 0 
N 35 57 0 
N 77 60 0 
N 3 59 0 
N 21 58 0 
N 91 29 0 
N 53 9 0 
N 34 49 0 
N 96 88 0 
N 69 45 0 
N 63 2 0 
N 5 34 0 
N 86 69 0 
N 58 57 0 
N 41 26 0 
N 47 80 0 
N 67 52 0 
N 46 97 0 
N 31 10 0 
N 83 88 0 
N 17 97 0 
N 38 98 0 
N 92 65 0 
N 40 2 0 
N 62 84 0 
N 10 81 0 
N 65 54 0 
N 94 47 0 
N 8 59 0 
N 57 56 0 
N 10 13 0 
N 95 23 0 
N 37 57 0 
N 90 35 0 
N 3 38 0 
N 30 36 0 
N 56 85 0 
N 21 62 0 
N 98 21 0 
N 30 91 0 
N 84 86 0 
N 31 47 0 
N 80 68 0 
N 64 83 0 
N 15 76 0 
N 57 84 0 
N 68 55 0 
N 87 36 0 
N 15 40 0 
N 15 92 0 
N 6 87 0 
N 39 4 0 
N 95 44 0 
N 38 28 0 
N 8 43 0 
N 78 60 0 
N 76 34 0 
N 8 82 0 
N 16 25 0 
N 53 75 0 
N 39 21 0 
N 21 95 0 
N 9 33 0 
N 51 14 0 
N 96 90 0 
N 67 17 0 
N 11 38 0 
N 81 1 0 
N 77 58 0 
N 39 7 0 
N 81 8 0 
N 9 79 0 
N 4 31 0 
N 59 1 0 
N 56 10 0 
N 10 24 0 
N 45 78 0 
N 14 78 0 
N 36 50 0 
N 40 66 0 
N 91 35 0 
N 27 56 0 
N 79 5 0 
N 6 61 0 
N 54 59 0 
N 90 32 0 
N 29 27 0 
N 46 96 0 
N 87 29 0 
N 85 89 0 
N 63 90 0 
N 77 61 0 
N 89 20 0 
N 49 66 0 
N 27 49 0 
N 64 46 0 
N 21 57 0 
N 95 46 0 
N 10 25 0 
N 90 43 0 
N 26 9 0 
N 25 60 0 
N 62 76 0 
N 55 52 0 
N 30 83 0 
N 79 0 0 
N 72 87 0 
N 91 24 0 
N 73 46 0 
N 95 38 0 
N 21 55 0 
N 50 91 0 
N 70 94 0 
N 37 64 0 
N 58 71 0 
N 37 2 0 
N 30 90 0 
N 54 11 0 
N 88 27 0 
N 17 95 0 
N 6 91 0 
N 71 56 0 
N 15 77 0 
N 98 46 0 
N 70 90 0 
N 97 87 0 
N 49 59 0 
N 23 61 0 
N 33 51 0 
N 22 57 0 
N 10 78 0 
N 3 18 0 
N 52 13 0 
N 64 82 0 
N 30 88 0 
N 28 15 0 
N 98 19 0 
N 90 67 0 
N 27 66 0 
N 32 53 0 
N 11 24 0 
N 68 6 0 
N 14 24 0 
N 92 34 0 
N 58 55 0 
N 14 61 0 
N 95 32 0 
N 30 18 0 
N 36 25 0 
N 69 94 0 
N 37 99 0 
N 25 57 0 
N 50 92 0 
N 97 85 0 
N 7 25 0 
N 13 31 0 
N 29 17 0 
N 92 24 0 
N 87 3 0 
N 97 90 0 
N 9 81 0 
N 32 33 0 
N 68 40 0 
N 96 48 0 
N 90 33 0 
N 15 78 0 
N 9 74 0 
N 26 24 0 
N 30 32 0 
N 70 4 0 
N 5 61 0 
N 60 8 0 
N 27 16 0 
N 88 67 0 
N 57 12 0 
N 38 97 0 
N 67 20 0 
N 97 21 0 
N 88 99 0 
N 87 97 0 
N 9 77 0 
N 65 7 0 
N 4 30 0 
N 1 47 0 
N 82 66 0 
N 84 89 0 
N 32 91 0 
N 71 53 0 
N 79 46 0 
N 10 6 0 
N 72 53 0 
N 47 98 0 
N 31 49 0 
N 79 42 0 
N 87 69 0 
N 64 10 0 
N 97 84 0 
N 55 74 0 
N 7 79 0 
N 93 34 0 
N 31 92 0 
N 25 61 0 
N 79 74 0 
N 33 46 0 
N 81 42 0 
N 44 90 0 
N 69 88 0 
N 64 17 0 
N 83 16 0 
N 15 12 0 
N 8 46 0 
N 52 27 0 
N 56 48 0 
N 94 29 0 
N 12 30 0 
N 39 6 0 
N 85 46 0 
N 20 59 0 
N 96 2 0 
N 26 64 0 
N 79 57 0 
N 23 14 0 
N 47 71 0 
N 78 61 0 
N 74 67 0 
N 8 74 0 
N 74 62 0 
N 14 76 0 
N 30 92 0 
N 2 19 0 
N 43 5 0 
N 69 54 0 
N 37 11 0 
N 84 4 0 
N 55 53 0 
N 69 86 0 
N 86 97 0 
N 60 18 0 
N 8 99 0 
N 86 88 0 
N 75 57 0 
N 4 39 0 
N 53 74 0 
N 51 13 0 
N 70 46 0 
N 72 54 0 
N 96 1 0 
N 93 27 0 
N 32 35 0 
N 26 10 0 
N 41 4 0 
N 98 86 0 
N 97 22 0 
N 65 15 0 
N 71 92 0 
N 10 97 0 
N 66 52 0 
N 15 93 0 
N 81 4 0 
N 13 8 0 
N 53 10 0 
N 34 44 0 
N 21 76 0 
N 35 36 0 
N 25 62 0 
N 97 44 0 
N 48 92 0 
N 64 18 0 
N 8 96 0 
N 69 58 0 
N 52 74 0 
N 28 61 0 
N 81 2 0 
N 36 28 0 
N 63 83 0 
N 59 0 0 
N 90 65 0 
N 13 77 0 
N 39 5 0 
N 8 36 0 
N 16 81 0 
N 52 8 0 
N 59 98 0 
N 42 66 0 
N 58 9 0 
N 36 23 0 
N 96 20 0 
N 25 59 0 
N 22 75 0 
N 67 13 0 
N 37 49 0 
N 10 9 0 
N 84 84 0 
N 96 32 0 
N 53 24 0 
N 54 73 0 
N 26 61 0 
N 39 99 0 
N 96 47 0 
N 33 67 0 
N 39 41 0 
N 49 23 0 
N 36 26 0 
N 68 24 0 
N 47 90 0 
N 69 93 0 
N 49 87 0 
N 31 7 0 
N 73 0 0 
N 17 94 0 
N 52 29 0 
N 9 72 0 
N 67 87 0 
N 98 47 0 
N 16 95 0 
N 44 66 0 
N 16 27 0 
N 72 64 0 
N 34 38 0 
N 95 48 0 
N 57 53 0 
N 31 50 0 
N 5 22 0 
N 37 56 0 
N 67 19 0 
N 72 68 0 
N 47 72 0 
N 60 1 0 
N 93 36 0 
N 3 33 0 
N 69 48 0 
N 30 85 0 
N 88 34 0 
N 37 98 0 
N 69 59 0 
N 70 92 0 
N 35 51 0 
N 76 44 0 
N 4 2 0 
N 13 10 0 
N 63 82 0 
N 12 24 0 
N 21 56 0 
N 3 86 0 
N 85 86 0 
N 30 23 0 
N 66 46 0 
N 47 69 0 
N 73 59 0 
N 30 50 0 
N 54 12 0 
N 26 46 0 
N 60 97 0 
N 93 37 0 
N 60 99 0 
N 33 58 0 
N 34 34 0 
N 49 56 0 
N 56 14 0 
N 24 13 0 
N 80 74 0 
N 36 38 0 
N 10 10 0 
N 30 7 0 
N 75 3 0 
N 37 50 0 
N 40 52 0 
N 10 29 0 
N 67 85 0 
N 30 34 0 
N 88 87 0 
N 1 45 0 
N 51 6 0 
N 87 32 0 
N 15 24 0 
N 85 84 0 
N 39 57 0 
N 59 2 0 
N 52 10 0 
N 54 75 0 
N 86 72 0 
N 29 18 0 
N 32 57 0 
N 72 59 0 
N 81 46 0 
N 88 33 0 
N 87 63 0 
N 68 83 0 
N 37 88 0 
N 94 36 0 
N 60 14 0 
N 32 31 0 
N 14 74 0 
N 2 43 0 
N 24 57 0 
N 33 53 0 
N 65 52 0 
N 52 9 0 
N 86 25 0 
N 85 68 0 
N 58 97 0 
N 63 18 0 
N 95 36 0 
N 69 30 0 
N 36 90 0 
N 24 61 0 
N 51 10 0 
N 11 26 0 
N 57 51 0 
N 5 36 0 
N 2 24 0 
N 34 53 0 
N 98 84 0 
N 36 94 0 
N 96 34 0 
N 96 17 0 
N 12 35 0 
N 59 13 0 
N 36 6 0 
N 37 91 0 
N 56 52 0 
N 80 3 0 
N 75 44 0 
N 34 35 0 
N 62 83 0 
N 23 32 0 
N 26 55 0 
N 92 20 0 
N 3 21 0 
N 59 55 0 
N 80 2 0 
N 27 7 0 
N 30 20 0 
N 90 30 0 
N 4 90 0 
N 27 57 0 
N 56 68 0 
N 35 52 0 
N 2 90 0 
N 97 88 0 
N 54 17 0 
N 27 64 0 
N 66 91 0 
N 95 45 0 
N 56 51 0 
N 31 59 0 
N 23 56 0 
N 72 1 0 
N 67 60 0 
N 97 83 0 
N 74 54 0 
N 32 3 0 
N 67 46 0 
N 30 51 0 
N 55 85 0 
N 3 60 0 
N 80 66 0 
N 54 68 0 
N 7 80 0 
N 31 57 0 
N 83 56 0 
N 30 12 0 
N 69 52 0 
N 40 23 0 
N 96 19 0 
N 70 44 0 
N 14 30 0 
N 6 72 0 
N 67 8 0 
N 60 96 0 
N 20 57 0 
N 96 15 0 
N 66 82 0 
C 0 0 0 
C 25 0 0 
C 50 0 0 
C 75 0 0 
C 100 0 0 
C 0 25 0 
C 25 25 0 
C 50 25 0 
C 75 25 0 
C 100 25 0 
C 0 50 0 
C 25 50 0 
C 50 50 0 
C 75 50 0 
C 100 50 0 
C 0 75 0 
C 25 75 0 
C 50 75 0 
C 75 75 0 
C 100 75 0 
C 0 100 0 
C 25 100 0 
C 50 100 0 
C 75 100 0 
C 100 100 0 
O 58 89 0 
O 65 90 0 
O 61 82 0 
O 65 88 0 
O 53 69 0 
O 47 99 0 
O 57 86 0 
O 59 84 0 
O 13 96 0 
O 61 0 0 
O 98 25 0 
O 60 87 0 
O 80 92 0 
O 85 88 0 
O 29 57 0 
O 67 98 0 
O 69 92 0 
O 63 98 0 
O 52 66 0 
O 50 60 0 
O 10 95 0 
O 51 8 0 
O 61 88 0 
O 69 91 0 
O 68 96 0 
O 31 0 0 
O 98 2 0 
O 57 87 0 
O 61 84 0 
O 82 99 0 
O 97 92 0 
O 82 74 0 
O 50 94 0 
O 27 60 0 
554
Atoms. Timestep: 30
N 16 25 0 
N 77 63 0 
N 91 67 0 
N 7 22 0 
N 7 23 0 
N 29 24 0 
N 4 24 0 
N 14 96 0 
N 4 20 0 
N 25 57 0 
N 68 43 0 
N 26 75 0 
N 32 35 0 
N 96 35 0 
N 47 74 0 
N 33 43 0 
N 27 61 0 
N 70 47 0 
N 27 66 0 
N 45 72 0 
N 96 20 0 
N 98 33 0 
N 27 18 0 
N 95 25 0 
N 26 22 0 
N 17 79 0 
N 31 25 0 
N 4 28 0 
N 34 57 0 
N 77 61 0 
N 3 60 0 
N 22 58 0 
N 91 28 0 
N 53 8 0 
N 33 49 0 
N 96 89 0 
N 69 44 0 
N 63 1 0 
N 5 33 0 
N 86 70 0 
N 57 57 0 
N 40 26 0 
N 47 81 0 
N 66 52 0 
N 46 96 0 
N 31 9 0 
N 82 88 0 
N 16 97 0 
N 38 97 0 
N 91 65 0 
N 39 2 0 
N 61 84 0 
N 10 82 0 
N 65 55 0 
N 94 46 0 
N 8 60 0 
N 56 56 0 
N 10 14 0 
N 96 23 0 
N 36 57 0 
N 91 35 0 
N 3 37 0 
N 30 37 0 
N 55 85 0 
N 22 62 0 
N 98 22 0 
N 30 90 0 
N 83 86 0 
N 30 47 0 
N 81 68 0 
N 63 83 0 
N 15 77 0 
N 57 85 0 
N 67 55 0 
N 87 35 0 
N 15 41 0 
N 15 93 0 
N 7 87 0 
N 39 3 0 
N 95 43 0 
N 37 28 0 
N 8 42 0 
N 79 60 0 
N 75 34 0 
N 8 83 0 
N 17 25 0 
N 53 75 0 
N 38 21 0 
N 21 96 0 
N 10 33 0 
N 50 14 0 
N 96 91 0 
N 68 17 0 
N 12 38 0 
N 82 1 0 
N 78 58 0 
N 38 7 0 
N 82 8 0 
N 9 80 0 
N 5 31 0 
N 59 0 0 
N 57 10 0 
N 11 24 0 
N 45 77 0 
N 14 79 0 
N 35 50 0 
N 41 66 0 
N 91 34 0 
N 27 57 0 
N 80 5 0 
N 7 61 0 
N 53 59 0 
N 90 31 0 
N 29 26 0 
N 47 96 0 
N 88 29 0 
N 84 89 0 
N 64 90 0 
N 78 61 0 
N 90 20 0 
N 50 66 0 
N 28 49 0 
N 63 46 0 
N 21 57 0 
N 95 45 0 
N 10 25 0 
N 90 42 0 
N 26 8 0 
N 25 60 0 
N 61 76 0 
N 55 53 0 
N 30 82 0 
N 79 1 0 
N 71 87 0 
N 92 24 0 
N 73 45 0 
N 96 38 0 
N 21 56 0 
N 50 92 0 
N 70 93 0 
N 37 63 0 
N 57 71 0 
N 37 1 0 
N 30 89 0 
N 55 11 0 
N 89 27 0 
N 17 96 0 
N 7 91 0 
N 70 56 0 
N 15 78 0 
N 98 45 0 
N 69 90 0 
N 97 88 0 
N 49 60 0 
N 24 61 0 
N 32 51 0 
N 22 57 0 
N 10 79 0 
N 3 19 0 
N 52 14 0 
N 64 82 0 
N 31 88 0 
N 29 15 0 
N 98 20 0 
N 89 67 0 
N 27 65 0 
N 31 53 0 
N 12 24 0 
N 68 7 0 
N 15 24 0 
N 92 33 0 
N 57 55 0 
N 15 61 0 
N 96 32 0 
N 31 18 0 
N 36 24 0 
N 69 94 0 
N 36 99 0 
N 26 57 0 
N 50 93 0 
N 97 85 0 
N 8 25 0 
N 14 31 0 
N 29 16 0 
N 92 25 0 
N 87 4 0 
N 97 91 0 
N 9 82 0 
N 32 34 0 
N 68 39 0 
N 96 47 0 
N 91 33 0 
N 15 79 0 
N 9 75 0 
N 26 25 0 
N 29 32 0 
N 69 4 0 
N 5 60 0 
N 60 7 0 
N 28 16 0 
N 88 68 0 
N 57 11 0 
N 38 96 0 
N 67 21 0 
N 97 22 0 
N 87 99 0 
N 86 97 0 
N 10 77 0 
N 65 6 0 
N 5 30 0 
N 2 47 0 
N 82 67 0 
N 83 89 0 
N 32 90 0 
N 70 53 0 
N 79 47 0 
N 10 7 0 
N 72 54 0 
N 47 99 0 
N 31 50 0 
N 79 43 0 
N 87 70 0 
N 64 9 0 
N 97 84 0 
N 55 73 0 
N 8 79 0 
N 94 34 0 
N 31 91 0 
N 26 61 0 
N 80 74 0 
N 33 47 0 
N 81 41 0 
N 44 89 0 
N 69 89 0 
N 64 16 0 
N 83 17 0 
N 14 12 0 
N 8 47 0 
N 52 26 0 
N 56 49 0 
N 95 29 0 
N 13 30 0 
N 39 5 0 
N 86 46 0 
N 20 60 0 
N 97 2 0 
N 26 63 0 
N 79 58 0 
N 23 13 0 
N 46 71 0 
N 78 62 0 
N 74 68 0 
N 8 75 0 
N 74 63 0 
N 13 76 0 
N 30 93 0 
N 2 20 0 
N 43 6 0 
N 69 55 0 
N 36 11 0 
N 84 5 0 
N 54 53 0 
N 69 87 0 
N 85 97 0 
N 61 18 0 
N 8 98 0 
N 85 88 0 
N 76 57 0 
N 5 39 0 
N 53 74 0 
N 50 13 0 
N 71 46 0 
N 71 54 0 
N 97 1 0 
N 94 27 0 
N 32 36 0 
N 27 10 0 
N 42 4 0 
N 97 86 0 
N 97 23 0 
N 65 14 0 
N 70 92 0 
N 10 96 0 
N 66 53 0 
N 14 93 0 
N 81 5 0 
N 13 9 0 
N 53 11 0 
N 33 44 0 
N 22 76 0 
N 35 37 0 
N 26 62 0 
N 96 44 0 
N 49 92 0 
N 63 18 0 
N 9 96 0 
N 68 58 0 
N 52 73 0 
N 28 60 0 
N 82 2 0 
N 35 28 0 
N 62 83 0 
N 60 0 0 
N 90 66 0 
N 13 78 0 
N 38 5 0 
N 8 35 0 
N 16 82 0 
N 51 8 0 
N 59 97 0 
N 43 66 0 
N 57 9 0 
N 36 22 0 
N 96 21 0 
N 26 59 0 
N 22 74 0 
N 67 14 0 
N 36 49 0 
N 10 10 0 
N 85 84 0 
N 96 31 0 
N 53 23 0 
N 53 73 0 
N 26 60 0 
N 40 99 0 
N 96 46 0 
N 33 66 0 
N 39 42 0 
N 49 22 0 
N 37 26 0 
N 67 24 0 
N 48 90 0 
N 69 93 0 
N 50 87 0 
N 31 6 0 
N 73 1 0 
N 16 94 0 
N 52 28 0 
N 10 72 0 
N 66 87 0 
N 98 47 0 
N 15 95 0 
N 45 66 0 
N 16 26 0 
N 73 64 0 
N 33 38 0 
N 95 47 0 
N 57 54 0 
N 31 51 0 
N 5 23 0 
N 36 56 0 
N 67 19 0 
N 72 69 0 
N 48 72 0 
N 61 1 0 
N 93 35 0 
N 4 33 0 
N 68 48 0 
N 31 85 0 
N 89 34 0 
N 37 97 0 
N 68 59 0 
N 69 92 0 
N 34 51 0 
N 76 45 0 
N 5 2 0 
N 13 11 0 
N 63 82 0 
N 12 25 0 
N 22 56 0 
N 3 87 0 
N 85 87 0 
N 31 23 0 
N 65 46 0 
N 48 69 0 
N 72 59 0 
N 30 51 0 
N 53 12 0 
N 27 46 0 
N 60 96 0 
N 94 37 0 
N 60 98 0 
N 32 58 0 
N 34 35 0 
N 49 57 0 
N 56 13 0 
N 25 13 0 
N 81 74 0 
N 36 39 0 
N 10 11 0 
N 30 6 0 
N 76 3 0 
N 37 51 0 
N 39 52 0 
N 10 28 0 
N 66 85 0 
N 30 35 0 
N 88 86 0 
N 1 44 0 
N 51 7 0 
N 88 32 0 
N 16 24 0 
N 85 85 0 
N 38 57 0 
N 60 2 0 
N 51 10 0 
N 54 74 0 
N 86 73 0 
N 29 18 0 
N 31 57 0 
N 71 59 0 
N 81 47 0 
N 89 33 0 
N 86 63 0 
N 68 82 0 
N 36 88 0 
N 95 36 0 
N 61 14 0 
N 32 32 0 
N 13 74 0 
N 2 42 0 
N 24 57 0 
N 33 54 0 
N 64 52 0 
N 52 9 0 
N 87 25 0 
N 85 69 0 
N 58 96 0 
N 63 17 0 
N 95 37 0 
N 69 31 0 
N 36 89 0 
N 24 60 0 
N 51 9 0 
N 11 25 0 
N 56 51 0 
N 5 35 0 
N 3 24 0 
N 34 54 0 
N 98 85 0 
N 35 94 0 
N 97 34 0 
N 97 17 0 
N 13 35 0 
N 58 13 0 
N 35 6 0 
N 36 91 0 
N 56 53 0 
N 80 4 0 
N 74 44 0 
N 34 36 0 
N 62 82 0 
N 22 32 0 
N 25 55 0 
N 93 20 0 
N 4 21 0 
N 59 56 0 
N 80 2 0 
N 27 6 0 
N 31 20 0 
N 91 30 0 
N 4 91 0 
N 28 57 0 
N 55 68 0 
N 34 52 0 
N 2 91 0 
N 97 89 0 
N 54 16 0 
N 27 63 0 
N 66 90 0 
N 96 45 0 
N 55 51 0 
N 31 58 0 
N 23 57 0 
N 71 1 0 
N 66 60 0 
N 97 83 0 
N 75 54 0 
N 32 4 0 
N 68 46 0 
N 30 52 0 
N 55 86 0 
N 4 60 0 
N 81 66 0 
N 54 69 0 
N 8 80 0 
N 30 57 0 
N 82 56 0 
N 30 11 0 
N 69 53 0 
N 40 22 0 
N 96 18 0 
N 70 45 0 
N 15 30 0 
N 6 73 0 
N 67 9 0 
N 61 96 0 
N 20 57 0 
N 96 16 0 
N 65 82 0 
C 0 0 0 
C 25 0 0 
C 50 0 0 
C 75 0 0 
C 100 0 0 
C 0 25 0 
C 25 25 0 
C 50 25 0 
C 75 25 0 
C 100 25 0 
C 0 50 0 
C 25 50 0 
C 50 50 0 
C 75 50 0 
C 100 50 0 
C 0 75 0 
C 25 75 0 
C 50 75 0 
C 75 75 0 
C 100 75 0 
C 0 100 0 
C 25 100 0 
C 50 100 0 
C 75 100 0 
C 100 100 0 
O 58 90 0 
O 65 91 0 
O 60 82 0 
O 64 88 0 
O 53 70 0 
O 57 87 0 
O 59 83 0 
O 13 97 0 
O 61 99 0 
O 99 25 0 
O 59 87 0 
O 81 92 0 
O 29 58 0 
O 68 98 0 
O 62 98 0 
O 53 66 0 
O 50 61 0 
O 11 95 0 
O 61 89 0 
O 70 91 0 
O 68 97 0 
O 30 0 0 
O 98 3 0 
O 57 88 0 
O 83 99 0 
O 97 93 0 
O 83 74 0 
O 50 95 0 
O 27 59 0 
552
Atoms. Timestep: 31
N 16 24 0 
N 77 64 0 
N 91 68 0 
N 8 22 0 
N 8 23 0 
N 30 24 0 
N 4 25 0 
N 14 97 0 
N 5 20 0 
N 25 58 0 
N 68 44 0 
N 27 75 0 
N 32 36 0 
N 97 35 0 
N 48 74 0 
N 32 43 0 
N 28 61 0 
N 71 47 0 
N 27 65 0 
N 45 71 0 
N 97 20 0 
N 98 32 0 
N 28 18 0 
N 96 25 0 
N 26 21 0 
N 16 79 0 
N 30 25 0 
N 4 27 0 
N 34 58 0 
N 77 62 0 
N 4 60 0 
N 22 58 0 
N 92 28 0 
N 52 8 0 
N 33 50 0 
N 96 90 0 
N 69 45 0 
N 63 2 0 
N 6 33 0 
N 85 70 0 
N 56 57 0 
N 39 26 0 
N 48 81 0 
N 66 53 0 
N 47 96 0 
N 30 9 0 
N 82 89 0 
N 15 97 0 
N 37 97 0 
N 90 65 0 
N 38 2 0 
N 61 85 0 
N 10 83 0 
N 64 55 0 
N 95 46 0 
N 8 59 0 
N 55 56 0 
N 10 13 0 
N 96 24 0 
N 36 58 0 
N 91 34 0 
N 3 36 0 
N 29 37 0 
N 56 85 0 
N 22 61 0 
N 99 22 0 
N 30 89 0 
N 83 87 0 
N 29 47 0 
N 81 69 0 
N 62 83 0 
N 15 76 0 
N 57 86 0 
N 67 56 0 
N 88 35 0 
N 16 41 0 
N 15 94 0 
N 7 88 0 
N 38 3 0 
N 95 42 0 
N 37 29 0 
N 9 42 0 
N 80 60 0 
N 75 35 0 
N 8 84 0 
N 18 25 0 
N 53 75 0 
N 37 21 0 
N 21 97 0 
N 11 33 0 
N 50 15 0 
N 97 91 0 
N 68 18 0 
N 13 38 0 
N 82 2 0 
N 79 58 0 
N 38 6 0 
N 82 9 0 
N 9 81 0 
N 6 31 0 
N 60 0 0 
N 58 10 0 
N 12 24 0 
N 45 76 0 
N 14 80 0 
N 34 50 0 
N 42 66 0 
N 92 34 0 
N 28 57 0 
N 80 6 0 
N 7 60 0 
N 53 60 0 
N 90 30 0 
N 30 26 0 
N 48 96 0 
N 89 29 0 
N 84 90 0 
N 64 91 0 
N 78 62 0 
N 90 21 0 
N 51 66 0 
N 28 50 0 
N 62 46 0 
N 22 57 0 
N 95 44 0 
N 10 25 0 
N 90 41 0 
N 26 7 0 
N 25 59 0 
N 61 77 0 
N 55 54 0 
N 30 81 0 
N 79 2 0 
N 71 88 0 
N 92 25 0 
N 73 44 0 
N 97 38 0 
N 21 55 0 
N 50 93 0 
N 69 93 0 
N 37 62 0 
N 56 71 0 
N 37 0 0 
N 30 88 0 
N 55 12 0 
N 90 27 0 
N 16 96 0 
N 8 91 0 
N 69 56 0 
N 15 79 0 
N 98 44 0 
N 68 90 0 
N 97 89 0 
N 50 60 0 
N 25 61 0 
N 32 52 0 
N 23 57 0 
N 10 80 0 
N 4 19 0 
N 52 15 0 
N 63 82 0 
N 31 87 0 
N 30 15 0 
N 98 21 0 
N 88 67 0 
N 28 65 0 
N 30 53 0 
N 12 25 0 
N 68 8 0 
N 15 25 0 
N 92 32 0 
N 56 55 0 
N 16 61 0 
N 96 31 0 
N 31 17 0 
N 36 23 0 
N 68 94 0 
N 36 98 0 
N 26 58 0 
N 50 94 0 
N 97 86 0 
N 9 25 0 
N 15 31 0 
N 30 16 0 
N 92 26 0 
N 86 4 0 
N 97 92 0 
N 9 83 0 
N 31 34 0 
N 69 39 0 
N 97 47 0 
N 91 32 0 
N 15 80 0 
N 9 76 0 
N 27 25 0 
N 29 33 0 
N 68 4 0 
N 6 60 0 
N 60 8 0 
N 28 15 0 
N 88 69 0 
N 57 12 0 
N 38 95 0 
N 67 22 0 
N 97 23 0 
N 86 99 0 
N 86 98 0 
N 10 78 0 
N 65 7 0 
N 5 29 0 
N 3 47 0 
N 82 68 0 
N 83 90 0 
N 32 89 0 
N 70 52 0 
N 79 46 0 
N 11 7 0 
N 72 55 0 
N 47 98 0 
N 31 51 0 
N 80 43 0 
N 87 71 0 
N 64 10 0 
N 97 84 0 
N 55 72 0 
N 9 79 0 
N 94 33 0 
N 30 91 0 
N 26 60 0 
N 81 74 0 
N 33 48 0 
N 81 40 0 
N 44 90 0 
N 68 89 0 
N 64 17 0 
N 83 18 0 
N 14 13 0 
N 7 47 0 
N 52 25 0 
N 56 50 0 
N 95 28 0 
N 13 29 0 
N 38 5 0 
N 86 45 0 
N 21 60 0 
N 97 3 0 
N 27 63 0 
N 79 59 0 
N 24 13 0 
N 47 71 0 
N 79 62 0 
N 74 69 0 
N 8 76 0 
N 75 63 0 
N 13 77 0 
N 30 92 0 
N 2 21 0 
N 43 7 0 
N 68 55 0 
N 36 10 0 
N 83 5 0 
N 53 53 0 
N 69 88 0 
N 85 98 0 
N 61 19 0 
N 8 97 0 
N 84 88 0 
N 76 58 0 
N 5 38 0 
N 53 74 0 
N 50 13 0 
N 71 45 0 
N 70 54 0 
N 98 1 0 
N 95 27 0 
N 32 37 0 
N 28 10 0 
N 41 4 0 
N 97 87 0 
N 98 23 0 
N 64 14 0 
N 70 91 0 
N 11 96 0 
N 66 54 0 
N 13 93 0 
N 81 6 0 
N 13 10 0 
N 52 11 0 
N 33 45 0 
N 23 76 0 
N 35 38 0 
N 26 62 0 
N 96 43 0 
N 49 93 0 
N 62 18 0 
N 9 95 0 
N 67 58 0 
N 53 73 0 
N 28 59 0 
N 82 3 0 
N 35 27 0 
N 61 83 0 
N 61 0 0 
N 90 67 0 
N 13 79 0 
N 37 5 0 
N 9 35 0 
N 16 83 0 
N 50 8 0 
N 60 97 0 
N 44 66 0 
N 58 9 0 
N 35 22 0 
N 97 21 0 
N 27 59 0 
N 22 75 0 
N 67 15 0 
N 35 49 0 
N 11 10 0 
N 84 84 0 
N 97 31 0 
N 53 22 0 
N 53 72 0 
N 27 60 0 
N 40 98 0 
N 96 45 0 
N 33 65 0 
N 38 42 0 
N 49 23 0 
N 37 27 0 
N 68 24 0 
N 49 90 0 
N 69 92 0 
N 51 87 0 
N 31 5 0 
N 73 2 0 
N 16 95 0 
N 52 27 0 
N 10 73 0 
N 66 88 0 
N 98 46 0 
N 15 96 0 
N 46 66 0 
N 17 26 0 
N 73 65 0 
N 33 39 0 
N 94 47 0 
N 57 54 0 
N 31 52 0 
N 5 24 0 
N 35 56 0 
N 68 19 0 
N 73 69 0 
N 49 72 0 
N 61 1 0 
N 93 34 0 
N 4 32 0 
N 67 48 0 
N 31 84 0 
N 90 34 0 
N 37 96 0 
N 68 60 0 
N 69 91 0 
N 34 52 0 
N 77 45 0 
N 6 2 0 
N 13 12 0 
N 62 82 0 
N 13 25 0 
N 23 56 0 
N 3 88 0 
N 84 87 0 
N 30 23 0 
N 64 46 0 
N 48 70 0 
N 72 60 0 
N 29 51 0 
N 53 13 0 
N 27 47 0 
N 61 96 0 
N 93 37 0 
N 60 99 0 
N 31 58 0 
N 34 36 0 
N 49 58 0 
N 56 14 0 
N 26 13 0 
N 82 74 0 
N 36 40 0 
N 11 11 0 
N 30 5 0 
N 77 3 0 
N 37 52 0 
N 39 53 0 
N 10 29 0 
N 67 85 0 
N 29 35 0 
N 88 87 0 
N 1 43 0 
N 50 7 0 
N 88 31 0 
N 17 24 0 
N 84 85 0 
N 38 58 0 
N 61 2 0 
N 50 10 0 
N 54 73 0 
N 85 73 0 
N 29 17 0 
N 32 57 0 
N 71 60 0 
N 82 47 0 
N 90 33 0 
N 86 64 0 
N 67 82 0 
N 36 87 0 
N 96 36 0 
N 61 15 0 
N 31 32 0 
N 13 75 0 
N 2 41 0 
N 24 58 0 
N 33 55 0 
N 63 52 0 
N 51 9 0 
N 88 25 0 
N 84 69 0 
N 58 95 0 
N 62 17 0 
N 96 37 0 
N 69 32 0 
N 35 89 0 
N 24 59 0 
N 50 9 0 
N 11 25 0 
N 56 52 0 
N 5 34 0 
N 3 25 0 
N 34 55 0 
N 98 86 0 
N 36 94 0 
N 98 34 0 
N 97 18 0 
N 14 35 0 
N 59 13 0 
N 35 5 0 
N 35 91 0 
N 56 54 0 
N 81 4 0 
N 75 44 0 
N 33 36 0 
N 61 82 0 
N 22 31 0 
N 25 56 0 
N 93 21 0 
N 4 22 0 
N 58 56 0 
N 80 3 0 
N 27 5 0 
N 30 20 0 
N 92 30 0 
N 5 91 0 
N 28 58 0 
N 55 69 0 
N 35 52 0 
N 2 92 0 
N 97 90 0 
N 54 17 0 
N 27 62 0 
N 66 91 0 
N 97 45 0 
N 55 52 0 
N 30 58 0 
N 23 58 0 
N 71 2 0 
N 65 60 0 
N 97 83 0 
N 75 55 0 
N 31 4 0 
N 68 45 0 
N 29 52 0 
N 55 87 0 
N 4 59 0 
N 82 66 0 
N 53 69 0 
N 8 81 0 
N 29 57 0 
N 83 56 0 
N 30 10 0 
N 68 53 0 
N 41 22 0 
N 96 19 0 
N 70 44 0 
N 15 29 0 
N 6 74 0 
N 68 9 0 
N 61 97 0 
N 20 58 0 
N 97 16 0 
N 65 82 0 
C 0 0 0 
C 25 0 0 
C 50 0 0 
C 75 0 0 
C 100 0 0 
C 0 25 0 
C 25 25 0 
C 50 25 0 
C 75 25 0 
C 100 25 0 
C 0 50 0 
C 25 50 0 
C 50 50 0 
C 75 50 0 
C 100 50 0 
C 0 75 0 
C 25 75 0 
C 50 75 0 
C 75 75 0 
C 100 75 0 
C 0 100 0 
C 25 100 0 
C 50 100 0 
C 75 100 0 
C 100 100 0 
O 58 91 0 
O 65 92 0 
O 60 83 0 
O 65 88 0 
O 52 70 0 
O 58 87 0 
O 58 83 0 
O 12 97 0 
O 61 98 0 
O 98 25 0 
O 60 87 0 
O 81 91 0 
O 29 59 0 
O 68 97 0 
O 62 97 0 
O 54 66 0 
O 49 61 0 
O 10 95 0 
O 61 90 0 
O 68 96 0 
O 30 99 0 
O 98 4 0 
O 58 88 0 
O 84 99 0 
O 96 93 0 
O 83 73 0 
O 49 95 0 
547
Atoms. Timestep: 32
N 17 24 0 
N 78 64 0 
N 91 69 0 
N 8 23 0 
N 8 24 0 
N 30 25 0 
N 5 25 0 
N 13 97 0 
N 5 21 0 
N 26 58 0 
N 68 43 0 
N 27 76 0 
N 31 36 0 
N 98 35 0 
N 48 73 0 
N 32 42 0 
N 29 61 0 
N 71 48 0 
N 27 64 0 
N 45 70 0 
N 98 20 0 
N 98 31 0 
N 29 18 0 
N 97 25 0 
N 27 21 0 
N 16 78 0 
N 30 26 0 
N 5 27 0 
N 34 59 0 
N 77 63 0 
N 4 59 0 
N 23 58 0 
N 92 27 0 
N 52 9 0 
N 34 50 0 
N 96 91 0 
N 68 45 0 
N 63 3 0 
N 7 33 0 
N 85 71 0 
N 56 58 0 
N 39 25 0 
N 49 81 0 
N 65 53 0 
N 48 96 0 
N 30 10 0 
N 82 90 0 
N 15 97 0 
N 37 98 0 
N 90 66 0 
N 37 2 0 
N 61 86 0 
N 11 83 0 
N 64 56 0 
N 95 45 0 
N 8 60 0 
N 55 57 0 
N 10 14 0 
N 97 24 0 
N 36 59 0 
N 92 34 0 
N 4 36 0 
N 30 37 0 
N 57 85 0 
N 23 61 0 
N 99 23 0 
N 30 90 0 
N 82 87 0 
N 30 47 0 
N 82 69 0 
N 61 83 0 
N 15 77 0 
N 58 86 0 
N 66 56 0 
N 89 35 0 
N 16 40 0 
N 14 94 0 
N 8 88 0 
N 38 4 0 
N 96 42 0 
N 36 29 0 
N 9 41 0 
N 81 60 0 
N 76 35 0 
N 8 85 0 
N 19 25 0 
N 53 74 0 
N 36 21 0 
N 20 97 0 
N 12 33 0 
N 50 16 0 
N 98 91 0 
N 68 19 0 
N 14 38 0 
N 82 3 0 
N 79 59 0 
N 38 7 0 
N 83 9 0 
N 8 81 0 
N 6 30 0 
N 60 1 0 
N 58 11 0 
N 13 24 0 
N 46 76 0 
N 14 81 0 
N 34 51 0 
N 43 66 0 
N 93 34 0 
N 29 57 0 
N 80 7 0 
N 6 60 0 
N 53 61 0 
N 91 30 0 
N 30 27 0 
N 48 95 0 
N 89 28 0 
N 84 91 0 
N 64 92 0 
N 79 62 0 
N 90 22 0 
N 52 66 0 
N 28 49 0 
N 61 46 0 
N 23 57 0 
N 95 43 0 
N 10 25 0 
N 91 41 0 
N 27 7 0 
N 26 59 0 
N 60 77 0 
N 54 54 0 
N 30 82 0 
N 79 3 0 
N 70 88 0 
N 93 25 0 
N 73 43 0 
N 98 38 0 
N 21 54 0 
N 49 93 0 
N 69 94 0 
N 37 61 0 
N 56 70 0 
N 36 0 0 
N 30 88 0 
N 56 12 0 
N 90 26 0 
N 15 96 0 
N 8 92 0 
N 68 56 0 
N 14 79 0 
N 98 43 0 
N 67 90 0 
N 96 89 0 
N 49 60 0 
N 26 61 0 
N 32 53 0 
N 24 57 0 
N 11 80 0 
N 5 19 0 
N 51 15 0 
N 62 82 0 
N 30 87 0 
N 30 15 0 
N 98 22 0 
N 87 67 0 
N 28 64 0 
N 31 53 0 
N 13 25 0 
N 68 7 0 
N 16 25 0 
N 93 32 0 
N 55 55 0 
N 15 61 0 
N 96 30 0 
N 31 18 0 
N 36 24 0 
N 68 95 0 
N 36 99 0 
N 27 58 0 
N 50 95 0 
N 96 86 0 
N 9 25 0 
N 15 30 0 
N 30 16 0 
N 93 26 0 
N 85 4 0 
N 96 92 0 
N 9 84 0 
N 30 34 0 
N 70 39 0 
N 97 46 0 
N 91 31 0 
N 15 81 0 
N 10 76 0 
N 28 25 0 
N 30 33 0 
N 68 5 0 
N 6 59 0 
N 60 9 0 
N 28 16 0 
N 87 69 0 
N 58 12 0 
N 39 95 0 
N 68 22 0 
N 98 23 0 
N 86 99 0 
N 85 98 0 
N 11 78 0 
N 66 7 0 
N 6 29 0 
N 4 47 0 
N 83 68 0 
N 83 91 0 
N 31 89 0 
N 69 52 0 
N 79 45 0 
N 11 8 0 
N 71 55 0 
N 47 97 0 
N 31 52 0 
N 80 44 0 
N 87 72 0 
N 63 10 0 
N 97 85 0 
N 55 71 0 
N 9 80 0 
N 94 32 0 
N 30 92 0 
N 27 60 0 
N 81 73 0 
N 33 49 0 
N 81 39 0 
N 44 91 0 
N 67 89 0 
N 64 18 0 
N 84 18 0 
N 14 14 0 
N 8 47 0 
N 51 25 0 
N 56 51 0 
N 96 28 0 
N 12 29 0 
N 37 5 0 
N 86 46 0 
N 22 60 0 
N 98 3 0 
N 27 62 0 
N 79 60 0 
N 25 13 0 
N 48 71 0 
N 80 62 0 
N 75 69 0 
N 8 77 0 
N 76 63 0 
N 13 78 0 
N 30 93 0 
N 2 22 0 
N 43 8 0 
N 67 55 0 
N 35 10 0 
N 84 5 0 
N 53 54 0 
N 68 88 0 
N 85 99 0 
N 61 20 0 
N 9 97 0 
N 83 88 0 
N 77 58 0 
N 5 37 0 
N 52 74 0 
N 50 14 0 
N 71 44 0 
N 70 53 0 
N 98 2 0 
N 95 26 0 
N 31 37 0 
N 29 10 0 
N 40 4 0 
N 96 87 0 
N 98 24 0 
N 63 14 0 
N 70 92 0 
N 12 96 0 
N 65 54 0 
N 12 93 0 
N 81 7 0 
N 13 11 0 
N 52 12 0 
N 34 45 0 
N 24 76 0 
N 35 39 0 
N 26 63 0 
N 97 43 0 
N 49 94 0 
N 62 19 0 
N 10 95 0 
N 66 58 0 
N 52 73 0 
N 29 59 0 
N 83 3 0 
N 36 27 0 
N 60 83 0 
N 61 1 0 
N 90 68 0 
N 13 80 0 
N 37 6 0 
N 9 34 0 
N 15 83 0 
N 50 9 0 
N 61 97 0 
N 45 66 0 
N 59 9 0 
N 34 22 0 
N 97 22 0 
N 27 59 0 
N 23 75 0 
N 68 15 0 
N 35 50 0 
N 11 11 0 
N 84 85 0 
N 97 30 0 
N 53 21 0 
N 52 72 0 
N 28 60 0 
N 39 98 0 
N 96 44 0 
N 33 64 0 
N 37 42 0 
N 49 24 0 
N 37 28 0 
N 68 25 0 
N 49 91 0 
N 68 92 0 
N 52 87 0 
N 31 6 0 
N 72 2 0 
N 15 95 0 
N 51 27 0 
N 10 74 0 
N 65 88 0 
N 98 46 0 
N 14 96 0 
N 47 66 0 
N 18 26 0 
N 73 66 0 
N 32 39 0 
N 95 47 0 
N 57 55 0 
N 30 52 0 
N 6 24 0 
N 35 57 0 
N 68 20 0 
N 73 70 0 
N 49 71 0 
N 62 1 0 
N 94 34 0 
N 4 31 0 
N 67 49 0 
N 30 84 0 
N 90 33 0 
N 36 96 0 
N 67 60 0 
N 68 91 0 
N 33 52 0 
N 77 46 0 
N 7 2 0 
N 13 13 0 
N 61 82 0 
N 14 25 0 
N 24 56 0 
N 3 89 0 
N 84 87 0 
N 30 23 0 
N 64 47 0 
N 49 70 0 
N 71 60 0 
N 29 52 0 
N 52 13 0 
N 28 47 0 
N 62 96 0 
N 93 36 0 
N 60 98 0 
N 30 58 0 
N 33 36 0 
N 49 59 0 
N 57 14 0 
N 27 13 0 
N 82 73 0 
N 35 40 0 
N 11 12 0 
N 30 6 0 
N 77 4 0 
N 36 52 0 
N 38 53 0 
N 11 29 0 
N 67 86 0 
N 30 35 0 
N 88 88 0 
N 1 42 0 
N 49 7 0 
N 88 30 0 
N 17 25 0 
N 84 86 0 
N 37 58 0 
N 62 2 0 
N 50 11 0 
N 54 72 0 
N 84 73 0 
N 30 17 0 
N 31 57 0 
N 71 61 0 
N 83 47 0 
N 91 33 0 
N 86 65 0 
N 66 82 0 
N 35 87 0 
N 97 36 0 
N 61 16 0 
N 31 33 0 
N 13 76 0 
N 2 40 0 
N 24 58 0 
N 32 55 0 
N 62 52 0 
N 51 10 0 
N 89 25 0 
N 84 70 0 
N 58 94 0 
N 62 17 0 
N 96 38 0 
N 70 32 0 
N 35 90 0 
N 24 59 0 
N 49 9 0 
N 11 25 0 
N 56 53 0 
N 6 34 0 
N 3 25 0 
N 34 56 0 
N 98 87 0 
N 36 95 0 
N 98 33 0 
N 98 18 0 
N 14 34 0 
N 60 13 0 
N 35 6 0 
N 34 91 0 
N 56 54 0 
N 81 3 0 
N 75 45 0 
N 33 37 0 
N 60 82 0 
N 23 31 0 
N 25 57 0 
N 93 22 0 
N 4 23 0 
N 58 57 0 
N 80 4 0 
N 28 5 0 
N 30 21 0 
N 93 30 0 
N 6 91 0 
N 28 58 0 
N 55 70 0 
N 35 53 0 
N 2 93 0 
N 97 90 0 
N 54 18 0 
N 27 61 0 
N 65 91 0 
N 98 45 0 
N 55 53 0 
N 30 59 0 
N 23 59 0 
N 71 3 0 
N 65 61 0 
N 96 83 0 
N 76 55 0 
N 30 4 0 
N 67 45 0 
N 29 53 0 
N 56 87 0 
N 3 59 0 
N 83 66 0 
N 53 70 0 
N 8 82 0 
N 29 58 0 
N 83 57 0 
N 30 11 0 
N 67 53 0 
N 41 21 0 
N 97 19 0 
N 70 45 0 
N 15 28 0 
N 6 73 0 
N 68 10 0 
N 61 98 0 
N 20 59 0 
N 97 17 0 
N 64 82 0 
C 0 0 0 
C 25 0 0 
C 50 0 0 
C 75 0 0 
C 100 0 0 
C 0 25 0 
C 25 25 0 
C 50 25 0 
C 75 25 0 
C 100 25 0 
C 0 50 0 
C 25 50 0 
C 50 50 0 
C 75 50 0 
C 100 50 0 
C 0 75 0 
C 25 75 0 
C 50 75 0 
C 75 75 0 
C 100 75 0 
C 0 100 0 
C 25 100 0 
C 50 100 0 
C 75 100 0 
C 100 100 0 
O 58 90 0 
O 66 92 0 
O 51 70 0 
O 57 87 0 
O 59 83 0 
O 11 97 0 
O 98 26 0 
O 60 88 0 
O 80 91 0 
O 67 97 0 
O 63 97 0 
O 55 66 0 
O 49 62 0 
O 61 89 0 
O 67 96 0 
O 29 99 0 
O 98 5 0 
O 57 88 0 
O 84 98 0 
O 95 93 0 
O 83 74 0 
O 49 96 0 
544
Atoms. Timestep: 33
N 16 24 0 
N 79 64 0 
N 91 70 0 
N 8 24 0 
N 8 25 0 
N 30 26 0 
N 5 26 0 
N 12 97 0 
N 6 21 0 
N 26 59 0 
N 69 43 0 
N 27 77 0 
N 31 35 0 
N 98 34 0 
N 48 72 0 
N 33 42 0 
N 29 62 0 
N 72 48 0 
N 28 64 0 
N 46 70 0 
N 98 21 0 
N 98 30 0 
N 29 19 0 
N 97 26 0 
N 27 20 0 
N 16 79 0 
N 30 27 0 
N 5 28 0 
N 35 59 0 
N 78 63 0 
N 3 59 0 
N 23 59 0 
N 93 27 0 
N 53 9 0 
N 35 50 0 
N 95 91 0 
N 68 46 0 
N 63 4 0 
N 8 33 0 
N 85 72 0 
N 56 59 0 
N 39 26 0 
N 49 80 0 
N 65 54 0 
N 49 96 0 
N 29 10 0 
N 81 90 0 
N 15 97 0 
N 37 99 0 
N 90 67 0 
N 36 2 0 
N 60 86 0 
N 11 84 0 
N 63 56 0 
N 96 45 0 
N 8 61 0 
N 55 58 0 
N 10 15 0 
N 97 24 0 
N 36 60 0 
N 93 34 0 
N 4 35 0 
N 30 38 0 
N 57 85 0 
N 23 62 0 
N 99 24 0 
N 29 90 0 
N 81 87 0 
N 29 47 0 
N 82 70 0 
N 60 83 0 
N 15 78 0 
N 57 86 0 
N 65 56 0 
N 90 35 0 
N 17 40 0 
N 13 94 0 
N 9 88 0 
N 38 5 0 
N 96 41 0 
N 35 29 0 
N 10 41 0 
N 82 60 0 
N 77 35 0 
N 8 86 0 
N 20 25 0 
N 53 73 0 
N 36 22 0 
N 19 97 0 
N 12 32 0 
N 49 16 0 
N 97 91 0 
N 68 20 0 
N 14 37 0 
N 82 4 0 
N 79 60 0 
N 37 7 0 
N 83 10 0 
N 8 82 0 
N 6 29 0 
N 61 1 0 
N 58 12 0 
N 14 24 0 
N 46 75 0 
N 14 82 0 
N 35 51 0 
N 44 66 0 
N 94 34 0 
N 30 57 0 
N 80 8 0 
N 7 60 0 
N 53 62 0 
N 91 29 0 
N 29 27 0 
N 48 95 0 
N 89 27 0 
N 83 91 0 
N 65 92 0 
N 79 63 0 
N 90 23 0 
N 53 66 0 
N 29 49 0 
N 61 47 0 
N 24 57 0 
N 95 42 0 
N 10 26 0 
N 92 41 0 
N 28 7 0 
N 26 60 0 
N 60 78 0 
N 54 55 0 
N 29 82 0 
N 80 3 0 
N 69 88 0 
N 94 25 0 
N 73 42 0 
N 98 37 0 
N 21 55 0 
N 49 94 0 
N 68 94 0 
N 37 62 0 
N 55 70 0 
N 36 1 0 
N 29 88 0 
N 55 12 0 
N 91 26 0 
N 14 96 0 
N 8 93 0 
N 67 56 0 
N 13 79 0 
N 98 42 0 
N 66 90 0 
N 95 89 0 
N 49 61 0 
N 27 61 0 
N 32 54 0 
N 24 58 0 
N 11 81 0 
N 6 19 0 
N 51 16 0 
N 62 83 0 
N 29 87 0 
N 29 15 0 
N 98 23 0 
N 87 68 0 
N 28 63 0 
N 31 54 0 
N 14 25 0 
N 68 8 0 
N 17 25 0 
N 94 32 0 
N 55 56 0 
N 16 61 0 
N 96 29 0 
N 31 19 0 
N 36 23 0 
N 68 96 0 
N 35 99 0 
N 28 58 0 
N 50 96 0 
N 95 86 0 
N 9 26 0 
N 16 30 0 
N 29 16 0 
N 94 26 0 
N 84 4 0 
N 96 93 0 
N 9 85 0 
N 30 33 0 
N 69 39 0 
N 98 46 0 
N 92 31 0 
N 15 82 0 
N 11 76 0 
N 28 26 0 
N 31 33 0 
N 68 6 0 
N 7 59 0 
N 60 10 0 
N 28 17 0 
N 86 69 0 
N 58 13 0 
N 39 96 0 
N 67 22 0 
N 98 24 0 
N 86 98 0 
N 85 99 0 
N 11 79 0 
N 66 8 0 
N 6 28 0 
N 4 46 0 
N 83 69 0 
N 82 91 0 
N 31 90 0 
N 69 53 0 
N 79 44 0 
N 11 9 0 
N 70 55 0 
N 47 96 0 
N 32 52 0 
N 81 44 0 
N 87 73 0 
N 63 11 0 
N 96 85 0 
N 54 71 0 
N 9 81 0 
N 95 32 0 
N 30 93 0 
N 28 60 0 
N 81 74 0 
N 33 50 0 
N 81 38 0 
N 44 92 0 
N 66 89 0 
N 64 19 0 
N 84 19 0 
N 14 15 0 
N 8 48 0 
N 51 26 0 
N 55 51 0 
N 97 28 0 
N 13 29 0 
N 36 5 0 
N 86 47 0 
N 22 61 0 
N 98 4 0 
N 28 62 0 
N 80 60 0 
N 26 13 0 
N 49 71 0 
N 80 63 0 
N 75 70 0 
N 8 78 0 
N 76 64 0 
N 12 78 0 
N 30 94 0 
N 3 22 0 
N 43 9 0 
N 66 55 0 
N 35 11 0 
N 84 6 0 
N 52 54 0 
N 68 89 0 
N 84 99 0 
N 62 20 0 
N 10 97 0 
N 82 88 0 
N 78 58 0 
N 5 36 0 
N 51 74 0 
N 49 14 0 
N 70 44 0 
N 70 54 0 
N 98 2 0 
N 96 26 0 
N 31 38 0 
N 29 11 0 
N 40 5 0 
N 95 87 0 
N 98 25 0 
N 63 15 0 
N 69 92 0 
N 11 96 0 
N 64 54 0 
N 12 94 0 
N 82 7 0 
N 13 12 0 
N 52 13 0 
N 33 45 0 
N 25 76 0 
N 34 39 0 
N 26 62 0 
N 97 42 0 
N 49 95 0 
N 63 19 0 
N 11 95 0 
N 66 59 0 
N 52 72 0 
N 29 59 0 
N 83 4 0 
N 35 27 0 
N 59 83 0 
N 61 2 0 
N 90 69 0 
N 13 81 0 
N 36 6 0 
N 9 33 0 
N 15 84 0 
N 49 9 0 
N 62 97 0 
N 46 66 0 
N 59 10 0 
N 33 22 0 
N 97 23 0 
N 27 59 0 
N 23 76 0 
N 67 15 0 
N 36 50 0 
N 11 12 0 
N 84 86 0 
N 97 29 0 
N 52 21 0 
N 52 71 0 
N 29 60 0 
N 38 98 0 
N 97 44 0 
N 34 64 0 
N 37 41 0 
N 49 25 0 
N 38 28 0 
N 68 26 0 
N 49 92 0 
N 67 92 0 
N 52 88 0 
N 30 6 0 
N 72 3 0 
N 14 95 0 
N 51 28 0 
N 11 74 0 
N 66 88 0 
N 98 45 0 
N 14 97 0 
N 47 65 0 
N 19 26 0 
N 72 66 0 
N 32 40 0 
N 95 48 0 
N 57 56 0 
N 30 53 0 
N 6 25 0 
N 35 58 0 
N 67 20 0 
N 74 70 0 
N 49 70 0 
N 63 1 0 
N 94 33 0 
N 4 30 0 
N 66 49 0 
N 29 84 0 
N 91 33 0 
N 35 96 0 
N 67 61 0 
N 67 91 0 
N 34 52 0 
N 77 45 0 
N 7 3 0 
N 12 13 0 
N 60 82 0 
N 15 25 0 
N 25 56 0 
N 3 90 0 
N 84 88 0 
N 30 24 0 
N 64 48 0 
N 50 70 0 
N 71 61 0 
N 29 53 0 
N 52 14 0 
N 28 46 0 
N 63 96 0 
N 93 35 0 
N 60 97 0 
N 30 59 0 
N 33 35 0 
N 50 59 0 
N 58 14 0 
N 28 13 0 
N 83 73 0 
N 35 41 0 
N 11 13 0 
N 29 6 0 
N 78 4 0 
N 37 52 0 
N 38 54 0 
N 11 28 0 
N 67 85 0 
N 29 35 0 
N 88 89 0 
N 2 42 0 
N 49 8 0 
N 88 29 0 
N 18 25 0 
N 83 86 0 
N 37 59 0 
N 63 2 0 
N 50 12 0 
N 53 72 0 
N 84 74 0 
N 30 18 0 
N 32 57 0 
N 71 62 0 
N 83 48 0 
N 91 32 0 
N 85 65 0 
N 65 82 0 
N 35 88 0 
N 98 36 0 
N 61 17 0 
N 31 32 0 
N 13 77 0 
N 3 40 0 
N 25 58 0 
N 32 56 0 
N 62 53 0 
N 51 11 0 
N 90 25 0 
N 84 71 0 
N 58 93 0 
N 62 18 0 
N 96 37 0 
N 69 32 0 
N 35 91 0 
N 24 60 0 
N 49 10 0 
N 12 25 0 
N 56 54 0 
N 7 34 0 
N 4 25 0 
N 35 56 0 
N 98 88 0 
N 35 95 0 
N 98 32 0 
N 99 18 0 
N 15 34 0 
N 60 14 0 
N 35 7 0 
N 34 92 0 
N 56 55 0 
N 81 4 0 
N 74 45 0 
N 32 37 0 
N 59 82 0 
N 24 31 0 
N 26 57 0 
N 93 23 0 
N 5 23 0 
N 58 58 0 
N 80 5 0 
N 28 6 0 
N 29 21 0 
N 93 29 0 
N 7 91 0 
N 28 59 0 
N 54 70 0 
N 36 53 0 
N 3 93 0 
N 96 90 0 
N 53 18 0 
N 28 61 0 
N 66 91 0 
N 98 44 0 
N 55 54 0 
N 31 59 0 
N 23 60 0 
N 70 3 0 
N 65 62 0 
N 96 84 0 
N 76 56 0 
N 29 4 0 
N 67 44 0 
N 29 54 0 
N 57 87 0 
N 3 60 0 
N 83 67 0 
N 52 70 0 
N 9 82 0 
N 29 58 0 
N 83 58 0 
N 30 12 0 
N 66 53 0 
N 41 22 0 
N 98 19 0 
N 70 46 0 
N 15 27 0 
N 6 74 0 
N 67 10 0 
N 62 98 0 
N 19 59 0 
N 98 17 0 
N 64 83 0 
C 0 0 0 
C 25 0 0 
C 50 0 0 
C 75 0 0 
C 100 0 0 
C 0 25 0 
C 25 25 0 
C 50 25 0 
C 75 25 0 
C 100 25 0 
C 0 50 0 
C 25 50 0 
C 50 50 0 
C 75 50 0 
C 100 50 0 
C 0 75 0 
C 25 75 0 
C 50 75 0 
C 75 75 0 
C 100 75 0 
C 0 100 0 
C 25 100 0 
C 50 100 0 
C 75 100 0 
C 100 100 0 
O 58 91 0 
O 66 93 0 
O 51 69 0 
O 11 98 0 
O 98 27 0 
O 60 89 0 
O 79 91 0 
O 66 97 0 
O 64 97 0 
O 55 67 0 
O 48 62 0 
O 61 88 0 
O 67 95 0 
O 28 99 0 
O 97 5 0 
O 56 88 0 
O 85 98 0 
O 94 93 0 
O 82 74 0 
542
Atoms. Timestep: 34
N 17 24 0 
N 79 65 0 
N 92 70 0 
N 9 24 0 
N 8 26 0 
N 29 26 0 
N 5 26 0 
N 12 98 0 
N 7 21 0 
N 27 59 0 
N 68 43 0 
N 28 77 0 
N 31 34 0 
N 98 33 0 
N 48 71 0 
N 34 42 0 
N 30 62 0 
N 72 47 0 
N 28 63 0 
N 46 69 0 
N 98 22 0 
N 98 30 0 
N 29 20 0 
N 97 26 0 
N 27 21 0 
N 16 80 0 
N 29 27 0 
N 5 27 0 
N 36 59 0 
N 77 63 0 
N 3 60 0 
N 23 60 0 
N 94 27 0 
N 54 9 0 
N 36 50 0 
N 94 91 0 
N 67 46 0 
N 64 4 0 
N 9 33 0 
N 85 73 0 
N 56 60 0 
N 39 25 0 
N 50 80 0 
N 64 54 0 
N 50 96 0 
N 28 10 0 
N 80 90 0 
N 15 98 0 
N 36 99 0 
N 90 68 0 
N 36 3 0 
N 60 87 0 
N 11 85 0 
N 62 56 0 
N 97 45 0 
N 7 61 0 
N 55 59 0 
N 11 15 0 
N 97 25 0 
N 36 61 0 
N 93 33 0 
N 4 34 0 
N 30 37 0 
N 56 85 0 
N 24 62 0 
N 99 25 0 
N 28 90 0 
N 81 88 0 
N 29 46 0 
N 81 70 0 
N 60 84 0 
N 14 78 0 
N 56 86 0 
N 64 56 0 
N 91 35 0 
N 16 40 0 
N 12 94 0 
N 9 89 0 
N 38 6 0 
N 96 40 0 
N 34 29 0 
N 10 40 0 
N 83 60 0 
N 77 34 0 
N 8 87 0 
N 21 25 0 
N 53 72 0 
N 36 23 0 
N 18 97 0 
N 13 32 0 
N 49 17 0 
N 97 92 0 
N 68 21 0 
N 14 36 0 
N 82 5 0 
N 79 59 0 
N 37 8 0 
N 83 9 0 
N 9 82 0 
N 6 28 0 
N 62 1 0 
N 58 13 0 
N 14 25 0 
N 47 75 0 
N 14 83 0 
N 36 51 0 
N 45 66 0 
N 94 33 0 
N 31 57 0 
N 80 9 0 
N 6 60 0 
N 52 62 0 
N 92 29 0 
N 29 28 0 
N 48 94 0 
N 90 27 0 
N 82 91 0 
N 65 93 0 
N 79 62 0 
N 90 24 0 
N 53 67 0 
N 29 50 0 
N 60 47 0 
N 24 58 0 
N 95 41 0 
N 10 27 0 
N 92 40 0 
N 28 8 0 
N 26 61 0 
N 60 79 0 
N 54 56 0 
N 29 83 0 
N 79 3 0 
N 68 88 0 
N 95 25 0 
N 73 41 0 
N 98 36 0 
N 20 55 0 
N 49 93 0 
N 67 94 0 
N 38 62 0 
N 55 71 0 
N 35 1 0 
N 29 89 0 
N 56 12 0 
N 92 26 0 
N 14 97 0 
N 8 94 0 
N 67 57 0 
N 13 80 0 
N 98 41 0 
N 66 90 0 
N 94 89 0 
N 48 61 0 
N 28 61 0 
N 33 54 0 
N 24 59 0 
N 11 82 0 
N 6 20 0 
N 50 16 0 
N 61 83 0 
N 28 87 0 
N 29 16 0 
N 98 24 0 
N 87 67 0 
N 29 63 0 
N 31 55 0 
N 14 26 0 
N 68 9 0 
N 18 25 0 
N 95 32 0 
N 55 57 0 
N 15 61 0 
N 97 29 0 
N 31 20 0 
N 36 24 0 
N 68 95 0 
N 34 99 0 
N 29 58 0 
N 51 96 0 
N 94 86 0 
N 9 27 0 
N 17 30 0 
N 29 17 0 
N 95 26 0 
N 85 4 0 
N 95 93 0 
N 9 86 0 
N 29 33 0 
N 69 38 0 
N 98 45 0 
N 92 30 0 
N 15 83 0 
N 11 77 0 
N 28 27 0 
N 31 32 0 
N 67 6 0 
N 7 58 0 
N 60 11 0 
N 28 18 0 
N 85 69 0 
N 58 14 0 
N 39 97 0 
N 66 22 0 
N 98 25 0 
N 87 98 0 
N 85 98 0 
N 11 80 0 
N 66 9 0 
N 7 28 0 
N 5 46 0 
N 82 69 0 
N 81 91 0 
N 30 90 0 
N 68 53 0 
N 80 44 0 
N 11 10 0 
N 69 55 0 
N 47 95 0 
N 32 53 0 
N 81 43 0 
N 86 73 0 
N 64 11 0 
N 96 86 0 
N 54 70 0 
N 10 81 0 
N 95 31 0 
N 30 94 0 
N 29 60 0 
N 82 74 0 
N 34 50 0 
N 82 38 0 
N 44 91 0 
N 66 89 0 
N 64 20 0 
N 84 20 0 
N 14 16 0 
N 7 48 0 
N 50 26 0 
N 55 52 0 
N 97 27 0 
N 14 29 0 
N 36 6 0 
N 87 47 0 
N 22 60 0 
N 98 5 0 
N 28 62 0 
N 80 61 0 
N 26 14 0 
N 50 71 0 
N 80 64 0 
N 75 71 0 
N 8 79 0 
N 77 64 0 
N 12 79 0 
N 30 95 0 
N 4 22 0 
N 43 10 0 
N 65 55 0 
N 34 11 0 
N 85 6 0 
N 51 54 0 
N 67 89 0 
N 84 98 0 
N 62 21 0 
N 10 98 0 
N 82 89 0 
N 79 58 0 
N 6 36 0 
N 51 73 0 
N 50 14 0 
N 70 45 0 
N 69 54 0 
N 98 3 0 
N 96 27 0 
N 31 39 0 
N 30 11 0 
N 39 5 0 
N 94 87 0 
N 98 26 0 
N 64 15 0 
N 69 93 0 
N 11 97 0 
N 63 54 0 
N 11 94 0 
N 83 7 0 
N 12 12 0 
N 52 14 0 
N 34 45 0 
N 26 76 0 
N 33 39 0 
N 27 62 0 
N 97 41 0 
N 50 95 0 
N 63 20 0 
N 11 95 0 
N 66 60 0 
N 52 71 0 
N 30 59 0 
N 83 5 0 
N 34 27 0 
N 59 84 0 
N 61 3 0 
N 90 70 0 
N 13 82 0 
N 36 7 0 
N 9 32 0 
N 14 84 0 
N 49 10 0 
N 63 97 0 
N 46 65 0 
N 59 11 0 
N 33 23 0 
N 97 23 0 
N 27 60 0 
N 24 76 0 
N 67 16 0 
N 37 50 0 
N 11 13 0 
N 84 87 0 
N 98 29 0 
N 52 22 0 
N 52 70 0 
N 30 60 0 
N 37 98 0 
N 96 44 0 
N 35 64 0 
N 37 40 0 
N 48 25 0 
N 38 27 0 
N 68 25 0 
N 50 92 0 
N 67 93 0 
N 53 88 0 
N 30 7 0 
N 71 3 0 
N 13 95 0 
N 51 27 0 
N 11 75 0 
N 66 88 0 
N 98 44 0 
N 14 98 0 
N 48 65 0 
N 20 26 0 
N 72 67 0 
N 32 41 0 
N 95 49 0 
N 57 57 0 
N 31 53 0 
N 6 26 0 
N 36 58 0 
N 67 21 0 
N 74 71 0 
N 50 70 0 
N 63 2 0 
N 95 33 0 
N 4 29 0 
N 66 50 0 
N 29 85 0 
N 92 33 0 
N 34 96 0 
N 66 61 0 
N 66 91 0 
N 35 52 0 
N 78 45 0 
N 8 3 0 
N 12 14 0 
N 60 82 0 
N 15 26 0 
N 25 57 0 
N 3 91 0 
N 84 89 0 
N 29 24 0 
N 64 49 0 
N 51 70 0 
N 71 62 0 
N 29 54 0 
N 53 14 0 
N 28 47 0 
N 64 96 0 
N 94 35 0 
N 61 97 0 
N 31 59 0 
N 33 34 0 
N 49 59 0 
N 58 15 0 
N 28 14 0 
N 82 73 0 
N 34 41 0 
N 11 14 0 
N 29 7 0 
N 79 4 0 
N 38 52 0 
N 38 55 0 
N 11 27 0 
N 67 86 0 
N 30 35 0 
N 88 90 0 
N 2 41 0 
N 50 8 0 
N 88 30 0 
N 18 26 0 
N 82 86 0 
N 38 59 0 
N 64 2 0 
N 50 13 0 
N 53 71 0 
N 83 74 0 
N 29 18 0 
N 32 58 0 
N 70 62 0 
N 83 49 0 
N 92 32 0 
N 85 66 0 
N 65 83 0 
N 35 89 0 
N 98 35 0 
N 62 17 0 
N 31 31 0 
N 12 77 0 
N 3 41 0 
N 25 59 0 
N 33 56 0 
N 62 54 0 
N 52 11 0 
N 90 26 0 
N 84 72 0 
N 58 92 0 
N 63 18 0 
N 96 36 0 
N 68 32 0 
N 34 91 0 
N 25 60 0 
N 50 10 0 
N 13 25 0 
N 56 55 0 
N 7 33 0 
N 5 25 0 
N 36 56 0 
N 98 89 0 
N 34 95 0 
N 98 31 0 
N 99 19 0 
N 15 33 0 
N 61 14 0 
N 35 8 0 
N 34 93 0 
N 56 56 0 
N 81 4 0 
N 75 45 0 
N 32 38 0 
N 59 82 0 
N 24 30 0 
N 26 58 0 
N 94 23 0 
N 6 23 0 
N 58 59 0 
N 81 5 0 
N 28 6 0 
N 28 21 0 
N 93 28 0 
N 8 91 0 
N 28 59 0 
N 54 69 0 
N 37 53 0 
N 4 93 0 
N 95 90 0 
N 54 18 0 
N 29 61 0 
N 66 92 0 
N 98 43 0 
N 55 55 0 
N 31 60 0 
N 23 61 0 
N 69 3 0 
N 64 62 0 
N 95 84 0 
N 77 56 0 
N 28 4 0 
N 68 44 0 
N 30 54 0 
N 56 87 0 
N 2 60 0 
N 82 67 0 
N 52 69 0 
N 9 83 0 
N 30 58 0 
N 82 58 0 
N 30 13 0 
N 66 54 0 
N 40 22 0 
N 98 20 0 
N 70 47 0 
N 16 27 0 
N 7 74 0 
N 66 10 0 
N 63 98 0 
N 19 58 0 
N 98 18 0 
N 63 83 0 
C 0 0 0 
C 25 0 0 
C 50 0 0 
C 75 0 0 
C 100 0 0 
C 0 25 0 
C 25 25 0 
C 50 25 0 
C 75 25 0 
C 100 25 0 
C 0 50 0 
C 25 50 0 
C 50 50 0 
C 75 50 0 
C 100 50 0 
C 0 75 0 
C 25 75 0 
C 50 75 0 
C 75 75 0 
C 100 75 0 
C 0 100 0 
C 25 100 0 
C 50 100 0 
C 75 100 0 
C 100 100 0 
O 59 91 0 
O 66 94 0 
O 50 69 0 
O 11 99 0 
O 99 27 0 
O 60 88 0 
O 79 90 0 
O 66 96 0 
O 65 97 0 
O 54 67 0 
O 48 63 0 
O 61 87 0 
O 66 95 0 
O 29 99 0 
O 97 4 0 
O 57 88 0 
O 94 94 0 
537
Atoms. Timestep: 35
N 18 24 0 
N 78 65 0 
N 92 71 0 
N 9 25 0 
N 8 27 0 
N 29 27 0 
N 6 26 0 
N 12 97 0 
N 8 21 0 
N 28 59 0 
N 68 42 0 
N 28 78 0 
N 32 34 0 
N 99 33 0 
N 48 70 0 
N 34 41 0 
N 31 62 0 
N 73 47 0 
N 29 63 0 
N 46 68 0 
N 98 23 0 
N 98 29 0 
N 29 21 0 
N 97 26 0 
N 28 21 0 
N 15 80 0 
N 29 28 0 
N 5 27 0 
N 36 60 0 
N 76 63 0 
N 3 61 0 
N 23 61 0 
N 95 27 0 
N 54 10 0 
N 37 50 0 
N 94 92 0 
N 67 47 0 
N 64 5 0 
N 9 32 0 
N 85 74 0 
N 55 60 0 
N 39 24 0 
N 51 80 0 
N 63 54 0 
N 51 96 0 
N 28 11 0 
N 79 90 0 
N 14 98 0 
N 35 99 0 
N 91 68 0 
N 35 3 0 
N 60 88 0 
N 11 86 0 
N 62 57 0 
N 98 45 0 
N 8 61 0 
N 54 59 0 
N 11 16 0 
N 96 25 0 
N 36 62 0 
N 94 33 0 
N 5 34 0 
N 30 38 0 
N 57 85 0 
N 24 63 0 
N 99 26 0 
N 28 91 0 
N 80 88 0 
N 30 46 0 
N 80 70 0 
N 60 85 0 
N 14 79 0 
N 57 86 0 
N 63 56 0 
N 91 34 0 
N 16 39 0 
N 11 94 0 
N 10 89 0 
N 38 7 0 
N 96 39 0 
N 34 30 0 
N 10 39 0 
N 82 60 0 
N 78 34 0 
N 8 88 0 
N 22 25 0 
N 52 72 0 
N 36 24 0 
N 18 98 0 
N 13 31 0 
N 49 16 0 
N 96 92 0 
N 67 21 0 
N 14 35 0 
N 83 5 0 
N 78 59 0 
N 37 9 0 
N 84 9 0 
N 9 83 0 
N 7 28 0 
N 62 2 0 
N 58 14 0 
N 15 25 0 
N 47 74 0 
N 14 84 0 
N 36 51 0 
N 46 66 0 
N 94 32 0 
N 32 57 0 
N 79 9 0 
N 7 60 0 
N 52 63 0 
N 92 28 0 
N 29 29 0 
N 48 93 0 
N 91 27 0 
N 81 91 0 
N 65 94 0 
N 79 63 0 
N 90 25 0 
N 54 67 0 
N 29 49 0 
N 60 48 0 
N 25 58 0 
N 96 41 0 
N 11 27 0 
N 92 39 0 
N 28 9 0 
N 26 62 0 
N 60 80 0 
N 54 56 0 
N 29 84 0 
N 79 4 0 
N 67 88 0 
N 95 26 0 
N 74 41 0 
N 98 35 0 
N 19 55 0 
N 50 93 0 
N 66 94 0 
N 39 62 0 
N 55 70 0 
N 34 1 0 
N 29 90 0 
N 56 13 0 
N 93 26 0 
N 13 97 0 
N 8 95 0 
N 66 57 0 
N 13 81 0 
N 99 41 0 
N 66 91 0 
N 94 89 0 
N 48 62 0 
N 29 61 0 
N 33 55 0 
N 25 59 0 
N 11 83 0 
N 6 21 0 
N 50 15 0 
N 61 84 0 
N 29 87 0 
N 29 16 0 
N 99 24 0 
N 87 68 0 
N 30 63 0 
N 32 55 0 
N 15 26 0 
N 69 9 0 
N 19 25 0 
N 95 31 0 
N 54 57 0 
N 14 61 0 
N 97 28 0 
N 30 20 0 
N 36 25 0 
N 67 95 0 
N 33 99 0 
N 30 58 0 
N 52 96 0 
N 94 87 0 
N 9 26 0 
N 18 30 0 
N 29 17 0 
N 96 26 0 
N 86 4 0 
N 95 94 0 
N 9 87 0 
N 30 33 0 
N 69 39 0 
N 98 44 0 
N 93 30 0 
N 15 84 0 
N 10 77 0 
N 28 27 0 
N 32 32 0 
N 66 6 0 
N 6 58 0 
N 60 12 0 
N 29 18 0 
N 85 70 0 
N 59 14 0 
N 38 97 0 
N 66 23 0 
N 98 26 0 
N 88 98 0 
N 85 97 0 
N 11 80 0 
N 66 10 0 
N 7 27 0 
N 5 45 0 
N 82 70 0 
N 81 90 0 
N 30 91 0 
N 67 53 0 
N 80 45 0 
N 11 11 0 
N 69 56 0 
N 47 94 0 
N 33 53 0 
N 82 43 0 
N 86 74 0 
N 65 11 0 
N 96 87 0 
N 54 69 0 
N 11 81 0 
N 96 31 0 
N 30 95 0 
N 30 60 0 
N 82 75 0 
N 35 50 0 
N 82 37 0 
N 45 91 0 
N 66 89 0 
N 65 20 0 
N 84 21 0 
N 14 17 0 
N 7 47 0 
N 49 26 0 
N 55 53 0 
N 97 27 0 
N 14 28 0 
N 35 6 0 
N 87 48 0 
N 22 61 0 
N 98 4 0 
N 29 62 0 
N 79 61 0 
N 26 15 0 
N 51 71 0 
N 81 64 0 
N 76 71 0 
N 8 80 0 
N 77 65 0 
N 12 80 0 
N 30 96 0 
N 4 23 0 
N 43 11 0 
N 65 56 0 
N 34 12 0 
N 85 5 0 
N 52 54 0 
N 67 90 0 
N 83 98 0 
N 62 22 0 
N 10 99 0 
N 82 90 0 
N 79 57 0 
N 7 36 0 
N 52 73 0 
N 49 14 0 
N 70 46 0 
N 68 54 0 
N 97 3 0 
N 96 27 0 
N 31 38 0 
N 30 12 0 
N 39 6 0 
N 94 88 0 
N 98 27 0 
N 65 15 0 
N 69 94 0 
N 11 98 0 
N 63 55 0 
N 11 95 0 
N 84 7 0 
N 12 13 0 
N 53 14 0 
N 34 46 0 
N 27 76 0 
N 33 40 0 
N 27 63 0 
N 97 40 0 
N 51 95 0 
N 63 21 0 
N 11 96 0 
N 66 61 0 
N 53 71 0 
N 31 59 0 
N 84 5 0 
N 33 27 0 
N 59 85 0 
N 61 4 0 
N 91 70 0 
N 12 82 0 
N 36 8 0 
N 9 31 0 
N 13 84 0 
N 50 10 0 
N 64 97 0 
N 47 65 0 
N 59 12 0 
N 33 24 0 
N 97 24 0 
N 27 61 0 
N 24 77 0 
N 67 17 0 
N 37 51 0 
N 11 13 0 
N 84 88 0 
N 99 29 0 
N 52 21 0 
N 52 69 0 
N 31 60 0 
N 36 98 0 
N 97 44 0 
N 36 64 0 
N 37 39 0 
N 49 25 0 
N 38 28 0 
N 69 25 0 
N 50 91 0 
N 67 93 0 
N 54 88 0 
N 30 8 0 
N 70 3 0 
N 13 96 0 
N 52 27 0 
N 11 76 0 
N 66 88 0 
N 98 43 0 
N 13 98 0 
N 48 64 0 
N 21 26 0 
N 71 67 0 
N 32 42 0 
N 95 48 0 
N 57 58 0 
N 31 54 0 
N 6 27 0 
N 37 58 0 
N 67 22 0 
N 74 70 0 
N 50 69 0 
N 63 3 0 
N 96 33 0 
N 5 29 0 
N 66 51 0 
N 29 86 0 
N 92 34 0 
N 33 96 0 
N 66 62 0 
N 66 92 0 
N 36 52 0 
N 78 46 0 
N 9 3 0 
N 12 15 0 
N 60 83 0 
N 15 27 0 
N 26 57 0 
N 3 92 0 
N 83 89 0 
N 29 25 0 
N 64 50 0 
N 51 70 0 
N 70 62 0 
N 29 55 0 
N 54 14 0 
N 27 47 0 
N 65 96 0 
N 95 35 0 
N 62 97 0 
N 32 59 0 
N 33 33 0 
N 48 59 0 
N 58 16 0 
N 28 15 0 
N 81 73 0 
N 33 41 0 
N 11 14 0 
N 29 8 0 
N 79 5 0 
N 39 52 0 
N 38 56 0 
N 12 27 0 
N 67 87 0 
N 31 35 0 
N 87 90 0 
N 2 40 0 
N 50 9 0 
N 89 30 0 
N 18 27 0 
N 81 86 0 
N 38 60 0 
N 65 2 0 
N 49 13 0 
N 53 70 0 
N 83 75 0 
N 29 19 0 
N 33 58 0 
N 70 63 0 
N 83 50 0 
N 93 32 0 
N 85 67 0 
N 64 83 0 
N 34 89 0 
N 98 34 0 
N 63 17 0 
N 30 31 0 
N 12 78 0 
N 3 40 0 
N 25 60 0 
N 34 56 0 
N 62 55 0 
N 53 11 0 
N 91 26 0 
N 84 73 0 
N 59 92 0 
N 63 19 0 
N 97 36 0 
N 68 31 0 
N 34 92 0 
N 25 61 0 
N 50 11 0 
N 13 26 0 
N 56 56 0 
N 8 33 0 
N 6 25 0 
N 37 56 0 
N 97 89 0 
N 33 95 0 
N 99 31 0 
N 99 20 0 
N 15 32 0 
N 61 15 0 
N 34 8 0 
N 35 93 0 
N 56 57 0 
N 80 4 0 
N 75 44 0 
N 32 37 0 
N 59 83 0 
N 24 29 0 
N 27 58 0 
N 95 23 0 
N 6 24 0 
N 57 59 0 
N 81 6 0 
N 28 7 0 
N 28 22 0 
N 93 27 0 
N 8 92 0 
N 29 59 0 
N 54 68 0 
N 37 54 0 
N 5 93 0 
N 94 90 0 
N 53 18 0 
N 30 61 0 
N 66 93 0 
N 98 42 0 
N 55 56 0 
N 31 61 0 
N 23 62 0 
N 69 4 0 
N 64 61 0 
N 94 84 0 
N 77 55 0 
N 28 5 0 
N 69 44 0 
N 30 55 0 
N 56 88 0 
N 1 60 0 
N 82 68 0 
N 51 69 0 
N 9 84 0 
N 31 58 0 
N 83 58 0 
N 29 13 0 
N 66 55 0 
N 40 21 0 
N 98 21 0 
N 70 48 0 
N 17 27 0 
N 8 74 0 
N 66 11 0 
N 64 98 0 
N 20 58 0 
N 98 19 0 
N 62 83 0 
C 0 0 0 
C 25 0 0 
C 50 0 0 
C 75 0 0 
C 100 0 0 
C 0 25 0 
C 25 25 0 
C 50 25 0 
C 75 25 0 
C 100 25 0 
C 0 50 0 
C 25 50 0 
C 50 50 0 
C 75 50 0 
C 100 50 0 
C 0 75 0 
C 25 75 0 
C 50 75 0 
C 75 75 0 
C 100 75 0 
C 0 100 0 
C 25 100 0 
C 50 100 0 
C 75 100 0 
C 100 100 0 
O 58 91 0 
O 11 0 0 
O 0 27 0 
O 67 96 0 
O 66 97 0 
O 47 63 0 
O 61 88 0 
O 65 95 0 
O 30 99 0 
O 97 5 0 
O 58 88 0 
O 93 94 0 
534
Atoms. Timestep: 36
N 17 24 0 
N 78 66 0 
N 92 72 0 
N 8 25 0 
N 8 27 0 
N 30 27 0 
N 5 26 0 
N 12 97 0 
N 8 22 0 
N 28 60 0 
N 68 43 0 
N 28 79 0 
N 31 34 0 
N 98 33 0 
N 49 70 0 
N 33 41 0 
N 32 62 0 
N 73 46 0 
N 30 63 0 
N 46 67 0 
N 98 24 0 
N 98 28 0 
N 29 21 0 
N 97 26 0 
N 28 22 0 
N 15 79 0 
N 28 28 0 
N 4 27 0 
N 37 60 0 
N 75 63 0 
N 2 61 0 
N 23 62 0 
N 94 27 0 
N 55 10 0 
N 38 50 0 
N 94 93 0 
N 67 46 0 
N 64 6 0 
N 9 31 0 
N 86 74 0 
N 55 61 0 
N 39 25 0 
N 51 81 0 
N 63 55 0 
N 52 96 0 
N 28 12 0 
N 80 90 0 
N 13 98 0 
N 34 99 0 
N 92 68 0 
N 34 3 0 
N 61 88 0 
N 11 85 0 
N 62 58 0 
N 97 45 0 
N 9 61 0 
N 54 60 0 
N 11 15 0 
N 95 25 0 
N 36 61 0 
N 93 33 0 
N 4 34 0 
N 30 37 0 
N 58 85 0 
N 25 63 0 
N 99 27 0 
N 28 92 0 
N 79 88 0 
N 31 46 0 
N 79 70 0 
N 60 86 0 
N 13 79 0 
N 58 86 0 
N 63 57 0 
N 91 33 0 
N 16 38 0 
N 11 93 0 
N 11 89 0 
N 37 7 0 
N 96 38 0 
N 34 29 0 
N 10 38 0 
N 83 60 0 
N 77 34 0 
N 9 88 0 
N 21 25 0 
N 51 72 0 
N 36 23 0 
N 18 97 0 
N 12 31 0 
N 50 16 0 
N 95 92 0 
N 66 21 0 
N 13 35 0 
N 83 5 0 
N 79 59 0 
N 37 10 0 
N 84 8 0 
N 9 82 0 
N 6 28 0 
N 62 1 0 
N 58 15 0 
N 14 25 0 
N 47 73 0 
N 14 83 0 
N 36 52 0 
N 47 66 0 
N 93 32 0 
N 33 57 0 
N 79 8 0 
N 7 59 0 
N 51 63 0 
N 91 28 0 
N 28 29 0 
N 48 92 0 
N 90 27 0 
N 81 92 0 
N 66 94 0 
N 79 62 0 
N 89 25 0 
N 54 66 0 
N 30 49 0 
N 59 48 0 
N 25 59 0 
N 95 41 0 
N 10 27 0 
N 91 39 0 
N 28 10 0 
N 26 63 0 
N 60 81 0 
N 53 56 0 
N 30 84 0 
N 80 4 0 
N 66 88 0 
N 94 26 0 
N 75 41 0 
N 98 34 0 
N 18 55 0 
N 50 92 0 
N 66 95 0 
N 40 62 0 
N 55 69 0 
N 33 1 0 
N 30 90 0 
N 56 14 0 
N 92 26 0 
N 13 96 0 
N 9 95 0 
N 66 58 0 
N 13 80 0 
N 99 40 0 
N 66 92 0 
N 94 90 0 
N 47 62 0 
N 29 62 0 
N 33 56 0 
N 25 60 0 
N 12 83 0 
N 6 22 0 
N 49 15 0 
N 61 85 0 
N 30 87 0 
N 29 17 0 
N 99 23 0 
N 87 69 0 
N 31 63 0 
N 32 56 0 
N 15 27 0 
N 68 9 0 
N 18 25 0 
N 95 30 0 
N 53 57 0 
N 15 61 0 
N 96 28 0 
N 30 21 0 
N 37 25 0 
N 67 96 0 
N 32 99 0 
N 31 58 0 
N 53 96 0 
N 93 87 0 
N 9 27 0 
N 17 30 0 
N 30 17 0 
N 96 26 0 
N 87 4 0 
N 94 94 0 
N 9 86 0 
N 30 34 0 
N 68 39 0 
N 98 43 0 
N 93 29 0 
N 15 83 0 
N 11 77 0 
N 27 27 0 
N 31 32 0 
N 66 7 0 
N 6 57 0 
N 60 13 0 
N 30 18 0 
N 86 70 0 
N 60 14 0 
N 38 98 0 
N 66 24 0 
N 98 26 0 
N 88 97 0 
N 85 96 0 
N 11 79 0 
N 66 11 0 
N 7 27 0 
N 4 45 0 
N 82 71 0 
N 82 90 0 
N 30 92 0 
N 67 54 0 
N 81 45 0 
N 11 10 0 
N 68 56 0 
N 47 93 0 
N 33 54 0 
N 83 43 0 
N 86 75 0 
N 65 12 0 
N 96 88 0 
N 54 68 0 
N 11 81 0 
N 96 30 0 
N 30 96 0 
N 30 61 0 
N 83 75 0 
N 36 50 0 
N 82 36 0 
N 46 91 0 
N 65 89 0 
N 66 20 0 
N 84 22 0 
N 14 16 0 
N 7 46 0 
N 49 27 0 
N 54 53 0 
N 97 27 0 
N 13 28 0 
N 35 7 0 
N 87 49 0 
N 22 62 0 
N 98 5 0 
N 30 62 0 
N 78 61 0 
N 26 16 0 
N 50 71 0 
N 80 64 0 
N 75 71 0 
N 9 80 0 
N 76 65 0 
N 12 79 0 
N 30 97 0 
N 4 24 0 
N 42 11 0 
N 64 56 0 
N 33 12 0 
N 86 5 0 
N 51 54 0 
N 67 91 0 
N 83 97 0 
N 63 22 0 
N 11 99 0 
N 82 91 0 
N 78 57 0 
N 6 36 0 
N 51 73 0 
N 49 13 0 
N 69 46 0 
N 68 55 0 
N 97 4 0 
N 96 27 0 
N 31 39 0 
N 30 13 0 
N 39 7 0 
N 93 88 0 
N 98 27 0 
N 66 15 0 
N 68 94 0 
N 11 97 0 
N 62 55 0 
N 11 95 0 
N 84 6 0 
N 12 12 0 
N 53 15 0 
N 34 47 0 
N 28 76 0 
N 34 40 0 
N 28 63 0 
N 97 39 0 
N 51 94 0 
N 64 21 0 
N 11 96 0 
N 66 62 0 
N 52 71 0 
N 32 59 0 
N 84 5 0 
N 33 28 0 
N 59 86 0 
N 62 4 0 
N 92 70 0 
N 12 81 0 
N 36 9 0 
N 8 31 0 
N 12 84 0 
N 51 10 0 
N 65 97 0 
N 46 65 0 
N 58 12 0 
N 32 24 0 
N 97 25 0 
N 27 62 0 
N 24 78 0 
N 67 18 0 
N 38 51 0 
N 11 12 0 
N 85 88 0 
N 99 28 0 
N 51 21 0 
N 52 68 0 
N 32 60 0 
N 35 98 0 
N 96 44 0 
N 36 63 0 
N 37 38 0 
N 49 24 0 
N 39 28 0 
N 69 26 0 
N 51 91 0 
N 67 94 0 
N 55 88 0 
N 30 9 0 
N 70 4 0 
N 12 96 0 
N 51 27 0 
N 11 75 0 
N 65 88 0 
N 97 43 0 
N 12 98 0 
N 47 64 0 
N 21 27 0 
N 71 66 0 
N 32 43 0 
N 95 47 0 
N 57 59 0 
N 31 55 0 
N 6 27 0 
N 38 58 0 
N 67 23 0 
N 74 71 0 
N 49 69 0 
N 64 3 0 
N 96 32 0 
N 4 29 0 
N 66 50 0 
N 30 86 0 
N 92 33 0 
N 32 96 0 
N 65 62 0 
N 66 93 0 
N 36 53 0 
N 77 46 0 
N 8 3 0 
N 12 14 0 
N 60 84 0 
N 14 27 0 
N 26 58 0 
N 4 92 0 
N 84 89 0 
N 29 26 0 
N 64 51 0 
N 51 69 0 
N 69 62 0 
N 29 56 0 
N 55 14 0 
N 26 47 0 
N 65 95 0 
N 94 35 0 
N 63 97 0 
N 33 59 0 
N 33 34 0 
N 47 59 0 
N 57 16 0 
N 28 16 0 
N 80 73 0 
N 33 42 0 
N 11 14 0 
N 29 9 0 
N 79 5 0 
N 39 53 0 
N 38 57 0 
N 12 27 0 
N 66 87 0 
N 32 35 0 
N 87 91 0 
N 2 39 0 
N 51 9 0 
N 89 29 0 
N 17 27 0 
N 82 86 0 
N 38 61 0 
N 65 3 0 
N 48 13 0 
N 53 69 0 
N 83 76 0 
N 29 20 0 
N 34 58 0 
N 69 63 0 
N 83 51 0 
N 93 31 0 
N 84 67 0 
N 63 83 0 
N 33 89 0 
N 97 34 0 
N 64 17 0 
N 30 32 0 
N 11 78 0 
N 3 39 0 
N 26 60 0 
N 34 57 0 
N 62 56 0 
N 53 12 0 
N 90 26 0 
N 85 73 0 
N 58 92 0 
N 63 20 0 
N 97 35 0 
N 68 32 0 
N 33 92 0 
N 26 61 0 
N 51 11 0 
N 13 27 0 
N 56 55 0 
N 8 32 0 
N 5 25 0 
N 36 56 0 
N 97 90 0 
N 32 95 0 
N 99 30 0 
N 99 21 0 
N 15 31 0 
N 61 16 0 
N 34 9 0 
N 34 93 0 
N 56 58 0 
N 80 5 0 
N 76 44 0 
N 33 37 0 
N 59 84 0 
N 23 29 0 
N 28 58 0 
N 94 23 0 
N 5 24 0 
N 56 59 0 
N 81 5 0 
N 28 8 0 
N 29 22 0 
N 92 27 0 
N 8 91 0 
N 30 59 0 
N 53 68 0 
N 37 55 0 
N 6 93 0 
N 93 90 0 
N 53 19 0 
N 31 61 0 
N 65 93 0 
N 98 41 0 
N 55 57 0 
N 32 61 0 
N 24 62 0 
N 69 5 0 
N 64 62 0 
N 93 84 0 
N 77 56 0 
N 29 5 0 
N 69 43 0 
N 30 56 0 
N 57 88 0 
N 1 59 0 
N 82 67 0 
N 51 68 0 
N 10 84 0 
N 32 58 0 
N 84 58 0 
N 29 14 0 
N 65 55 0 
N 40 22 0 
N 98 22 0 
N 70 49 0 
N 16 27 0 
N 8 73 0 
N 66 12 0 
N 65 98 0 
N 19 58 0 
N 98 20 0 
N 62 84 0 
C 0 0 0 
C 25 0 0 
C 50 0 0 
C 75 0 0 
C 100 0 0 
C 0 25 0 
C 25 25 0 
C 50 25 0 
C 75 25 0 
C 100 25 0 
C 0 50 0 
C 25 50 0 
C 50 50 0 
C 75 50 0 
C 100 50 0 
C 0 75 0 
C 25 75 0 
C 50 75 0 
C 75 75 0 
C 100 75 0 
C 0 100 0 
C 25 100 0 
C 50 100 0 
C 75 100 0 
C 100 100 0 
O 58 90 0 
O 12 0 0 
O 0 28 0 
O 67 97 0 
O 48 63 0 
O 29 99 0 
O 97 6 0 
O 58 89 0 
O 93 95 0 
533
Atoms. Timestep: 37
N 17 25 0 
N 78 65 0 
N 92 73 0 
N 8 26 0 
N 8 28 0 
N 30 28 0 
N 4 26 0 
N 12 97 0 
N 8 23 0 
N 28 61 0 
N 68 44 0 
N 28 80 0 
N 32 34 0 
N 97 33 0 
N 49 69 0 
N 32 41 0 
N 33 62 0 
N 73 45 0 
N 31 63 0 
N 46 66 0 
N 98 25 0 
N 97 28 0 
N 29 22 0 
N 97 27 0 
N 28 23 0 
N 15 78 0 
N 27 28 0 
N 4 28 0 
N 38 60 0 
N 74 63 0 
N 2 62 0 
N 24 62 0 
N 94 28 0 
N 56 10 0 
N 39 50 0 
N 94 94 0 
N 68 46 0 
N 63 6 0 
N 8 31 0 
N 86 75 0 
N 55 62 0 
N 40 25 0 
N 51 82 0 
N 62 55 0 
N 53 96 0 
N 29 12 0 
N 80 91 0 
N 13 97 0 
N 33 99 0 
N 93 68 0 
N 34 4 0 
N 60 88 0 
N 12 85 0 
N 61 58 0 
N 97 44 0 
N 8 61 0 
N 53 60 0 
N 11 14 0 
N 94 25 0 
N 37 61 0 
N 92 33 0 
N 3 34 0 
N 30 36 0 
N 58 86 0 
N 25 63 0 
N 99 27 0 
N 28 93 0 
N 80 88 0 
N 31 45 0 
N 80 70 0 
N 60 87 0 
N 13 78 0 
N 58 87 0 
N 63 58 0 
N 91 32 0 
N 15 38 0 
N 12 93 0 
N 11 88 0 
N 37 8 0 
N 95 38 0 
N 35 29 0 
N 9 38 0 
N 84 60 0 
N 77 33 0 
N 10 88 0 
N 21 26 0 
N 50 72 0 
N 35 23 0 
N 18 96 0 
N 12 30 0 
N 50 15 0 
N 94 92 0 
N 66 22 0 
N 12 35 0 
N 84 5 0 
N 80 59 0 
N 37 11 0 
N 85 8 0 
N 9 81 0 
N 5 28 0 
N 61 1 0 
N 58 16 0 
N 14 26 0 
N 47 72 0 
N 14 82 0 
N 37 52 0 
N 48 66 0 
N 93 31 0 
N 34 57 0 
N 80 8 0 
N 6 59 0 
N 50 63 0 
N 91 28 0 
N 28 30 0 
N 49 92 0 
N 90 28 0 
N 82 92 0 
N 65 94 0 
N 79 63 0 
N 88 25 0 
N 53 66 0 
N 29 49 0 
N 59 49 0 
N 25 60 0 
N 95 40 0 
N 10 28 0 
N 90 39 0 
N 28 11 0 
N 26 63 0 
N 59 81 0 
N 53 57 0 
N 30 85 0 
N 81 4 0 
N 66 89 0 
N 93 26 0 
N 75 42 0 
N 97 34 0 
N 19 55 0 
N 51 92 0 
N 65 95 0 
N 41 62 0 
N 55 68 0 
N 32 1 0 
N 29 90 0 
N 56 15 0 
N 92 27 0 
N 13 95 0 
N 9 94 0 
N 66 59 0 
N 13 80 0 
N 99 39 0 
N 66 91 0 
N 93 90 0 
N 47 63 0 
N 29 62 0 
N 34 56 0 
N 26 60 0 
N 12 82 0 
N 6 23 0 
N 48 15 0 
N 61 86 0 
N 29 87 0 
N 29 18 0 
N 98 23 0 
N 87 70 0 
N 32 63 0 
N 32 57 0 
N 14 27 0 
N 68 10 0 
N 18 26 0 
N 94 30 0 
N 52 57 0 
N 16 61 0 
N 95 28 0 
N 30 20 0 
N 36 25 0 
N 67 97 0 
N 31 99 0 
N 32 58 0 
N 53 95 0 
N 93 88 0 
N 9 28 0 
N 17 29 0 
N 30 18 0 
N 95 26 0 
N 88 4 0 
N 94 95 0 
N 9 87 0 
N 30 33 0 
N 68 38 0 
N 97 43 0 
N 93 28 0 
N 15 82 0 
N 12 77 0 
N 26 27 0 
N 30 32 0 
N 66 8 0 
N 6 58 0 
N 60 14 0 
N 30 19 0 
N 86 69 0 
N 60 15 0 
N 37 98 0 
N 66 25 0 
N 98 26 0 
N 89 97 0 
N 86 96 0 
N 11 78 0 
N 67 11 0 
N 6 27 0 
N 3 45 0 
N 82 70 0 
N 82 91 0 
N 29 92 0 
N 66 54 0 
N 81 44 0 
N 11 9 0 
N 67 56 0 
N 47 92 0 
N 34 54 0 
N 82 43 0 
N 87 75 0 
N 66 12 0 
N 95 88 0 
N 54 67 0 
N 11 80 0 
N 96 29 0 
N 29 96 0 
N 30 62 0 
N 82 75 0 
N 37 50 0 
N 82 35 0 
N 47 91 0 
N 64 89 0 
N 67 20 0 
N 84 23 0 
N 13 16 0 
N 6 46 0 
N 49 28 0 
N 53 53 0 
N 96 27 0 
N 13 29 0 
N 34 7 0 
N 86 49 0 
N 22 63 0 
N 98 6 0 
N 31 62 0 
N 77 61 0 
N 27 16 0 
N 50 70 0 
N 81 64 0 
N 74 71 0 
N 9 79 0 
N 75 65 0 
N 12 79 0 
N 30 98 0 
N 3 24 0 
N 41 11 0 
N 63 56 0 
N 33 13 0 
N 87 5 0 
N 51 55 0 
N 67 92 0 
N 84 97 0 
N 63 23 0 
N 11 98 0 
N 83 91 0 
N 78 58 0 
N 5 36 0 
N 50 73 0 
N 50 13 0 
N 69 45 0 
N 67 55 0 
N 97 5 0 
N 95 27 0 
N 31 40 0 
N 29 13 0 
N 39 8 0 
N 92 88 0 
N 98 27 0 
N 66 16 0 
N 68 95 0 
N 11 96 0 
N 62 56 0 
N 11 94 0 
N 85 6 0 
N 12 11 0 
N 54 15 0 
N 34 48 0 
N 29 76 0 
N 34 39 0 
N 29 63 0 
N 96 39 0 
N 51 93 0 
N 64 22 0 
N 12 96 0 
N 65 62 0 
N 52 70 0 
N 33 59 0 
N 85 5 0 
N 34 28 0 
N 59 87 0 
N 62 5 0 
N 93 70 0 
N 12 80 0 
N 36 10 0 
N 7 31 0 
N 12 84 0 
N 52 10 0 
N 66 97 0 
N 47 65 0 
N 58 13 0 
N 32 25 0 
N 96 25 0 
N 27 63 0 
N 24 79 0 
N 67 19 0 
N 39 51 0 
N 11 11 0 
N 86 88 0 
N 99 28 0 
N 52 21 0 
N 52 67 0 
N 32 60 0 
N 34 98 0 
N 95 44 0 
N 37 63 0 
N 37 39 0 
N 49 25 0 
N 40 28 0 
N 69 27 0 
N 51 90 0 
N 67 95 0 
N 56 88 0 
N 30 10 0 
N 70 5 0 
N 12 95 0 
N 52 27 0 
N 12 75 0 
N 64 88 0 
N 96 43 0 
N 12 98 0 
N 48 64 0 
N 21 28 0 
N 70 66 0 
N 33 43 0 
N 94 47 0 
N 57 60 0 
N 31 56 0 
N 5 27 0 
N 39 58 0 
N 67 24 0 
N 73 71 0 
N 48 69 0 
N 65 3 0 
N 95 32 0 
N 3 29 0 
N 66 51 0 
N 29 86 0 
N 92 32 0 
N 32 97 0 
N 64 62 0 
N 67 93 0 
N 36 54 0 
N 78 46 0 
N 8 2 0 
N 12 13 0 
N 60 85 0 
N 14 28 0 
N 26 59 0 
N 5 92 0 
N 85 89 0 
N 29 27 0 
N 64 52 0 
N 51 68 0 
N 69 63 0 
N 30 56 0 
N 55 15 0 
N 25 47 0 
N 65 96 0 
N 94 34 0 
N 64 97 0 
N 33 60 0 
N 33 33 0 
N 47 60 0 
N 57 17 0 
N 29 16 0 
N 80 72 0 
N 34 42 0 
N 11 13 0 
N 29 10 0 
N 80 5 0 
N 40 53 0 
N 39 57 0 
N 12 28 0 
N 65 87 0 
N 31 35 0 
N 88 91 0 
N 2 38 0 
N 52 9 0 
N 89 28 0 
N 17 28 0 
N 82 87 0 
N 39 61 0 
N 65 4 0 
N 48 14 0 
N 53 68 0 
N 84 76 0 
N 29 20 0 
N 34 59 0 
N 68 63 0 
N 84 51 0 
N 93 30 0 
N 85 67 0 
N 63 84 0 
N 33 90 0 
N 96 34 0 
N 64 18 0 
N 30 31 0 
N 12 78 0 
N 3 38 0 
N 26 61 0 
N 35 57 0 
N 62 57 0 
N 54 12 0 
N 89 26 0 
N 85 74 0 
N 58 91 0 
N 64 20 0 
N 96 35 0 
N 68 31 0 
N 32 92 0 
N 26 62 0 
N 51 12 0 
N 13 27 0 
N 56 56 0 
N 7 32 0 
N 4 25 0 
N 37 56 0 
N 96 90 0 
N 31 95 0 
N 99 29 0 
N 99 22 0 
N 15 30 0 
N 61 17 0 
N 33 9 0 
N 34 94 0 
N 56 59 0 
N 81 5 0 
N 77 44 0 
N 34 37 0 
N 58 84 0 
N 22 29 0 
N 28 59 0 
N 93 23 0 
N 5 24 0 
N 56 60 0 
N 82 5 0 
N 29 8 0 
N 29 23 0 
N 91 27 0 
N 9 91 0 
N 31 59 0 
N 53 67 0 
N 38 55 0 
N 6 92 0 
N 93 91 0 
N 52 19 0 
N 32 61 0 
N 65 92 0 
N 97 41 0 
N 55 58 0 
N 33 61 0 
N 24 63 0 
N 68 5 0 
N 64 63 0 
N 93 85 0 
N 77 57 0 
N 29 6 0 
N 70 43 0 
N 30 57 0 
N 58 88 0 
N 1 60 0 
N 82 66 0 
N 51 67 0 
N 11 84 0 
N 33 58 0 
N 84 57 0 
N 29 15 0 
N 65 56 0 
N 40 21 0 
N 97 22 0 
N 70 50 0 
N 16 28 0 
N 8 72 0 
N 66 13 0 
N 66 98 0 
N 19 57 0 
N 97 20 0 
N 62 85 0 
C 0 0 0 
C 25 0 0 
C 50 0 0 
C 75 0 0 
C 100 0 0 
C 0 25 0 
C 25 25 0 
C 50 25 0 
C 75 25 0 
C 100 25 0 
C 0 50 0 
C 25 50 0 
C 50 50 0 
C 75 50 0 
C 100 50 0 
C 0 75 0 
C 25 75 0 
C 50 75 0 
C 75 75 0 
C 100 75 0 
C 0 100 0 
C 25 100 0 
C 50 100 0 
C 75 100 0 
C 100 100 0 
O 57 90 0 
O 12 99 0 
O 1 28 0 
O 48 62 0 
O 29 98 0 
O 96 6 0 
O 59 89 0 
O 93 96 0 
531
Atoms. Timestep: 38
N 17 26 0 
N 77 65 0 
N 92 74 0 
N 7 26 0 
N 7 28 0 
N 30 28 0 
N 3 26 0 
N 13 97 0 
N 7 23 0 
N 28 62 0 
N 67 44 0 
N 28 81 0 
N 31 34 0 
N 97 32 0 
N 48 69 0 
N 33 41 0 
N 34 62 0 
N 73 44 0 
N 32 63 0 
N 47 66 0 
N 98 26 0 
N 97 28 0 
N 30 22 0 
N 96 27 0 
N 28 22 0 
N 16 78 0 
N 26 28 0 
N 4 28 0 
N 39 60 0 
N 74 64 0 
N 2 63 0 
N 24 62 0 
N 93 28 0 
N 57 10 0 
N 39 51 0 
N 94 95 0 
N 67 46 0 
N 63 7 0 
N 8 30 0 
N 87 75 0 
N 54 62 0 
N 39 25 0 
N 52 82 0 
N 62 56 0 
N 54 96 0 
N 29 13 0 
N 80 92 0 
N 14 97 0 
N 32 99 0 
N 93 69 0 
N 34 5 0 
N 60 89 0 
N 13 85 0 
N 60 58 0 
N 97 43 0 
N 8 60 0 
N 53 61 0 
N 11 14 0 
N 94 24 0 
N 37 62 0 
N 91 33 0 
N 2 34 0 
N 31 36 0 
N 59 86 0 
N 25 62 0 
N 99 28 0 
N 28 92 0 
N 80 89 0 
N 30 45 0 
N 80 71 0 
N 60 87 0 
N 14 78 0 
N 58 88 0 
N 62 58 0 
N 90 32 0 
N 14 38 0 
N 12 94 0 
N 12 88 0 
N 37 7 0 
N 95 37 0 
N 36 29 0 
N 8 38 0 
N 85 60 0 
N 77 32 0 
N 10 89 0 
N 20 26 0 
N 49 72 0 
N 35 24 0 
N 19 96 0 
N 11 30 0 
N 50 16 0 
N 94 93 0 
N 66 21 0 
N 12 34 0 
N 84 6 0 
N 81 59 0 
N 38 11 0 
N 86 8 0 
N 9 80 0 
N 5 28 0 
N 60 1 0 
N 57 16 0 
N 13 26 0 
N 47 71 0 
N 15 82 0 
N 37 53 0 
N 48 66 0 
N 93 30 0 
N 35 57 0 
N 80 7 0 
N 7 59 0 
N 50 62 0 
N 90 28 0 
N 27 30 0 
N 49 91 0 
N 89 28 0 
N 82 91 0 
N 64 94 0 
N 78 63 0 
N 87 25 0 
N 53 65 0 
N 29 50 0 
N 59 50 0 
N 25 61 0 
N 95 39 0 
N 10 28 0 
N 89 39 0 
N 28 10 0 
N 27 63 0 
N 59 82 0 
N 52 57 0 
N 29 85 0 
N 82 4 0 
N 65 89 0 
N 93 27 0 
N 74 42 0 
N 96 34 0 
N 19 54 0 
N 51 91 0 
N 64 95 0 
N 42 62 0 
N 54 68 0 
N 32 0 0 
N 30 90 0 
N 56 16 0 
N 92 26 0 
N 14 95 0 
N 9 95 0 
N 66 60 0 
N 13 79 0 
N 99 38 0 
N 65 91 0 
N 93 91 0 
N 47 62 0 
N 29 62 0 
N 35 56 0 
N 26 61 0 
N 13 82 0 
N 5 23 0 
N 47 15 0 
N 61 87 0 
N 29 88 0 
N 29 17 0 
N 98 24 0 
N 88 70 0 
N 33 63 0 
N 33 57 0 
N 13 27 0 
N 68 11 0 
N 18 27 0 
N 94 29 0 
N 51 57 0 
N 16 62 0 
N 95 28 0 
N 31 20 0 
N 36 26 0 
N 66 97 0 
N 30 99 0 
N 33 58 0 
N 54 95 0 
N 93 89 0 
N 9 28 0 
N 17 28 0 
N 31 18 0 
N 95 27 0 
N 88 5 0 
N 94 96 0 
N 10 87 0 
N 31 33 0 
N 69 38 0 
N 96 43 0 
N 92 28 0 
N 15 81 0 
N 13 77 0 
N 25 27 0 
N 29 32 0 
N 66 9 0 
N 6 57 0 
N 60 15 0 
N 31 19 0 
N 87 69 0 
N 59 15 0 
N 38 98 0 
N 65 25 0 
N 97 26 0 
N 89 96 0 
N 87 96 0 
N 11 77 0 
N 66 11 0 
N 5 27 0 
N 3 44 0 
N 82 71 0 
N 83 91 0 
N 30 92 0 
N 65 54 0 
N 81 43 0 
N 12 9 0 
N 67 57 0 
N 48 92 0 
N 34 55 0 
N 83 43 0 
N 87 76 0 
N 66 13 0 
N 95 89 0 
N 54 66 0 
N 11 79 0 
N 95 29 0 
N 28 96 0 
N 30 62 0 
N 82 74 0 
N 37 51 0 
N 81 35 0 
N 48 91 0 
N 63 89 0 
N 68 20 0 
N 83 23 0 
N 12 16 0 
N 6 45 0 
N 48 28 0 
N 53 54 0 
N 96 28 0 
N 12 29 0 
N 33 7 0 
N 85 49 0 
N 23 63 0 
N 97 6 0 
N 31 62 0 
N 76 61 0 
N 26 16 0 
N 49 70 0 
N 81 63 0 
N 73 71 0 
N 8 79 0 
N 75 64 0 
N 12 80 0 
N 29 98 0 
N 2 24 0 
N 40 11 0 
N 63 55 0 
N 33 14 0 
N 87 6 0 
N 51 56 0 
N 67 91 0 
N 85 97 0 
N 63 24 0 
N 12 98 0 
N 83 92 0 
N 78 59 0 
N 4 36 0 
N 49 73 0 
N 51 13 0 
N 68 45 0 
N 66 55 0 
N 96 5 0 
N 94 27 0 
N 31 41 0 
N 29 14 0 
N 38 8 0 
N 92 89 0 
N 98 27 0 
N 66 17 0 
N 68 94 0 
N 12 96 0 
N 61 56 0 
N 11 95 0 
N 86 6 0 
N 12 10 0 
N 55 15 0 
N 34 49 0 
N 29 77 0 
N 33 39 0 
N 30 63 0 
N 96 38 0 
N 52 93 0 
N 63 22 0 
N 13 96 0 
N 64 62 0 
N 51 70 0 
N 34 59 0 
N 86 5 0 
N 34 27 0 
N 59 87 0 
N 61 5 0 
N 93 71 0 
N 12 81 0 
N 36 11 0 
N 6 31 0 
N 12 83 0 
N 53 10 0 
N 66 96 0 
N 48 65 0 
N 57 13 0 
N 32 26 0 
N 95 25 0 
N 28 63 0 
N 24 80 0 
N 66 19 0 
N 40 51 0 
N 11 10 0 
N 87 88 0 
N 98 28 0 
N 51 21 0 
N 52 66 0 
N 33 60 0 
N 33 98 0 
N 94 44 0 
N 38 63 0 
N 37 40 0 
N 48 25 0 
N 41 28 0 
N 69 26 0 
N 52 90 0 
N 67 94 0 
N 57 88 0 
N 29 10 0 
N 70 6 0 
N 12 95 0 
N 53 27 0 
N 12 76 0 
N 63 88 0 
N 96 42 0 
N 12 99 0 
N 48 63 0 
N 20 28 0 
N 70 65 0 
N 32 43 0 
N 94 46 0 
N 56 60 0 
N 32 56 0 
N 4 27 0 
N 40 58 0 
N 66 24 0 
N 73 72 0 
N 48 68 0 
N 64 3 0 
N 95 31 0 
N 3 28 0 
N 66 52 0 
N 28 86 0 
N 92 31 0 
N 31 97 0 
N 63 62 0 
N 66 93 0 
N 36 55 0 
N 79 46 0 
N 9 2 0 
N 12 14 0 
N 60 86 0 
N 14 28 0 
N 27 59 0 
N 5 93 0 
N 85 90 0 
N 29 28 0 
N 64 53 0 
N 51 67 0 
N 68 63 0 
N 30 57 0 
N 55 16 0 
N 25 48 0 
N 65 96 0 
N 93 34 0 
N 64 96 0 
N 33 61 0 
N 33 32 0 
N 48 60 0 
N 57 18 0 
N 28 16 0 
N 80 73 0 
N 33 42 0 
N 11 13 0 
N 29 11 0 
N 81 5 0 
N 41 53 0 
N 40 57 0 
N 11 28 0 
N 64 87 0 
N 32 35 0 
N 88 92 0 
N 2 37 0 
N 53 9 0 
N 89 27 0 
N 16 28 0 
N 83 87 0 
N 39 62 0 
N 65 5 0 
N 49 14 0 
N 52 68 0 
N 85 76 0 
N 29 21 0 
N 34 60 0 
N 67 63 0 
N 85 51 0 
N 93 29 0 
N 86 67 0 
N 63 85 0 
N 34 90 0 
N 96 33 0 
N 64 19 0 
N 29 31 0 
N 12 78 0 
N 3 37 0 
N 26 62 0 
N 35 58 0 
N 61 57 0 
N 54 11 0 
N 88 26 0 
N 86 74 0 
N 58 90 0 
N 64 21 0 
N 95 35 0 
N 68 32 0 
N 31 92 0 
N 27 62 0 
N 52 12 0 
N 13 28 0 
N 56 57 0 
N 6 32 0 
N 3 25 0 
N 37 57 0 
N 95 90 0 
N 31 96 0 
N 98 29 0 
N 98 22 0 
N 15 29 0 
N 61 18 0 
N 33 10 0 
N 33 94 0 
N 55 59 0 
N 81 6 0 
N 76 44 0 
N 35 37 0 
N 59 84 0 
N 21 29 0 
N 28 58 0 
N 94 23 0 
N 4 24 0 
N 56 61 0 
N 82 6 0 
N 29 9 0 
N 29 24 0 
N 90 27 0 
N 9 92 0 
N 32 59 0 
N 53 67 0 
N 39 55 0 
N 6 93 0 
N 93 92 0 
N 52 20 0 
N 32 62 0 
N 64 92 0 
N 96 41 0 
N 54 58 0 
N 34 61 0 
N 24 63 0 
N 68 4 0 
N 63 63 0 
N 93 86 0 
N 78 57 0 
N 29 7 0 
N 70 44 0 
N 30 58 0 
N 59 88 0 
N 1 61 0 
N 81 66 0 
N 50 67 0 
N 11 85 0 
N 34 58 0 
N 84 56 0 
N 29 15 0 
N 64 56 0 
N 39 21 0 
N 96 22 0 
N 69 50 0 
N 15 28 0 
N 7 72 0 
N 66 14 0 
N 65 98 0 
N 19 56 0 
N 96 20 0 
N 61 85 0 
C 0 0 0 
C 25 0 0 
C 50 0 0 
C 75 0 0 
C 100 0 0 
C 0 25 0 
C 25 25 0 
C 50 25 0 
C 75 25 0 
C 100 25 0 
C 0 50 0 
C 25 50 0 
C 50 50 0 
C 75 50 0 
C 100 50 0 
C 0 75 0 
C 25 75 0 
C 50 75 0 
C 75 75 0 
C 100 75 0 
C 0 100 0 
C 25 100 0 
C 50 100 0 
C 75 100 0 
C 100 100 0 
O 57 91 0 
O 0 28 0 
O 49 62 0 
O 96 7 0 
O 58 89 0 
O 93 97 0 
529
Atoms. Timestep: 39
N 16 26 0 
N 76 65 0 
N 93 74 0 
N 6 26 0 
N 6 28 0 
N 29 28 0 
N 2 26 0 
N 14 97 0 
N 6 23 0 
N 28 61 0 
N 68 44 0 
N 28 80 0 
N 30 34 0 
N 97 31 0 
N 48 68 0 
N 33 42 0 
N 35 62 0 
N 74 44 0 
N 32 64 0 
N 47 65 0 
N 98 27 0 
N 97 28 0 
N 30 23 0 
N 95 27 0 
N 28 21 0 
N 15 78 0 
N 26 28 0 
N 3 28 0 
N 39 61 0 
N 74 63 0 
N 2 64 0 
N 25 62 0 
N 92 28 0 
N 57 11 0 
N 39 52 0 
N 94 96 0 
N 67 47 0 
N 63 8 0 
N 8 29 0 
N 87 76 0 
N 53 62 0 
N 39 26 0 
N 52 83 0 
N 62 57 0 
N 55 96 0 
N 30 13 0 
N 81 92 0 
N 15 97 0 
N 31 99 0 
N 93 70 0 
N 34 4 0 
N 60 90 0 
N 14 85 0 
N 60 57 0 
N 97 42 0 
N 8 61 0 
N 53 60 0 
N 11 13 0 
N 94 23 0 
N 37 61 0 
N 91 32 0 
N 2 33 0 
N 31 35 0 
N 58 86 0 
N 25 61 0 
N 99 28 0 
N 28 91 0 
N 81 89 0 
N 30 46 0 
N 81 71 0 
N 60 88 0 
N 14 77 0 
N 57 88 0 
N 63 58 0 
N 90 31 0 
N 14 37 0 
N 13 94 0 
N 13 88 0 
N 37 8 0 
N 95 36 0 
N 35 29 0 
N 7 38 0 
N 85 61 0 
N 77 31 0 
N 10 90 0 
N 20 27 0 
N 50 72 0 
N 35 25 0 
N 20 96 0 
N 10 30 0 
N 50 15 0 
N 94 94 0 
N 66 22 0 
N 11 34 0 
N 84 7 0 
N 82 59 0 
N 37 11 0 
N 87 8 0 
N 10 80 0 
N 5 29 0 
N 59 1 0 
N 57 17 0 
N 12 26 0 
N 48 71 0 
N 16 82 0 
N 37 54 0 
N 48 65 0 
N 92 30 0 
N 36 57 0 
N 80 7 0 
N 8 59 0 
N 49 62 0 
N 89 28 0 
N 26 30 0 
N 50 91 0 
N 88 28 0 
N 83 91 0 
N 63 94 0 
N 77 63 0 
N 87 26 0 
N 53 64 0 
N 29 51 0 
N 59 51 0 
N 24 61 0 
N 95 40 0 
N 9 28 0 
N 89 38 0 
N 29 10 0 
N 28 63 0 
N 58 82 0 
N 52 58 0 
N 28 85 0 
N 82 3 0 
N 64 89 0 
N 92 27 0 
N 73 42 0 
N 96 33 0 
N 20 54 0 
N 52 91 0 
N 63 95 0 
N 43 62 0 
N 54 67 0 
N 32 1 0 
N 31 90 0 
N 56 17 0 
N 93 26 0 
N 15 95 0 
N 10 95 0 
N 66 61 0 
N 14 79 0 
N 98 38 0 
N 65 91 0 
N 93 92 0 
N 48 62 0 
N 30 62 0 
N 34 56 0 
N 27 61 0 
N 14 82 0 
N 5 24 0 
N 48 15 0 
N 61 88 0 
N 30 88 0 
N 29 16 0 
N 98 25 0 
N 89 70 0 
N 34 63 0 
N 34 57 0 
N 12 27 0 
N 67 11 0 
N 17 27 0 
N 93 29 0 
N 51 58 0 
N 16 63 0 
N 95 28 0 
N 30 20 0 
N 36 27 0 
N 66 96 0 
N 29 99 0 
N 33 58 0 
N 54 94 0 
N 93 90 0 
N 8 28 0 
N 17 28 0 
N 30 18 0 
N 94 27 0 
N 89 5 0 
N 93 96 0 
N 10 88 0 
N 30 33 0 
N 70 38 0 
N 96 42 0 
N 91 28 0 
N 14 81 0 
N 13 76 0 
N 25 28 0 
N 30 32 0 
N 66 10 0 
N 6 56 0 
N 59 15 0 
N 30 19 0 
N 86 69 0 
N 58 15 0 
N 38 97 0 
N 65 26 0 
N 96 26 0 
N 89 97 0 
N 88 96 0 
N 11 76 0 
N 66 12 0 
N 4 27 0 
N 2 44 0 
N 82 70 0 
N 84 91 0 
N 30 91 0 
N 65 54 0 
N 81 44 0 
N 13 9 0 
N 67 58 0 
N 49 92 0 
N 35 55 0 
N 83 44 0 
N 88 76 0 
N 67 13 0 
N 94 89 0 
N 54 65 0 
N 11 80 0 
N 95 29 0 
N 27 96 0 
N 31 62 0 
N 82 75 0 
N 37 52 0 
N 80 35 0 
N 48 91 0 
N 63 90 0 
N 69 20 0 
N 82 23 0 
N 11 16 0 
N 5 45 0 
N 47 28 0 
N 52 54 0 
N 96 28 0 
N 11 29 0 
N 33 8 0 
N 85 48 0 
N 23 62 0 
N 97 7 0 
N 32 62 0 
N 76 62 0 
N 26 15 0 
N 49 69 0 
N 81 62 0 
N 73 70 0 
N 9 79 0 
N 75 63 0 
N 12 79 0 
N 29 97 0 
N 1 24 0 
N 40 10 0 
N 62 55 0 
N 33 15 0 
N 88 6 0 
N 50 56 0 
N 66 91 0 
N 84 97 0 
N 62 24 0 
N 13 98 0 
N 84 92 0 
N 79 59 0 
N 4 35 0 
N 49 73 0 
N 52 13 0 
N 67 45 0 
N 65 55 0 
N 96 6 0 
N 94 28 0 
N 31 42 0 
N 30 14 0 
N 38 7 0 
N 92 90 0 
N 97 27 0 
N 66 16 0 
N 68 93 0 
N 12 97 0 
N 60 56 0 
N 12 95 0 
N 86 7 0 
N 13 10 0 
N 56 15 0 
N 34 50 0 
N 28 77 0 
N 32 39 0 
N 31 63 0 
N 95 38 0 
N 52 92 0 
N 63 23 0 
N 14 96 0 
N 63 62 0 
N 51 69 0 
N 34 59 0 
N 85 5 0 
N 34 26 0 
N 58 87 0 
N 60 5 0 
N 93 72 0 
N 11 81 0 
N 35 11 0 
N 5 31 0 
N 13 83 0 
N 54 10 0 
N 65 96 0 
N 48 64 0 
N 57 14 0 
N 31 26 0 
N 94 25 0 
N 29 63 0 
N 24 79 0 
N 67 19 0 
N 41 51 0 
N 11 9 0 
N 88 88 0 
N 98 28 0 
N 52 21 0 
N 52 65 0 
N 34 60 0 
N 33 99 0 
N 94 43 0 
N 39 63 0 
N 37 39 0 
N 47 25 0 
N 40 28 0 
N 68 26 0 
N 53 90 0 
N 66 94 0 
N 57 89 0 
N 30 10 0 
N 71 6 0 
N 13 95 0 
N 53 28 0 
N 12 75 0 
N 62 88 0 
N 96 41 0 
N 13 99 0 
N 49 63 0 
N 19 28 0 
N 69 65 0 
N 32 44 0 
N 94 45 0 
N 56 61 0 
N 33 56 0 
N 3 27 0 
N 40 59 0 
N 65 24 0 
N 73 73 0 
N 49 68 0 
N 65 3 0 
N 95 30 0 
N 2 28 0 
N 66 53 0 
N 27 86 0 
N 91 31 0 
N 31 98 0 
N 62 62 0 
N 65 93 0 
N 36 56 0 
N 79 45 0 
N 10 2 0 
N 13 14 0 
N 60 86 0 
N 13 28 0 
N 28 59 0 
N 5 94 0 
N 85 91 0 
N 28 28 0 
N 64 54 0 
N 51 66 0 
N 67 63 0 
N 30 58 0 
N 55 17 0 
N 25 49 0 
N 65 95 0 
N 92 34 0 
N 63 96 0 
N 34 61 0 
N 34 32 0 
N 49 60 0 
N 57 19 0 
N 27 16 0 
N 80 72 0 
N 34 42 0 
N 12 13 0 
N 29 12 0 
N 81 6 0 
N 40 53 0 
N 41 57 0 
N 11 28 0 
N 63 87 0 
N 32 36 0 
N 89 92 0 
N 1 37 0 
N 54 9 0 
N 89 27 0 
N 16 28 0 
N 83 88 0 
N 40 62 0 
N 65 6 0 
N 48 14 0 
N 52 67 0 
N 86 76 0 
N 29 22 0 
N 35 60 0 
N 66 63 0 
N 85 50 0 
N 92 29 0 
N 86 68 0 
N 63 86 0 
N 35 90 0 
N 96 32 0 
N 63 19 0 
N 29 30 0 
N 12 77 0 
N 3 36 0 
N 26 62 0 
N 35 59 0 
N 61 58 0 
N 55 11 0 
N 88 27 0 
N 86 75 0 
N 58 89 0 
N 63 21 0 
N 95 34 0 
N 68 33 0 
N 32 92 0 
N 27 62 0 
N 53 12 0 
N 12 28 0 
N 55 57 0 
N 5 32 0 
N 2 25 0 
N 38 57 0 
N 95 91 0 
N 30 96 0 
N 97 29 0 
N 98 23 0 
N 14 29 0 
N 61 19 0 
N 33 9 0 
N 34 94 0 
N 55 60 0 
N 81 7 0 
N 75 44 0 
N 35 38 0 
N 59 85 0 
N 21 28 0 
N 29 58 0 
N 93 23 0 
N 4 25 0 
N 55 61 0 
N 82 7 0 
N 28 9 0 
N 29 25 0 
N 90 27 0 
N 9 93 0 
N 33 59 0 
N 53 66 0 
N 39 56 0 
N 6 94 0 
N 93 93 0 
N 51 20 0 
N 33 62 0 
N 64 91 0 
N 95 41 0 
N 53 58 0 
N 35 61 0 
N 25 63 0 
N 68 5 0 
N 62 63 0 
N 93 87 0 
N 78 56 0 
N 30 7 0 
N 71 44 0 
N 30 59 0 
N 59 89 0 
N 2 61 0 
N 81 65 0 
N 49 67 0 
N 12 85 0 
N 34 58 0 
N 84 55 0 
N 28 15 0 
N 63 56 0 
N 39 20 0 
N 96 23 0 
N 69 49 0 
N 15 28 0 
N 7 71 0 
N 65 14 0 
N 64 98 0 
N 19 57 0 
N 96 21 0 
N 60 85 0 
C 0 0 0 
C 25 0 0 
C 50 0 0 
C 75 0 0 
C 100 0 0 
C 0 25 0 
C 25 25 0 
C 50 25 0 
C 75 25 0 
C 100 25 0 
C 0 50 0 
C 25 50 0 
C 50 50 0 
C 75 50 0 
C 100 50 0 
C 0 75 0 
C 25 75 0 
C 50 75 0 
C 75 75 0 
C 100 75 0 
C 0 100 0 
C 25 100 0 
C 50 100 0 
C 75 100 0 
C 100 100 0 
O 57 92 0 
O 1 28 0 
O 96 7 0 
O 93 98 0 
527
Atoms. Timestep: 40
N 17 26 0 
N 76 66 0 
N 93 75 0 
N 5 26 0 
N 6 27 0 
N 29 27 0 
N 2 25 0 
N 15 97 0 
N 5 23 0 
N 27 61 0 
N 68 43 0 
N 28 81 0 
N 30 35 0 
N 98 31 0 
N 47 68 0 
N 33 41 0 
N 36 62 0 
N 75 44 0 
N 32 65 0 
N 48 65 0 
N 98 26 0 
N 97 27 0 
N 30 24 0 
N 95 28 0 
N 28 20 0 
N 16 78 0 
N 26 27 0 
N 4 28 0 
N 38 61 0 
N 75 63 0 
N 3 64 0 
N 26 62 0 
N 91 28 0 
N 57 12 0 
N 40 52 0 
N 93 96 0 
N 66 47 0 
N 63 9 0 
N 7 29 0 
N 88 76 0 
N 52 62 0 
N 38 26 0 
N 53 83 0 
N 62 56 0 
N 56 96 0 
N 31 13 0 
N 81 93 0 
N 15 98 0 
N 31 0 0 
N 93 71 0 
N 33 4 0 
N 60 91 0 
N 14 86 0 
N 59 57 0 
N 97 43 0 
N 9 61 0 
N 52 60 0 
N 12 13 0 
N 93 23 0 
N 37 60 0 
N 92 32 0 
N 2 32 0 
N 31 36 0 
N 57 86 0 
N 24 61 0 
N 99 27 0 
N 29 91 0 
N 82 89 0 
N 29 46 0 
N 82 71 0 
N 59 88 0 
N 13 77 0 
N 57 89 0 
N 64 58 0 
N 90 32 0 
N 14 36 0 
N 14 94 0 
N 13 89 0 
N 37 7 0 
N 94 36 0 
N 35 28 0 
N 7 39 0 
N 86 61 0 
N 77 30 0 
N 10 91 0 
N 21 27 0 
N 50 73 0 
N 35 24 0 
N 20 97 0 
N 10 31 0 
N 50 16 0 
N 94 95 0 
N 66 21 0 
N 11 33 0 
N 85 7 0 
N 81 59 0 
N 36 11 0 
N 88 8 0 
N 10 81 0 
N 5 28 0 
N 58 1 0 
N 57 18 0 
N 13 26 0 
N 48 72 0 
N 17 82 0 
N 37 53 0 
N 48 66 0 
N 92 29 0 
N 36 56 0 
N 80 8 0 
N 7 59 0 
N 48 62 0 
N 89 27 0 
N 26 29 0 
N 51 91 0 
N 88 29 0 
N 83 92 0 
N 63 95 0 
N 76 63 0 
N 88 26 0 
N 53 63 0 
N 28 51 0 
N 59 50 0 
N 23 61 0 
N 95 41 0 
N 9 29 0 
N 89 37 0 
N 30 10 0 
N 28 64 0 
N 57 82 0 
N 51 58 0 
N 28 84 0 
N 82 4 0 
N 63 89 0 
N 92 27 0 
N 74 42 0 
N 96 32 0 
N 20 53 0 
N 53 91 0 
N 62 95 0 
N 43 61 0 
N 54 68 0 
N 31 1 0 
N 32 90 0 
N 56 18 0 
N 93 26 0 
N 16 95 0 
N 11 95 0 
N 66 60 0 
N 14 78 0 
N 99 38 0 
N 64 91 0 
N 93 93 0 
N 48 61 0 
N 30 61 0 
N 33 56 0 
N 27 60 0 
N 13 82 0 
N 5 25 0 
N 48 16 0 
N 61 89 0 
N 29 88 0 
N 30 16 0 
N 97 25 0 
N 89 69 0 
N 35 63 0 
N 33 57 0 
N 11 27 0 
N 67 12 0 
N 17 28 0 
N 93 28 0 
N 51 59 0 
N 15 63 0 
N 95 29 0 
N 29 20 0 
N 36 26 0 
N 66 95 0 
N 30 99 0 
N 32 58 0 
N 54 93 0 
N 93 91 0 
N 7 28 0 
N 17 29 0 
N 30 17 0 
N 93 27 0 
N 90 5 0 
N 93 97 0 
N 10 89 0 
N 29 33 0 
N 71 38 0 
N 96 43 0 
N 91 27 0 
N 14 80 0 
N 14 76 0 
N 24 28 0 
N 30 31 0 
N 65 10 0 
N 5 56 0 
N 59 16 0 
N 29 19 0 
N 87 69 0 
N 58 16 0 
N 38 96 0 
N 66 26 0 
N 96 25 0 
N 90 97 0 
N 89 96 0 
N 11 75 0 
N 65 12 0 
N 4 26 0 
N 3 44 0 
N 81 70 0 
N 85 91 0 
N 31 91 0 
N 66 54 0 
N 81 45 0 
N 14 9 0 
N 67 57 0 
N 50 92 0 
N 36 55 0 
N 83 43 0 
N 89 76 0 
N 68 13 0 
N 94 90 0 
N 54 64 0 
N 12 80 0 
N 94 29 0 
N 27 97 0 
N 32 62 0 
N 83 75 0 
N 37 51 0 
N 80 34 0 
N 48 92 0 
N 62 90 0 
N 69 21 0 
N 81 23 0 
N 11 15 0 
N 5 44 0 
N 48 28 0 
N 53 54 0 
N 96 28 0 
N 11 30 0 
N 33 9 0 
N 86 48 0 
N 23 63 0 
N 97 8 0 
N 32 61 0 
N 75 62 0 
N 27 15 0 
N 48 69 0 
N 82 62 0 
N 72 70 0 
N 9 78 0 
N 75 64 0 
N 11 79 0 
N 28 97 0 
N 1 23 0 
N 40 11 0 
N 61 55 0 
N 33 16 0 
N 88 7 0 
N 50 55 0 
N 66 92 0 
N 85 97 0 
N 62 25 0 
N 14 98 0 
N 84 93 0 
N 79 60 0 
N 3 35 0 
N 49 74 0 
N 52 14 0 
N 66 45 0 
N 64 55 0 
N 96 7 0 
N 94 28 0 
N 30 42 0 
N 29 14 0 
N 38 8 0 
N 92 91 0 
N 96 27 0 
N 66 17 0 
N 67 93 0 
N 13 97 0 
N 59 56 0 
N 13 95 0 
N 87 7 0 
N 14 10 0 
N 56 16 0 
N 33 50 0 
N 29 77 0 
N 32 38 0 
N 31 64 0 
N 95 37 0 
N 53 92 0 
N 63 24 0 
N 15 96 0 
N 62 62 0 
N 51 70 0 
N 35 59 0 
N 85 6 0 
N 35 26 0 
N 57 87 0 
N 59 5 0 
N 93 73 0 
N 12 81 0 
N 34 11 0 
N 5 30 0 
N 12 83 0 
N 54 11 0 
N 65 95 0 
N 48 63 0 
N 57 15 0 
N 32 26 0 
N 94 24 0 
N 29 64 0 
N 24 80 0 
N 67 20 0 
N 42 51 0 
N 11 8 0 
N 89 88 0 
N 98 28 0 
N 53 21 0 
N 53 65 0 
N 35 60 0 
N 33 98 0 
N 94 44 0 
N 38 63 0 
N 36 39 0 
N 46 25 0 
N 41 28 0 
N 67 26 0 
N 54 90 0 
N 66 93 0 
N 57 90 0 
N 30 11 0 
N 71 7 0 
N 14 95 0 
N 53 27 0 
N 12 76 0 
N 62 89 0 
N 97 41 0 
N 14 99 0 
N 49 64 0 
N 19 29 0 
N 69 66 0 
N 33 44 0 
N 93 45 0 
N 56 60 0 
N 32 56 0 
N 3 26 0 
N 39 59 0 
N 65 25 0 
N 74 73 0 
N 49 67 0 
N 64 3 0 
N 96 30 0 
N 1 28 0 
N 67 53 0 
N 28 86 0 
N 91 30 0 
N 32 98 0 
N 62 61 0 
N 65 92 0 
N 35 56 0 
N 79 44 0 
N 11 2 0 
N 14 14 0 
N 60 87 0 
N 13 28 0 
N 27 59 0 
N 6 94 0 
N 85 92 0 
N 27 28 0 
N 63 54 0 
N 51 65 0 
N 68 63 0 
N 30 59 0 
N 55 18 0 
N 26 49 0 
N 65 94 0 
N 91 34 0 
N 62 96 0 
N 34 62 0 
N 35 32 0 
N 48 60 0 
N 57 20 0 
N 28 16 0 
N 80 71 0 
N 34 41 0 
N 13 13 0 
N 30 12 0 
N 81 7 0 
N 41 53 0 
N 41 58 0 
N 10 28 0 
N 62 87 0 
N 32 37 0 
N 90 92 0 
N 1 36 0 
N 55 9 0 
N 88 27 0 
N 15 28 0 
N 83 89 0 
N 41 62 0 
N 64 6 0 
N 49 14 0 
N 52 68 0 
N 86 77 0 
N 29 21 0 
N 35 61 0 
N 66 64 0 
N 86 50 0 
N 91 29 0 
N 85 68 0 
N 62 86 0 
N 35 91 0 
N 95 32 0 
N 64 19 0 
N 29 29 0 
N 11 77 0 
N 2 36 0 
N 26 61 0 
N 36 59 0 
N 60 58 0 
N 55 12 0 
N 87 27 0 
N 87 75 0 
N 58 90 0 
N 64 21 0 
N 94 34 0 
N 69 33 0 
N 33 92 0 
N 27 63 0 
N 53 13 0 
N 12 28 0 
N 55 56 0 
N 4 32 0 
N 1 25 0 
N 38 58 0 
N 95 92 0 
N 31 96 0 
N 96 29 0 
N 97 23 0 
N 13 29 0 
N 62 19 0 
N 34 9 0 
N 35 94 0 
N 55 61 0 
N 82 7 0 
N 75 43 0 
N 35 39 0 
N 59 86 0 
N 20 28 0 
N 28 58 0 
N 93 24 0 
N 3 25 0 
N 54 61 0 
N 83 7 0 
N 27 9 0 
N 30 25 0 
N 90 28 0 
N 9 94 0 
N 33 60 0 
N 54 66 0 
N 40 56 0 
N 7 94 0 
N 93 94 0 
N 51 21 0 
N 33 61 0 
N 63 91 0 
N 94 41 0 
N 53 59 0 
N 36 61 0 
N 26 63 0 
N 68 6 0 
N 63 63 0 
N 93 88 0 
N 78 57 0 
N 30 8 0 
N 72 44 0 
N 29 59 0 
N 59 90 0 
N 1 61 0 
N 81 66 0 
N 48 67 0 
N 12 86 0 
N 35 58 0 
N 84 54 0 
N 29 15 0 
N 63 55 0 
N 38 20 0 
N 96 24 0 
N 69 48 0 
N 14 28 0 
N 8 71 0 
N 65 15 0 
N 64 97 0 
N 19 58 0 
N 95 21 0 
N 60 85 0 
C 0 0 0 
C 25 0 0 
C 50 0 0 
C 75 0 0 
C 100 0 0 
C 0 25 0 
C 25 25 0 
C 50 25 0 
C 75 25 0 
C 100 25 0 
C 0 50 0 
C 25 50 0 
C 50 50 0 
C 75 50 0 
C 100 50 0 
C 0 75 0 
C 25 75 0 
C 50 75 0 
C 75 75 0 
C 100 75 0 
C 0 100 0 
C 25 100 0 
C 50 100 0 
C 75 100 0 
C 100 100 0 
O 58 92 0 
O 94 98 0 
527
Atoms. Timestep: 41
N 16 26 0 
N 76 67 0 
N 94 75 0 
N 4 26 0 
N 6 26 0 
N 29 26 0 
N 1 25 0 
N 15 98 0 
N 4 23 0 
N 28 61 0 
N 67 43 0 
N 29 81 0 
N 29 35 0 
N 98 32 0 
N 47 69 0 
N 33 42 0 
N 36 61 0 
N 74 44 0 
N 31 65 0 
N 49 65 0 
N 97 26 0 
N 97 28 0 
N 30 23 0 
N 96 28 0 
N 27 20 0 
N 17 78 0 
N 25 27 0 
N 5 28 0 
N 39 61 0 
N 75 62 0 
N 2 64 0 
N 26 61 0 
N 91 29 0 
N 58 12 0 
N 40 51 0 
N 93 97 0 
N 67 47 0 
N 63 10 0 
N 7 30 0 
N 89 76 0 
N 51 62 0 
N 39 26 0 
N 54 83 0 
N 63 56 0 
N 57 96 0 
N 31 14 0 
N 81 94 0 
N 16 98 0 
N 31 99 0 
N 93 72 0 
N 32 4 0 
N 60 92 0 
N 14 85 0 
N 58 57 0 
N 98 43 0 
N 10 61 0 
N 52 61 0 
N 11 13 0 
N 94 23 0 
N 37 61 0 
N 91 32 0 
N 2 33 0 
N 30 36 0 
N 57 87 0 
N 24 62 0 
N 99 26 0 
N 30 91 0 
N 82 90 0 
N 30 46 0 
N 83 71 0 
N 59 89 0 
N 12 77 0 
N 58 89 0 
N 64 57 0 
N 90 33 0 
N 14 37 0 
N 14 95 0 
N 14 89 0 
N 37 6 0 
N 94 37 0 
N 34 28 0 
N 8 39 0 
N 86 60 0 
N 77 31 0 
N 10 92 0 
N 20 27 0 
N 51 73 0 
N 35 23 0 
N 21 97 0 
N 11 31 0 
N 49 16 0 
N 94 96 0 
N 65 21 0 
N 12 33 0 
N 85 8 0 
N 82 59 0 
N 35 11 0 
N 88 9 0 
N 10 80 0 
N 5 27 0 
N 58 2 0 
N 58 18 0 
N 12 26 0 
N 49 72 0 
N 17 83 0 
N 38 53 0 
N 49 66 0 
N 93 29 0 
N 35 56 0 
N 80 9 0 
N 7 60 0 
N 47 62 0 
N 89 26 0 
N 27 29 0 
N 52 91 0 
N 87 29 0 
N 84 92 0 
N 62 95 0 
N 76 62 0 
N 88 27 0 
N 54 63 0 
N 28 52 0 
N 58 50 0 
N 22 61 0 
N 95 40 0 
N 8 29 0 
N 89 36 0 
N 30 9 0 
N 28 65 0 
N 58 82 0 
N 52 58 0 
N 29 84 0 
N 82 5 0 
N 63 90 0 
N 92 28 0 
N 74 41 0 
N 97 32 0 
N 19 53 0 
N 53 92 0 
N 61 95 0 
N 44 61 0 
N 55 68 0 
N 32 1 0 
N 32 91 0 
N 56 19 0 
N 94 26 0 
N 17 95 0 
N 12 95 0 
N 67 60 0 
N 13 78 0 
N 98 38 0 
N 63 91 0 
N 94 93 0 
N 49 61 0 
N 30 62 0 
N 33 57 0 
N 28 60 0 
N 13 83 0 
N 5 24 0 
N 48 17 0 
N 60 89 0 
N 28 88 0 
N 29 16 0 
N 96 25 0 
N 88 69 0 
N 35 64 0 
N 32 57 0 
N 11 26 0 
N 66 12 0 
N 17 29 0 
N 93 27 0 
N 51 60 0 
N 15 64 0 
N 96 29 0 
N 29 19 0 
N 37 26 0 
N 66 94 0 
N 30 0 0 
N 33 58 0 
N 55 93 0 
N 93 92 0 
N 6 28 0 
N 16 29 0 
N 30 18 0 
N 94 27 0 
N 90 6 0 
N 94 97 0 
N 10 90 0 
N 29 34 0 
N 72 38 0 
N 96 44 0 
N 91 26 0 
N 15 80 0 
N 13 76 0 
N 24 27 0 
N 29 31 0 
N 64 10 0 
N 6 56 0 
N 58 16 0 
N 30 19 0 
N 86 69 0 
N 58 17 0 
N 39 96 0 
N 67 26 0 
N 95 25 0 
N 91 97 0 
N 89 97 0 
N 12 75 0 
N 64 12 0 
N 4 27 0 
N 3 45 0 
N 81 71 0 
N 85 92 0 
N 31 92 0 
N 66 55 0 
N 82 45 0 
N 13 9 0 
N 67 58 0 
N 51 92 0 
N 36 54 0 
N 82 43 0 
N 90 76 0 
N 68 14 0 
N 94 91 0 
N 53 64 0 
N 11 80 0 
N 94 30 0 
N 27 96 0 
N 31 62 0 
N 82 75 0 
N 37 52 0 
N 81 34 0 
N 49 92 0 
N 61 90 0 
N 70 21 0 
N 81 24 0 
N 12 15 0 
N 6 44 0 
N 47 28 0 
N 54 54 0 
N 96 27 0 
N 10 30 0 
N 32 9 0 
N 86 47 0 
N 22 63 0 
N 97 9 0 
N 33 61 0 
N 75 61 0 
N 26 15 0 
N 48 68 0 
N 81 62 0 
N 71 70 0 
N 8 78 0 
N 74 64 0 
N 12 79 0 
N 29 97 0 
N 1 24 0 
N 41 11 0 
N 61 56 0 
N 33 17 0 
N 89 7 0 
N 50 56 0 
N 65 92 0 
N 85 98 0 
N 62 26 0 
N 14 98 0 
N 84 94 0 
N 79 61 0 
N 2 35 0 
N 49 75 0 
N 52 15 0 
N 66 44 0 
N 64 56 0 
N 96 8 0 
N 94 28 0 
N 29 42 0 
N 29 13 0 
N 39 8 0 
N 92 92 0 
N 96 26 0 
N 65 17 0 
N 67 92 0 
N 14 97 0 
N 60 56 0 
N 13 96 0 
N 87 8 0 
N 13 10 0 
N 56 17 0 
N 33 49 0 
N 29 76 0 
N 32 37 0 
N 32 64 0 
N 95 36 0 
N 54 92 0 
N 62 24 0 
N 16 96 0 
N 61 62 0 
N 52 70 0 
N 36 59 0 
N 86 6 0 
N 35 27 0 
N 58 87 0 
N 58 5 0 
N 93 74 0 
N 12 82 0 
N 33 11 0 
N 6 30 0 
N 11 83 0 
N 55 11 0 
N 64 95 0 
N 48 64 0 
N 58 15 0 
N 32 25 0 
N 94 25 0 
N 29 65 0 
N 25 80 0 
N 68 20 0 
N 43 51 0 
N 12 8 0 
N 90 88 0 
N 98 27 0 
N 53 22 0 
N 54 65 0 
N 35 61 0 
N 33 99 0 
N 94 45 0 
N 38 62 0 
N 35 39 0 
N 47 25 0 
N 41 29 0 
N 68 26 0 
N 55 90 0 
N 66 93 0 
N 58 90 0 
N 31 11 0 
N 71 8 0 
N 14 96 0 
N 54 27 0 
N 11 76 0 
N 62 89 0 
N 96 41 0 
N 15 99 0 
N 50 64 0 
N 18 29 0 
N 68 66 0 
N 34 44 0 
N 93 44 0 
N 57 60 0 
N 32 55 0 
N 2 26 0 
N 38 59 0 
N 65 26 0 
N 74 72 0 
N 48 67 0 
N 64 4 0 
N 97 30 0 
N 2 28 0 
N 67 52 0 
N 28 85 0 
N 91 31 0 
N 31 98 0 
N 63 61 0 
N 64 92 0 
N 34 56 0 
N 78 44 0 
N 12 2 0 
N 13 14 0 
N 60 88 0 
N 14 28 0 
N 28 59 0 
N 7 94 0 
N 85 93 0 
N 26 28 0 
N 62 54 0 
N 51 64 0 
N 67 63 0 
N 30 60 0 
N 55 19 0 
N 25 49 0 
N 65 93 0 
N 92 34 0 
N 61 96 0 
N 34 63 0 
N 34 32 0 
N 47 60 0 
N 57 21 0 
N 28 15 0 
N 80 72 0 
N 35 41 0 
N 13 12 0 
N 29 12 0 
N 81 8 0 
N 42 53 0 
N 41 59 0 
N 10 29 0 
N 62 88 0 
N 32 36 0 
N 90 93 0 
N 1 35 0 
N 56 9 0 
N 88 28 0 
N 16 28 0 
N 84 89 0 
N 40 62 0 
N 63 6 0 
N 49 13 0 
N 53 68 0 
N 87 77 0 
N 29 22 0 
N 35 62 0 
N 66 63 0 
N 87 50 0 
N 90 29 0 
N 85 69 0 
N 61 86 0 
N 36 91 0 
N 94 32 0 
N 64 18 0 
N 28 29 0 
N 11 78 0 
N 2 37 0 
N 25 61 0 
N 37 59 0 
N 60 59 0 
N 56 12 0 
N 87 28 0 
N 88 75 0 
N 58 91 0 
N 64 20 0 
N 95 34 0 
N 70 33 0 
N 34 92 0 
N 27 62 0 
N 53 14 0 
N 12 27 0 
N 55 57 0 
N 3 32 0 
N 1 26 0 
N 39 58 0 
N 94 92 0 
N 31 97 0 
N 97 29 0 
N 96 23 0 
N 12 29 0 
N 62 18 0 
N 34 8 0 
N 35 93 0 
N 54 61 0 
N 83 7 0 
N 75 42 0 
N 35 40 0 
N 59 87 0 
N 21 28 0 
N 28 57 0 
N 93 25 0 
N 4 25 0 
N 53 61 0 
N 84 7 0 
N 27 10 0 
N 29 25 0 
N 90 27 0 
N 9 95 0 
N 34 60 0 
N 55 66 0 
N 40 55 0 
N 7 95 0 
N 93 95 0 
N 51 20 0 
N 34 61 0 
N 62 91 0 
N 93 41 0 
N 53 60 0 
N 36 60 0 
N 26 64 0 
N 68 7 0 
N 63 62 0 
N 93 89 0 
N 77 57 0 
N 30 7 0 
N 71 44 0 
N 29 58 0 
N 59 91 0 
N 1 60 0 
N 81 67 0 
N 47 67 0 
N 13 86 0 
N 36 58 0 
N 85 54 0 
N 30 15 0 
N 62 55 0 
N 39 20 0 
N 95 24 0 
N 69 47 0 
N 14 29 0 
N 8 70 0 
N 65 16 0 
N 64 96 0 
N 19 57 0 
N 95 22 0 
N 60 86 0 
C 0 0 0 
C 25 0 0 
C 50 0 0 
C 75 0 0 
C 100 0 0 
C 0 25 0 
C 25 25 0 
C 50 25 0 
C 75 25 0 
C 100 25 0 
C 0 50 0 
C 25 50 0 
C 50 50 0 
C 75 50 0 
C 100 50 0 
C 0 75 0 
C 25 75 0 
C 50 75 0 
C 75 75 0 
C 100 75 0 
C 0 100 0 
C 25 100 0 
C 50 100 0 
C 75 100 0 
C 100 100 0 
O 58 93 0 
O 95 98 0 
527
Atoms. Timestep: 42
N 17 26 0 
N 76 66 0 
N 95 75 0 
N 4 27 0 
N 6 25 0 
N 29 25 0 
N 1 26 0 
N 16 98 0 
N 3 23 0 
N 27 61 0 
N 66 43 0 
N 29 82 0 
N 30 35 0 
N 99 32 0 
N 46 69 0 
N 32 42 0 
N 35 61 0 
N 74 45 0 
N 31 66 0 
N 50 65 0 
N 97 26 0 
N 97 27 0 
N 30 24 0 
N 95 28 0 
N 28 20 0 
N 17 79 0 
N 26 27 0 
N 5 27 0 
N 39 60 0 
N 75 61 0 
N 1 64 0 
N 26 60 0 
N 90 29 0 
N 58 13 0 
N 40 50 0 
N 93 98 0 
N 67 46 0 
N 62 10 0 
N 7 29 0 
N 90 76 0 
N 51 63 0 
N 39 25 0 
N 54 84 0 
N 63 55 0 
N 58 96 0 
N 31 13 0 
N 81 95 0 
N 17 98 0 
N 30 99 0 
N 94 72 0 
N 33 4 0 
N 59 92 0 
N 15 85 0 
N 57 57 0 
N 98 42 0 
N 9 61 0 
N 52 62 0 
N 10 13 0 
N 94 24 0 
N 38 61 0 
N 90 32 0 
N 2 34 0 
N 29 36 0 
N 57 88 0 
N 25 62 0 
N 99 25 0 
N 30 92 0 
N 82 91 0 
N 30 47 0 
N 83 70 0 
N 58 89 0 
N 13 77 0 
N 58 90 0 
N 63 57 0 
N 89 33 0 
N 15 37 0 
N 14 96 0 
N 15 89 0 
N 37 5 0 
N 95 37 0 
N 33 28 0 
N 7 39 0 
N 86 59 0 
N 78 31 0 
N 10 93 0 
N 21 27 0 
N 52 73 0 
N 35 22 0 
N 21 98 0 
N 10 31 0 
N 50 16 0 
N 94 97 0 
N 65 22 0 
N 12 32 0 
N 85 9 0 
N 82 58 0 
N 34 11 0 
N 88 10 0 
N 9 80 0 
N 5 26 0 
N 58 3 0 
N 58 19 0 
N 12 27 0 
N 50 72 0 
N 16 83 0 
N 39 53 0 
N 48 66 0 
N 94 29 0 
N 34 56 0 
N 80 10 0 
N 7 59 0 
N 48 62 0 
N 88 26 0 
N 27 30 0 
N 53 91 0 
N 88 29 0 
N 85 92 0 
N 61 95 0 
N 76 63 0 
N 89 27 0 
N 55 63 0 
N 29 52 0 
N 59 50 0 
N 22 60 0 
N 95 39 0 
N 8 28 0 
N 89 35 0 
N 31 9 0 
N 28 64 0 
N 58 81 0 
N 51 58 0 
N 30 84 0 
N 83 5 0 
N 63 91 0 
N 91 28 0 
N 74 40 0 
N 96 32 0 
N 19 52 0 
N 54 92 0 
N 61 94 0 
N 43 61 0 
N 56 68 0 
N 33 1 0 
N 33 91 0 
N 57 19 0 
N 94 26 0 
N 18 95 0 
N 12 96 0 
N 68 60 0 
N 14 78 0 
N 98 39 0 
N 62 91 0 
N 94 94 0 
N 48 61 0 
N 29 62 0 
N 33 58 0 
N 28 59 0 
N 13 84 0 
N 4 24 0 
N 48 18 0 
N 60 89 0 
N 29 88 0 
N 28 16 0 
N 96 26 0 
N 87 69 0 
N 36 64 0 
N 32 58 0 
N 11 27 0 
N 65 12 0 
N 17 30 0 
N 94 27 0 
N 51 59 0 
N 15 65 0 
N 95 29 0 
N 28 19 0 
N 37 27 0 
N 65 94 0 
N 30 1 0 
N 33 59 0 
N 56 93 0 
N 93 93 0 
N 6 27 0 
N 16 30 0 
N 31 18 0 
N 94 28 0 
N 90 7 0 
N 94 98 0 
N 10 91 0 
N 28 34 0 
N 72 37 0 
N 96 43 0 
N 92 26 0 
N 15 79 0 
N 13 75 0 
N 24 26 0 
N 28 31 0 
N 64 11 0 
N 5 56 0 
N 58 16 0 
N 30 20 0 
N 86 68 0 
N 58 17 0 
N 40 96 0 
N 66 26 0 
N 95 25 0 
N 91 98 0 
N 89 98 0 
N 12 74 0 
N 63 12 0 
N 4 28 0 
N 4 45 0 
N 80 71 0 
N 86 92 0 
N 31 93 0 
N 66 56 0 
N 83 45 0 
N 14 9 0 
N 66 58 0 
N 52 92 0 
N 36 55 0 
N 82 42 0 
N 91 76 0 
N 69 14 0 
N 94 92 0 
N 54 64 0 
N 11 79 0 
N 93 30 0 
N 27 97 0 
N 31 61 0 
N 81 75 0 
N 38 52 0 
N 82 34 0 
N 49 93 0 
N 60 90 0 
N 69 21 0 
N 81 23 0 
N 12 16 0 
N 6 45 0 
N 47 27 0 
N 54 53 0 
N 95 27 0 
N 9 30 0 
N 33 9 0 
N 85 47 0 
N 22 62 0 
N 96 9 0 
N 33 62 0 
N 76 61 0 
N 26 14 0 
N 47 68 0 
N 80 62 0 
N 70 70 0 
N 8 77 0 
N 75 64 0 
N 12 78 0 
N 29 96 0 
N 1 23 0 
N 41 12 0 
N 60 56 0 
N 33 16 0 
N 89 8 0 
N 51 56 0 
N 64 92 0 
N 86 98 0 
N 63 26 0 
N 14 98 0 
N 84 95 0 
N 79 62 0 
N 1 35 0 
N 49 76 0 
N 52 16 0 
N 67 44 0 
N 64 55 0 
N 95 8 0 
N 93 28 0 
N 29 41 0 
N 28 13 0 
N 38 8 0 
N 92 93 0 
N 95 26 0 
N 64 17 0 
N 66 92 0 
N 15 97 0 
N 60 55 0 
N 13 97 0 
N 87 9 0 
N 14 10 0 
N 56 18 0 
N 32 49 0 
N 30 76 0 
N 33 37 0 
N 32 63 0 
N 96 36 0 
N 55 92 0 
N 63 24 0 
N 17 96 0 
N 60 62 0 
N 52 71 0 
N 35 59 0 
N 86 7 0 
N 34 27 0 
N 58 88 0 
N 58 6 0 
N 94 74 0 
N 13 82 0 
N 33 12 0 
N 6 29 0 
N 12 83 0 
N 55 12 0 
N 64 94 0 
N 48 63 0 
N 58 15 0 
N 31 25 0 
N 94 25 0 
N 30 65 0 
N 25 79 0 
N 69 20 0 
N 43 52 0 
N 12 9 0 
N 91 88 0 
N 99 27 0 
N 53 23 0 
N 53 65 0 
N 34 61 0 
N 33 0 0 
N 94 44 0 
N 38 63 0 
N 35 40 0 
N 47 24 0 
N 41 30 0 
N 69 26 0 
N 55 91 0 
N 65 93 0 
N 58 91 0 
N 31 10 0 
N 71 9 0 
N 15 96 0 
N 53 27 0 
N 12 76 0 
N 62 90 0 
N 95 41 0 
N 15 0 0 
N 50 63 0 
N 19 29 0 
N 68 65 0 
N 33 44 0 
N 92 44 0 
N 56 60 0 
N 32 54 0 
N 2 27 0 
N 39 59 0 
N 65 25 0 
N 75 72 0 
N 49 67 0 
N 64 5 0 
N 97 29 0 
N 2 29 0 
N 68 52 0 
N 29 85 0 
N 92 31 0 
N 31 97 0 
N 62 61 0 
N 63 92 0 
N 33 56 0 
N 79 44 0 
N 13 2 0 
N 13 15 0 
N 60 88 0 
N 14 29 0 
N 28 58 0 
N 8 94 0 
N 85 94 0 
N 26 29 0 
N 62 53 0 
N 52 64 0 
N 66 63 0 
N 30 61 0 
N 55 20 0 
N 25 48 0 
N 64 93 0 
N 91 34 0 
N 60 96 0 
N 33 63 0 
N 33 32 0 
N 47 59 0 
N 57 22 0 
N 29 15 0 
N 80 73 0 
N 34 41 0 
N 12 12 0 
N 28 12 0 
N 81 9 0 
N 41 53 0 
N 40 59 0 
N 9 29 0 
N 61 88 0 
N 33 36 0 
N 90 94 0 
N 1 34 0 
N 57 9 0 
N 87 28 0 
N 17 28 0 
N 84 90 0 
N 40 61 0 
N 62 6 0 
N 49 14 0 
N 54 68 0 
N 88 77 0 
N 29 23 0 
N 36 62 0 
N 66 64 0 
N 88 50 0 
N 90 28 0 
N 84 69 0 
N 61 87 0 
N 36 92 0 
N 93 32 0 
N 65 18 0 
N 29 29 0 
N 11 77 0 
N 2 36 0 
N 24 61 0 
N 37 60 0 
N 61 59 0 
N 56 13 0 
N 86 28 0 
N 89 75 0 
N 58 92 0 
N 64 19 0 
N 96 34 0 
N 70 34 0 
N 34 93 0 
N 27 63 0 
N 53 15 0 
N 13 27 0 
N 56 57 0 
N 2 32 0 
N 1 27 0 
N 39 57 0 
N 95 92 0 
N 32 97 0 
N 98 29 0 
N 96 24 0 
N 12 28 0 
N 62 19 0 
N 35 8 0 
N 36 93 0 
N 53 61 0 
N 84 7 0 
N 75 41 0 
N 36 40 0 
N 59 88 0 
N 21 29 0 
N 28 56 0 
N 93 26 0 
N 5 25 0 
N 53 60 0 
N 85 7 0 
N 27 9 0 
N 28 25 0 
N 91 27 0 
N 10 95 0 
N 34 59 0 
N 55 67 0 
N 39 55 0 
N 7 96 0 
N 94 95 0 
N 50 20 0 
N 34 62 0 
N 61 91 0 
N 93 42 0 
N 52 60 0 
N 35 60 0 
N 26 65 0 
N 68 8 0 
N 63 63 0 
N 94 89 0 
N 77 56 0 
N 30 6 0 
N 72 44 0 
N 29 59 0 
N 59 90 0 
N 1 59 0 
N 81 66 0 
N 47 66 0 
N 14 86 0 
N 36 57 0 
N 85 55 0 
N 30 16 0 
N 62 56 0 
N 39 19 0 
N 95 24 0 
N 69 46 0 
N 15 29 0 
N 7 70 0 
N 64 16 0 
N 63 96 0 
N 18 57 0 
N 95 23 0 
N 60 87 0 
C 0 0 0 
C 25 0 0 
C 50 0 0 
C 75 0 0 
C 100 0 0 
C 0 25 0 
C 25 25 0 
C 50 25 0 
C 75 25 0 
C 100 25 0 
C 0 50 0 
C 25 50 0 
C 50 50 0 
C 75 50 0 
C 100 50 0 
C 0 75 0 
C 25 75 0 
C 50 75 0 
C 75 75 0 
C 100 75 0 
C 0 100 0 
C 25 100 0 
C 50 100 0 
C 75 100 0 
C 100 100 0 
O 57 93 0 
O 96 98 0 
526
Atoms. Timestep: 43
N 16 26 0 
N 76 65 0 
N 95 76 0 
N 4 26 0 
N 6 24 0 
N 29 26 0 
N 1 27 0 
N 17 98 0 
N 4 23 0 
N 27 60 0 
N 66 42 0 
N 29 83 0 
N 31 35 0 
N 99 31 0 
N 45 69 0 
N 32 43 0 
N 36 61 0 
N 73 45 0 
N 31 65 0 
N 50 66 0 
N 97 27 0 
N 97 28 0 
N 29 24 0 
N 94 28 0 
N 27 20 0 
N 17 78 0 
N 26 28 0 
N 5 28 0 
N 38 60 0 
N 74 61 0 
N 1 63 0 
N 26 59 0 
N 91 29 0 
N 58 12 0 
N 40 49 0 
N 94 98 0 
N 66 46 0 
N 62 9 0 
N 7 30 0 
N 91 76 0 
N 50 63 0 
N 39 26 0 
N 53 84 0 
N 64 55 0 
N 57 96 0 
N 31 12 0 
N 81 96 0 
N 18 98 0 
N 29 99 0 
N 95 72 0 
N 34 4 0 
N 59 93 0 
N 14 85 0 
N 58 57 0 
N 99 42 0 
N 8 61 0 
N 52 63 0 
N 11 13 0 
N 95 24 0 
N 39 61 0 
N 90 33 0 
N 2 35 0 
N 28 36 0 
N 56 88 0 
N 25 63 0 
N 98 25 0 
N 30 93 0 
N 82 92 0 
N 30 46 0 
N 84 70 0 
N 58 90 0 
N 13 78 0 
N 57 90 0 
N 63 58 0 
N 89 32 0 
N 16 37 0 
N 15 96 0 
N 16 89 0 
N 36 5 0 
N 94 37 0 
N 34 28 0 
N 7 40 0 
N 86 58 0 
N 77 31 0 
N 10 94 0 
N 21 28 0 
N 52 74 0 
N 35 21 0 
N 22 98 0 
N 10 32 0 
N 51 16 0 
N 95 97 0 
N 66 22 0 
N 12 31 0 
N 85 10 0 
N 82 57 0 
N 35 11 0 
N 89 10 0 
N 9 79 0 
N 5 25 0 
N 58 2 0 
N 58 20 0 
N 11 27 0 
N 50 71 0 
N 16 84 0 
N 40 53 0 
N 48 67 0 
N 95 29 0 
N 33 56 0 
N 80 11 0 
N 6 59 0 
N 48 61 0 
N 87 26 0 
N 27 29 0 
N 53 90 0 
N 88 28 0 
N 85 93 0 
N 60 95 0 
N 76 64 0 
N 88 27 0 
N 55 64 0 
N 29 53 0 
N 60 50 0 
N 22 59 0 
N 95 40 0 
N 8 29 0 
N 90 35 0 
N 31 8 0 
N 28 65 0 
N 57 81 0 
N 51 59 0 
N 31 84 0 
N 84 5 0 
N 64 91 0 
N 91 27 0 
N 75 40 0 
N 96 31 0 
N 19 51 0 
N 54 91 0 
N 61 93 0 
N 44 61 0 
N 55 68 0 
N 33 0 0 
N 33 90 0 
N 57 20 0 
N 94 27 0 
N 19 95 0 
N 13 96 0 
N 68 59 0 
N 14 77 0 
N 98 38 0 
N 61 91 0 
N 94 95 0 
N 49 61 0 
N 28 62 0 
N 33 57 0 
N 28 58 0 
N 13 83 0 
N 3 24 0 
N 48 17 0 
N 60 90 0 
N 30 88 0 
N 28 17 0 
N 96 26 0 
N 87 70 0 
N 35 64 0 
N 32 57 0 
N 11 26 0 
N 65 13 0 
N 17 31 0 
N 95 27 0 
N 51 60 0 
N 16 65 0 
N 95 30 0 
N 29 19 0 
N 38 27 0 
N 64 94 0 
N 29 1 0 
N 34 59 0 
N 57 93 0 
N 94 93 0 
N 7 27 0 
N 16 29 0 
N 31 17 0 
N 93 28 0 
N 91 7 0 
N 95 98 0 
N 11 91 0 
N 29 34 0 
N 72 38 0 
N 96 44 0 
N 92 27 0 
N 15 78 0 
N 13 74 0 
N 24 27 0 
N 27 31 0 
N 64 12 0 
N 4 56 0 
N 58 17 0 
N 30 19 0 
N 86 69 0 
N 58 18 0 
N 41 96 0 
N 66 27 0 
N 95 25 0 
N 92 98 0 
N 90 98 0 
N 12 73 0 
N 63 13 0 
N 3 28 0 
N 4 46 0 
N 80 72 0 
N 87 92 0 
N 32 93 0 
N 65 56 0 
N 83 44 0 
N 15 9 0 
N 66 57 0 
N 52 93 0 
N 36 54 0 
N 83 42 0 
N 91 77 0 
N 70 14 0 
N 95 92 0 
N 54 63 0 
N 10 79 0 
N 93 29 0 
N 26 97 0 
N 30 61 0 
N 82 75 0 
N 38 51 0 
N 82 33 0 
N 50 93 0 
N 59 90 0 
N 69 20 0 
N 80 23 0 
N 11 16 0 
N 7 45 0 
N 48 27 0 
N 53 53 0 
N 96 27 0 
N 8 30 0 
N 32 9 0 
N 85 46 0 
N 22 61 0 
N 96 10 0 
N 32 62 0 
N 76 62 0 
N 27 14 0 
N 46 68 0 
N 80 61 0 
N 69 70 0 
N 8 78 0 
N 75 63 0 
N 11 78 0 
N 30 96 0 
N 1 24 0 
N 41 13 0 
N 60 57 0 
N 32 16 0 
N 89 9 0 
N 50 56 0 
N 63 92 0 
N 87 98 0 
N 63 25 0 
N 15 98 0 
N 84 96 0 
N 79 61 0 
N 1 34 0 
N 50 76 0 
N 52 17 0 
N 67 45 0 
N 65 55 0 
N 96 8 0 
N 92 28 0 
N 30 41 0 
N 27 13 0 
N 39 8 0 
N 92 94 0 
N 95 26 0 
N 63 17 0 
N 66 93 0 
N 16 97 0 
N 61 55 0 
N 13 98 0 
N 87 10 0 
N 15 10 0 
N 56 19 0 
N 33 49 0 
N 30 75 0 
N 34 37 0 
N 31 63 0 
N 95 36 0 
N 56 92 0 
N 63 23 0 
N 18 96 0 
N 60 61 0 
N 52 72 0 
N 35 60 0 
N 87 7 0 
N 33 27 0 
N 58 88 0 
N 57 6 0 
N 95 74 0 
N 14 82 0 
N 33 13 0 
N 6 30 0 
N 12 84 0 
N 56 12 0 
N 63 94 0 
N 47 63 0 
N 57 15 0 
N 31 24 0 
N 94 25 0 
N 29 65 0 
N 25 80 0 
N 69 19 0 
N 42 52 0 
N 13 9 0 
N 91 89 0 
N 99 26 0 
N 54 23 0 
N 53 64 0 
N 33 61 0 
N 33 99 0 
N 94 43 0 
N 37 63 0 
N 35 41 0 
N 47 25 0 
N 41 29 0 
N 70 26 0 
N 56 91 0 
N 64 93 0 
N 58 92 0 
N 30 10 0 
N 70 9 0 
N 16 96 0 
N 52 27 0 
N 11 76 0 
N 61 90 0 
N 95 42 0 
N 16 0 0 
N 49 63 0 
N 18 29 0 
N 69 65 0 
N 32 44 0 
N 92 43 0 
N 56 59 0 
N 31 54 0 
N 3 27 0 
N 38 59 0 
N 64 25 0 
N 74 72 0 
N 49 66 0 
N 64 6 0 
N 96 29 0 
N 3 29 0 
N 68 53 0 
N 30 85 0 
N 91 31 0 
N 31 96 0 
N 62 62 0 
N 62 92 0 
N 33 55 0 
N 78 44 0 
N 13 3 0 
N 14 15 0 
N 61 88 0 
N 15 29 0 
N 27 58 0 
N 8 95 0 
N 85 95 0 
N 25 29 0 
N 63 53 0 
N 52 65 0 
N 67 63 0 
N 30 60 0 
N 56 20 0 
N 25 49 0 
N 63 93 0 
N 91 33 0 
N 59 96 0 
N 33 64 0 
N 34 32 0 
N 47 58 0 
N 57 23 0 
N 30 15 0 
N 81 73 0 
N 34 40 0 
N 12 13 0 
N 27 12 0 
N 81 10 0 
N 41 52 0 
N 40 60 0 
N 9 28 0 
N 61 89 0 
N 32 36 0 
N 90 95 0 
N 0 34 0 
N 57 10 0 
N 87 29 0 
N 17 29 0 
N 84 91 0 
N 40 62 0 
N 61 6 0 
N 50 14 0 
N 54 69 0 
N 89 77 0 
N 28 23 0 
N 37 62 0 
N 65 64 0 
N 87 50 0 
N 89 28 0 
N 84 68 0 
N 60 87 0 
N 37 92 0 
N 93 31 0 
N 65 17 0 
N 29 30 0 
N 12 77 0 
N 1 36 0 
N 25 61 0 
N 37 61 0 
N 62 59 0 
N 57 13 0 
N 86 27 0 
N 90 75 0 
N 58 93 0 
N 64 18 0 
N 96 33 0 
N 70 35 0 
N 35 93 0 
N 27 64 0 
N 53 16 0 
N 13 26 0 
N 55 57 0 
N 3 32 0 
N 0 27 0 
N 38 57 0 
N 96 92 0 
N 32 96 0 
N 99 29 0 
N 96 25 0 
N 12 29 0 
N 62 20 0 
N 36 8 0 
N 37 93 0 
N 52 61 0 
N 84 8 0 
N 75 42 0 
N 37 40 0 
N 59 89 0 
N 21 30 0 
N 28 57 0 
N 93 25 0 
N 4 25 0 
N 54 60 0 
N 85 8 0 
N 27 10 0 
N 28 24 0 
N 90 27 0 
N 10 96 0 
N 34 58 0 
N 56 67 0 
N 39 56 0 
N 8 96 0 
N 94 96 0 
N 49 20 0 
N 34 63 0 
N 60 91 0 
N 93 41 0 
N 52 59 0 
N 36 60 0 
N 27 65 0 
N 67 8 0 
N 63 62 0 
N 94 90 0 
N 78 56 0 
N 31 6 0 
N 71 44 0 
N 29 58 0 
N 59 91 0 
N 0 59 0 
N 81 67 0 
N 46 66 0 
N 14 87 0 
N 36 56 0 
N 85 54 0 
N 29 16 0 
N 63 56 0 
N 40 19 0 
N 95 23 0 
N 68 46 0 
N 15 30 0 
N 6 70 0 
N 63 16 0 
N 63 95 0 
N 18 58 0 
N 96 23 0 
N 59 87 0 
C 0 0 0 
C 25 0 0 
C 50 0 0 
C 75 0 0 
C 100 0 0 
C 0 25 0 
C 25 25 0 
C 50 25 0 
C 75 25 0 
C 100 25 0 
C 0 50 0 
C 25 50 0 
C 50 50 0 
C 75 50 0 
C 100 50 0 
C 0 75 0 
C 25 75 0 
C 50 75 0 
C 75 75 0 
C 100 75 0 
C 0 100 0 
C 25 100 0 
C 50 100 0 
C 75 100 0 
C 100 100 0 
O 96 97 0 
525
Atoms. Timestep: 44
N 15 26 0 
N 76 66 0 
N 96 76 0 
N 3 26 0 
N 5 24 0 
N 29 25 0 
N 1 28 0 
N 18 98 0 
N 3 23 0 
N 27 61 0 
N 67 42 0 
N 29 82 0 
N 31 36 0 
N 0 31 0 
N 44 69 0 
N 33 43 0 
N 35 61 0 
N 73 46 0 
N 30 65 0 
N 49 66 0 
N 97 28 0 
N 98 28 0 
N 29 23 0 
N 93 28 0 
N 27 19 0 
N 18 78 0 
N 26 27 0 
N 4 28 0 
N 38 59 0 
N 73 61 0 
N 2 63 0 
N 26 60 0 
N 90 29 0 
N 59 12 0 
N 40 48 0 
N 94 99 0 
N 66 47 0 
N 61 9 0 
N 6 30 0 
N 90 76 0 
N 51 63 0 
N 40 26 0 
N 54 84 0 
N 63 55 0 
N 57 97 0 
N 30 12 0 
N 81 95 0 
N 18 97 0 
N 30 99 0 
N 95 73 0 
N 35 4 0 
N 58 93 0 
N 14 84 0 
N 59 57 0 
N 99 41 0 
N 8 62 0 
N 53 63 0 
N 11 14 0 
N 95 23 0 
N 40 61 0 
N 89 33 0 
N 3 35 0 
N 27 36 0 
N 56 89 0 
N 25 64 0 
N 97 25 0 
N 30 92 0 
N 82 91 0 
N 29 46 0 
N 85 70 0 
N 59 90 0 
N 14 78 0 
N 56 90 0 
N 63 59 0 
N 90 32 0 
N 17 37 0 
N 16 96 0 
N 16 90 0 
N 35 5 0 
N 94 38 0 
N 34 29 0 
N 7 39 0 
N 86 59 0 
N 77 30 0 
N 10 95 0 
N 21 27 0 
N 51 74 0 
N 35 20 0 
N 22 97 0 
N 10 33 0 
N 51 15 0 
N 96 97 0 
N 66 21 0 
N 11 31 0 
N 86 10 0 
N 81 57 0 
N 35 10 0 
N 89 11 0 
N 10 79 0 
N 5 26 0 
N 58 3 0 
N 59 20 0 
N 12 27 0 
N 50 70 0 
N 17 84 0 
N 40 54 0 
N 48 68 0 
N 95 30 0 
N 33 57 0 
N 80 12 0 
N 7 59 0 
N 47 61 0 
N 87 25 0 
N 28 29 0 
N 53 91 0 
N 88 29 0 
N 86 93 0 
N 60 96 0 
N 77 64 0 
N 87 27 0 
N 54 64 0 
N 30 53 0 
N 60 51 0 
N 22 60 0 
N 94 40 0 
N 8 30 0 
N 90 34 0 
N 31 7 0 
N 28 64 0 
N 57 80 0 
N 51 58 0 
N 31 83 0 
N 84 6 0 
N 65 91 0 
N 91 26 0 
N 76 40 0 
N 96 32 0 
N 19 52 0 
N 54 92 0 
N 60 93 0 
N 45 61 0 
N 54 68 0 
N 32 0 0 
N 34 90 0 
N 56 20 0 
N 95 27 0 
N 20 95 0 
N 13 97 0 
N 67 59 0 
N 13 77 0 
N 98 37 0 
N 61 92 0 
N 94 96 0 
N 50 61 0 
N 27 62 0 
N 33 58 0 
N 29 58 0 
N 13 82 0 
N 4 24 0 
N 49 17 0 
N 61 90 0 
N 31 88 0 
N 28 16 0 
N 96 26 0 
N 86 70 0 
N 35 65 0 
N 31 57 0 
N 12 26 0 
N 65 14 0 
N 18 31 0 
N 95 28 0 
N 50 60 0 
N 17 65 0 
N 96 30 0 
N 30 19 0 
N 39 27 0 
N 63 94 0 
N 29 2 0 
N 34 60 0 
N 56 93 0 
N 94 94 0 
N 6 27 0 
N 17 29 0 
N 31 16 0 
N 92 28 0 
N 91 8 0 
N 96 98 0 
N 12 91 0 
N 29 33 0 
N 73 38 0 
N 97 44 0 
N 93 27 0 
N 16 78 0 
N 13 75 0 
N 24 28 0 
N 27 30 0 
N 64 11 0 
N 4 57 0 
N 58 16 0 
N 30 20 0 
N 86 68 0 
N 59 18 0 
N 40 96 0 
N 66 26 0 
N 95 25 0 
N 92 97 0 
N 91 98 0 
N 12 72 0 
N 63 12 0 
N 3 27 0 
N 4 47 0 
N 81 72 0 
N 88 92 0 
N 33 93 0 
N 64 56 0 
N 82 44 0 
N 14 9 0 
N 66 56 0 
N 52 94 0 
N 37 54 0 
N 83 43 0 
N 91 78 0 
N 70 13 0 
N 95 93 0 
N 55 63 0 
N 10 80 0 
N 94 29 0 
N 27 97 0 
N 31 61 0 
N 82 76 0 
N 38 52 0 
N 82 34 0 
N 49 93 0 
N 59 89 0 
N 68 20 0 
N 80 24 0 
N 11 17 0 
N 7 44 0 
N 47 27 0 
N 53 54 0 
N 96 27 0 
N 9 30 0 
N 33 9 0 
N 85 47 0 
N 22 62 0 
N 96 11 0 
N 33 62 0 
N 77 62 0 
N 28 14 0 
N 46 69 0 
N 80 60 0 
N 68 70 0 
N 7 78 0 
N 75 64 0 
N 11 79 0 
N 30 97 0 
N 0 24 0 
N 41 12 0 
N 61 57 0 
N 33 16 0 
N 90 9 0 
N 50 57 0 
N 62 92 0 
N 88 98 0 
N 62 25 0 
N 15 97 0 
N 85 96 0 
N 78 61 0 
N 2 34 0 
N 49 76 0 
N 52 16 0 
N 67 46 0 
N 66 55 0 
N 96 9 0 
N 91 28 0 
N 30 42 0 
N 28 13 0 
N 40 8 0 
N 93 94 0 
N 95 26 0 
N 63 16 0 
N 66 92 0 
N 17 97 0 
N 61 54 0 
N 14 98 0 
N 88 10 0 
N 14 10 0 
N 55 19 0 
N 34 49 0 
N 29 75 0 
N 35 37 0 
N 31 62 0 
N 95 35 0 
N 56 91 0 
N 64 23 0 
N 18 95 0 
N 61 61 0 
N 53 72 0 
N 35 59 0 
N 87 8 0 
N 33 26 0 
N 58 89 0 
N 57 5 0 
N 95 75 0 
N 14 81 0 
N 32 13 0 
N 5 30 0 
N 12 85 0 
N 57 12 0 
N 63 95 0 
N 48 63 0 
N 57 14 0 
N 31 23 0 
N 94 26 0 
N 29 66 0 
N 25 81 0 
N 70 19 0 
N 43 52 0 
N 13 10 0 
N 92 89 0 
N 98 26 0 
N 53 23 0 
N 52 64 0 
N 33 60 0 
N 34 99 0 
N 95 43 0 
N 36 63 0 
N 35 42 0 
N 47 24 0 
N 40 29 0 
N 70 25 0 
N 55 91 0 
N 63 93 0 
N 58 91 0 
N 31 10 0 
N 69 9 0 
N 17 96 0 
N 52 26 0 
N 12 76 0 
N 62 90 0 
N 95 41 0 
N 16 1 0 
N 49 62 0 
N 18 30 0 
N 69 64 0 
N 33 44 0 
N 91 43 0 
N 55 59 0 
N 31 55 0 
N 4 27 0 
N 38 58 0 
N 64 26 0 
N 73 72 0 
N 49 67 0 
N 64 5 0 
N 96 28 0 
N 2 29 0 
N 68 52 0 
N 30 84 0 
N 90 31 0 
N 32 96 0 
N 63 62 0 
N 62 91 0 
N 33 54 0 
N 78 43 0 
N 14 3 0 
N 14 14 0 
N 61 89 0 
N 14 29 0 
N 27 59 0 
N 9 95 0 
N 86 95 0 
N 25 28 0 
N 62 53 0 
N 53 65 0 
N 66 63 0 
N 31 60 0 
N 56 21 0 
N 26 49 0 
N 62 93 0 
N 91 34 0 
N 59 95 0 
N 33 63 0 
N 34 31 0 
N 46 58 0 
N 58 23 0 
N 31 15 0 
N 80 73 0 
N 34 39 0 
N 12 12 0 
N 26 12 0 
N 81 11 0 
N 41 53 0 
N 39 60 0 
N 9 29 0 
N 62 89 0 
N 32 35 0 
N 91 95 0 
N 0 33 0 
N 56 10 0 
N 86 29 0 
N 17 28 0 
N 83 91 0 
N 39 62 0 
N 60 6 0 
N 49 14 0 
N 55 69 0 
N 90 77 0 
N 28 22 0 
N 38 62 0 
N 65 65 0 
N 88 50 0 
N 89 27 0 
N 84 67 0 
N 61 87 0 
N 38 92 0 
N 93 30 0 
N 64 17 0 
N 29 31 0 
N 11 77 0 
N 1 35 0 
N 24 61 0 
N 38 61 0 
N 62 58 0 
N 56 13 0 
N 86 26 0 
N 91 75 0 
N 58 94 0 
N 64 19 0 
N 96 34 0 
N 70 36 0 
N 36 93 0 
N 26 64 0 
N 53 17 0 
N 14 26 0 
N 56 57 0 
N 3 31 0 
N 99 27 0 
N 38 56 0 
N 96 93 0 
N 32 97 0 
N 99 28 0 
N 96 25 0 
N 12 28 0 
N 62 19 0 
N 36 7 0 
N 37 94 0 
N 51 61 0 
N 85 8 0 
N 76 42 0 
N 36 40 0 
N 60 89 0 
N 21 29 0 
N 28 56 0 
N 93 24 0 
N 3 25 0 
N 55 60 0 
N 85 9 0 
N 26 10 0 
N 28 25 0 
N 90 26 0 
N 10 97 0 
N 34 57 0 
N 56 68 0 
N 39 57 0 
N 9 96 0 
N 94 97 0 
N 50 20 0 
N 34 64 0 
N 60 92 0 
N 93 40 0 
N 52 58 0 
N 37 60 0 
N 27 66 0 
N 67 9 0 
N 63 61 0 
N 95 90 0 
N 78 57 0 
N 31 5 0 
N 70 44 0 
N 29 57 0 
N 59 92 0 
N 0 60 0 
N 80 67 0 
N 46 67 0 
N 14 88 0 
N 36 55 0 
N 84 54 0 
N 29 17 0 
N 63 57 0 
N 41 19 0 
N 96 23 0 
N 69 46 0 
N 16 30 0 
N 6 71 0 
N 63 15 0 
N 62 95 0 
N 19 58 0 
N 96 24 0 
N 58 87 0 
C 0 0 0 
C 25 0 0 
C 50 0 0 
C 75 0 0 
C 100 0 0 
C 0 25 0 
C 25 25 0 
C 50 25 0 
C 75 25 0 
C 100 25 0 
C 0 50 0 
C 25 50 0 
C 50 50 0 
C 75 50 0 
C 100 50 0 
C 0 75 0 
C 25 75 0 
C 50 75 0 
C 75 75 0 
C 100 75 0 
C 0 100 0 
C 25 100 0 
C 50 100 0 
C 75 100 0 
C 100 100 0 
