502
Atoms. Timestep: 1
N 71 38 0 
N 19 88 0 
N 57 85 0 
N 97 77 0 
N 47 43 0 
N 4 75 0 
N 87 33 0 
N 30 10 0 
N 14 14 0 
N 30 8 0 
N 83 65 0 
N 16 90 0 
N 95 96 0 
N 17 56 0 
N 49 69 0 
N 69 84 0 
N 94 56 0 
N 46 28 0 
N 9 52 0 
N 47 73 0 
N 95 3 0 
N 88 62 0 
N 3 24 0 
N 9 25 0 
N 45 4 0 
N 73 34 0 
N 40 69 0 
N 48 2 0 
N 23 22 0 
N 97 38 0 
N 10 1 0 
N 35 25 0 
N 91 36 0 
N 16 10 0 
N 14 75 0 
N 5 67 0 
N 67 69 0 
N 13 0 0 
N 36 67 0 
N 93 8 0 
N 65 87 0 
N 32 52 0 
N 87 31 0 
N 16 79 0 
N 92 41 0 
N 99 18 0 
N 98 83 0 
N 81 82 0 
N 44 98 0 
N 15 37 0 
N 91 23 0 
N 92 65 0 
N 23 25 0 
N 24 90 0 
N 13 74 0 
N 41 92 0 
N 11 39 0 
N 70 89 0 
N 33 30 0 
N 11 70 0 
N 45 18 0 
N 44 69 0 
N 56 56 0 
N 6 52 0 
N 70 59 0 
N 51 85 0 
N 2 58 0 
N 32 42 0 
N 36 99 0 
N 35 76 0 
N 72 50 0 
N 84 28 0 
N 85 11 0 
N 21 49 0 
N 50 10 0 
N 36 62 0 
N 37 48 0 
N 57 57 0 
N 14 4 0 
N 34 60 0 
N 32 36 0 
N 55 77 0 
N 74 59 0 
N 82 37 0 
N 74 49 0 
N 34 2 0 
N 62 87 0 
N 78 21 0 
N 33 58 0 
N 36 80 0 
N 87 99 0 
N 46 83 0 
N 68 95 0 
N 19 15 0 
N 10 56 0 
N 38 97 0 
N 0 85 0 
N 5 77 0 
N 44 58 0 
N 65 11 0 
N 10 97 0 
N 42 94 0 
N 46 44 0 
N 9 61 0 
N 47 52 0 
N 48 4 0 
N 57 46 0 
N 41 46 0 
N 46 84 0 
N 99 48 0 
N 34 8 0 
N 24 23 0 
N 71 99 0 
N 29 55 0 
N 75 75 0 
N 90 71 0 
N 28 57 0 
N 91 46 0 
N 35 1 0 
N 85 13 0 
N 26 22 0 
N 40 29 0 
N 35 43 0 
N 31 9 0 
N 27 33 0 
N 64 75 0 
N 32 67 0 
N 17 95 0 
N 4 96 0 
N 70 18 0 
N 92 12 0 
N 59 67 0 
N 36 88 0 
N 69 52 0 
N 61 57 0 
N 71 90 0 
N 93 67 0 
N 58 32 0 
N 86 10 0 
N 11 60 0 
N 58 40 0 
N 6 34 0 
N 62 8 0 
N 55 51 0 
N 21 53 0 
N 34 70 0 
N 97 54 0 
N 87 90 0 
N 75 58 0 
N 3 54 0 
N 42 12 0 
N 36 19 0 
N 3 5 0 
N 52 47 0 
N 99 57 0 
N 52 4 0 
N 34 51 0 
N 24 22 0 
N 91 35 0 
N 78 75 0 
N 6 96 0 
N 35 84 0 
N 44 4 0 
N 6 43 0 
N 0 12 0 
N 80 32 0 
N 55 86 0 
N 65 36 0 
N 94 63 0 
N 33 94 0 
N 67 20 0 
N 95 12 0 
N 24 94 0 
N 74 52 0 
N 7 15 0 
N 7 86 0 
N 83 74 0 
N 57 50 0 
N 17 86 0 
N 36 98 0 
N 95 58 0 
N 33 45 0 
N 77 76 0 
N 55 46 0 
N 46 11 0 
N 28 3 0 
N 79 91 0 
N 54 76 0 
N 60 36 0 
N 78 94 0 
N 28 26 0 
N 95 53 0 
N 48 97 0 
N 16 81 0 
N 31 23 0 
N 45 74 0 
N 83 52 0 
N 10 91 0 
N 13 53 0 
N 40 55 0 
N 89 43 0 
N 26 38 0 
N 24 96 0 
N 42 46 0 
N 71 63 0 
N 55 3 0 
N 52 37 0 
N 21 46 0 
N 35 87 0 
N 51 95 0 
N 32 89 0 
N 38 45 0 
N 10 57 0 
N 12 60 0 
N 57 93 0 
N 74 71 0 
N 67 12 0 
N 39 45 0 
N 27 49 0 
N 46 52 0 
N 12 5 0 
N 63 83 0 
N 19 44 0 
N 82 44 0 
N 72 89 0 
N 96 64 0 
N 77 93 0 
N 19 78 0 
N 63 76 0 
N 77 57 0 
N 86 72 0 
N 41 77 0 
N 68 17 0 
N 8 90 0 
N 72 29 0 
N 69 54 0 
N 14 3 0 
N 30 2 0 
N 34 72 0 
N 77 3 0 
N 61 29 0 
N 64 46 0 
N 41 6 0 
N 40 4 0 
N 33 59 0 
N 87 84 0 
N 65 93 0 
N 64 88 0 
N 54 49 0 
N 39 42 0 
N 22 38 0 
N 53 92 0 
N 48 50 0 
N 64 89 0 
N 80 95 0 
N 48 10 0 
N 77 0 0 
N 60 74 0 
N 18 36 0 
N 28 68 0 
N 14 12 0 
N 93 45 0 
N 44 51 0 
N 34 56 0 
N 18 95 0 
N 41 53 0 
N 85 67 0 
N 94 27 0 
N 2 42 0 
N 58 57 0 
N 22 66 0 
N 46 42 0 
N 3 4 0 
N 20 15 0 
N 66 35 0 
N 94 84 0 
N 68 78 0 
N 54 97 0 
N 39 87 0 
N 66 67 0 
N 95 22 0 
N 39 47 0 
N 73 36 0 
N 73 90 0 
N 93 78 0 
N 85 0 0 
N 37 51 0 
N 59 18 0 
N 9 72 0 
N 37 67 0 
N 34 46 0 
N 83 20 0 
N 43 50 0 
N 36 83 0 
N 25 37 0 
N 60 54 0 
N 83 80 0 
N 18 31 0 
N 63 38 0 
N 25 84 0 
N 64 97 0 
N 33 36 0 
N 43 76 0 
N 8 55 0 
N 3 72 0 
N 24 57 0 
N 51 89 0 
N 19 57 0 
N 62 73 0 
N 30 31 0 
N 46 66 0 
N 57 95 0 
N 9 84 0 
N 61 44 0 
N 23 39 0 
N 38 38 0 
N 81 17 0 
N 92 89 0 
N 21 63 0 
N 81 14 0 
N 81 15 0 
N 53 72 0 
N 79 8 0 
N 83 76 0 
N 27 4 0 
N 49 5 0 
N 55 12 0 
N 67 71 0 
N 95 21 0 
N 30 99 0 
N 88 8 0 
N 9 62 0 
N 30 71 0 
N 88 83 0 
N 95 83 0 
N 28 93 0 
N 96 2 0 
N 65 79 0 
N 73 72 0 
N 90 31 0 
N 66 46 0 
N 65 70 0 
N 7 67 0 
N 8 21 0 
N 68 88 0 
N 12 57 0 
N 64 18 0 
N 75 50 0 
N 98 64 0 
N 55 22 0 
N 13 79 0 
N 78 3 0 
N 20 4 0 
N 28 62 0 
N 99 84 0 
N 9 29 0 
N 90 33 0 
N 54 15 0 
N 88 65 0 
N 96 55 0 
N 69 93 0 
N 23 91 0 
N 18 76 0 
N 17 71 0 
N 18 9 0 
N 82 64 0 
N 86 14 0 
N 38 31 0 
N 63 98 0 
N 85 57 0 
N 91 34 0 
N 1 54 0 
N 93 22 0 
N 77 44 0 
N 22 81 0 
N 41 66 0 
N 64 55 0 
N 57 73 0 
N 97 96 0 
N 14 37 0 
N 24 32 0 
N 21 4 0 
N 53 50 0 
N 44 97 0 
N 50 5 0 
N 43 92 0 
N 63 9 0 
N 34 87 0 
N 98 85 0 
N 44 64 0 
N 0 8 0 
N 38 91 0 
N 91 13 0 
N 3 30 0 
N 67 45 0 
N 71 5 0 
N 50 26 0 
N 92 11 0 
N 97 80 0 
N 44 38 0 
N 87 39 0 
N 70 28 0 
N 53 90 0 
N 54 21 0 
N 8 59 0 
N 86 13 0 
N 81 75 0 
N 41 57 0 
N 58 59 0 
N 51 66 0 
N 2 52 0 
N 52 12 0 
N 76 95 0 
N 7 62 0 
N 75 57 0 
N 1 79 0 
N 21 25 0 
N 50 73 0 
N 69 10 0 
N 18 82 0 
N 23 85 0 
N 87 89 0 
N 95 19 0 
N 4 79 0 
N 85 29 0 
N 65 96 0 
N 68 56 0 
N 84 54 0 
N 10 52 0 
N 34 99 0 
N 38 44 0 
N 84 3 0 
N 60 52 0 
N 15 60 0 
N 32 91 0 
N 90 98 0 
N 69 49 0 
N 78 99 0 
N 36 71 0 
N 14 88 0 
N 90 81 0 
N 9 99 0 
N 17 80 0 
N 78 63 0 
N 85 20 0 
N 98 6 0 
N 98 31 0 
N 17 11 0 
N 68 86 0 
N 30 49 0 
N 37 0 0 
N 70 81 0 
N 29 11 0 
N 44 88 0 
N 37 89 0 
N 24 60 0 
N 47 29 0 
N 22 45 0 
N 19 3 0 
N 27 37 0 
N 23 35 0 
N 53 21 0 
N 50 98 0 
N 66 88 0 
N 9 85 0 
N 1 53 0 
N 30 11 0 
N 26 73 0 
N 1 4 0 
N 56 44 0 
N 16 31 0 
N 31 89 0 
N 94 4 0 
N 71 40 0 
N 86 82 0 
N 87 1 0 
N 1 10 0 
N 59 38 0 
N 69 39 0 
N 81 43 0 
N 29 92 0 
N 84 16 0 
N 62 56 0 
N 50 91 0 
N 2 59 0 
N 57 18 0 
N 76 65 0 
N 1 43 0 
N 2 15 0 
N 39 56 0 
N 1 51 0 
N 96 28 0 
N 86 42 0 
N 20 0 0 
N 62 63 0 
N 9 63 0 
N 64 29 0 
N 98 10 0 
N 93 20 0 
N 79 97 0 
O 61 70 0 
O 11 91 0 
501
Atoms. Timestep: 2
N 70 38 0 
N 19 87 0 
N 58 85 0 
N 96 77 0 
N 46 43 0 
N 4 74 0 
N 87 32 0 
N 31 10 0 
N 15 14 0 
N 29 8 0 
N 83 64 0 
N 16 89 0 
N 94 96 0 
N 16 56 0 
N 48 69 0 
N 69 85 0 
N 94 55 0 
N 47 28 0 
N 9 53 0 
N 47 72 0 
N 96 3 0 
N 87 62 0 
N 3 23 0 
N 9 26 0 
N 44 4 0 
N 73 33 0 
N 39 69 0 
N 48 3 0 
N 24 22 0 
N 96 38 0 
N 11 1 0 
N 36 25 0 
N 91 35 0 
N 15 10 0 
N 14 76 0 
N 4 67 0 
N 67 68 0 
N 14 0 0 
N 37 67 0 
N 93 7 0 
N 66 87 0 
N 32 51 0 
N 86 31 0 
N 17 79 0 
N 91 41 0 
N 99 17 0 
N 98 82 0 
N 82 82 0 
N 45 98 0 
N 15 36 0 
N 91 24 0 
N 92 66 0 
N 24 25 0 
N 24 89 0 
N 13 73 0 
N 40 92 0 
N 12 39 0 
N 69 89 0 
N 33 29 0 
N 10 70 0 
N 44 18 0 
N 44 68 0 
N 55 56 0 
N 6 53 0 
N 69 59 0 
N 52 85 0 
N 1 58 0 
N 32 43 0 
N 35 99 0 
N 35 77 0 
N 72 51 0 
N 84 29 0 
N 84 11 0 
N 20 49 0 
N 50 11 0 
N 35 62 0 
N 37 49 0 
N 57 56 0 
N 13 4 0 
N 34 61 0 
N 32 35 0 
N 54 77 0 
N 73 59 0 
N 83 37 0 
N 74 48 0 
N 34 3 0 
N 63 87 0 
N 79 21 0 
N 33 57 0 
N 36 79 0 
N 87 98 0 
N 47 83 0 
N 67 95 0 
N 19 16 0 
N 11 56 0 
N 38 96 0 
N 0 86 0 
N 6 77 0 
N 44 59 0 
N 64 11 0 
N 10 96 0 
N 43 94 0 
N 47 44 0 
N 8 61 0 
N 48 52 0 
N 49 4 0 
N 57 45 0 
N 40 46 0 
N 45 84 0 
N 0 48 0 
N 33 8 0 
N 23 23 0 
N 71 98 0 
N 29 56 0 
N 74 75 0 
N 90 70 0 
N 29 57 0 
N 91 47 0 
N 35 0 0 
N 85 14 0 
N 26 23 0 
N 41 29 0 
N 35 44 0 
N 32 9 0 
N 27 34 0 
N 63 75 0 
N 33 67 0 
N 16 95 0 
N 4 95 0 
N 70 17 0 
N 91 12 0 
N 59 66 0 
N 35 88 0 
N 69 51 0 
N 61 58 0 
N 71 89 0 
N 92 67 0 
N 58 33 0 
N 87 10 0 
N 11 59 0 
N 57 40 0 
N 5 34 0 
N 62 7 0 
N 54 51 0 
N 21 54 0 
N 33 70 0 
N 98 54 0 
N 87 91 0 
N 74 58 0 
N 3 53 0 
N 41 12 0 
N 36 20 0 
N 3 4 0 
N 51 47 0 
N 99 58 0 
N 53 4 0 
N 34 52 0 
N 25 22 0 
N 92 35 0 
N 79 75 0 
N 6 97 0 
N 35 85 0 
N 44 5 0 
N 6 44 0 
N 1 12 0 
N 80 33 0 
N 54 86 0 
N 64 36 0 
N 93 63 0 
N 33 93 0 
N 67 21 0 
N 96 12 0 
N 24 95 0 
N 73 52 0 
N 6 15 0 
N 7 87 0 
N 83 75 0 
N 56 50 0 
N 16 86 0 
N 35 98 0 
N 94 58 0 
N 32 45 0 
N 77 77 0 
N 55 45 0 
N 45 11 0 
N 28 4 0 
N 78 91 0 
N 53 76 0 
N 59 36 0 
N 78 95 0 
N 27 26 0 
N 94 53 0 
N 48 96 0 
N 15 81 0 
N 31 22 0 
N 45 73 0 
N 83 51 0 
N 11 91 0 
N 13 52 0 
N 41 55 0 
N 89 44 0 
N 26 37 0 
N 23 96 0 
N 42 47 0 
N 70 63 0 
N 55 4 0 
N 51 37 0 
N 21 47 0 
N 34 87 0 
N 50 95 0 
N 32 88 0 
N 38 44 0 
N 9 57 0 
N 12 61 0 
N 57 92 0 
N 73 71 0 
N 67 13 0 
N 40 45 0 
N 28 49 0 
N 46 53 0 
N 11 5 0 
N 63 82 0 
N 20 44 0 
N 81 44 0 
N 72 88 0 
N 96 63 0 
N 78 93 0 
N 18 78 0 
N 62 76 0 
N 76 57 0 
N 85 72 0 
N 40 77 0 
N 68 18 0 
N 9 90 0 
N 72 28 0 
N 69 53 0 
N 14 2 0 
N 30 3 0 
N 33 72 0 
N 78 3 0 
N 61 30 0 
N 64 45 0 
N 40 6 0 
N 40 3 0 
N 33 60 0 
N 87 83 0 
N 66 93 0 
N 64 87 0 
N 55 49 0 
N 38 42 0 
N 22 39 0 
N 53 91 0 
N 47 50 0 
N 64 90 0 
N 79 95 0 
N 49 10 0 
N 78 0 0 
N 60 73 0 
N 18 35 0 
N 28 69 0 
N 14 13 0 
N 94 45 0 
N 43 51 0 
N 34 55 0 
N 18 96 0 
N 41 52 0 
N 86 67 0 
N 94 26 0 
N 2 41 0 
N 59 57 0 
N 22 67 0 
N 47 42 0 
N 2 4 0 
N 20 16 0 
N 67 35 0 
N 94 83 0 
N 68 77 0 
N 54 98 0 
N 39 88 0 
N 66 68 0 
N 95 21 0 
N 39 46 0 
N 73 37 0 
N 72 90 0 
N 93 77 0 
N 86 0 0 
N 37 50 0 
N 59 17 0 
N 8 72 0 
N 37 68 0 
N 33 46 0 
N 83 21 0 
N 44 50 0 
N 37 83 0 
N 25 38 0 
N 59 54 0 
N 83 81 0 
N 17 31 0 
N 63 39 0 
N 26 84 0 
N 63 97 0 
N 33 37 0 
N 42 76 0 
N 7 55 0 
N 3 73 0 
N 24 56 0 
N 50 89 0 
N 20 57 0 
N 62 74 0 
N 31 31 0 
N 46 67 0 
N 57 94 0 
N 9 83 0 
N 62 44 0 
N 23 38 0 
N 38 37 0 
N 82 17 0 
N 93 89 0 
N 21 62 0 
N 81 15 0 
N 82 15 0 
N 54 72 0 
N 78 8 0 
N 83 77 0 
N 27 3 0 
N 50 5 0 
N 54 12 0 
N 67 70 0 
N 94 21 0 
N 30 0 0 
N 87 8 0 
N 8 62 0 
N 30 72 0 
N 88 82 0 
N 96 83 0 
N 29 93 0 
N 96 1 0 
N 65 80 0 
N 74 72 0 
N 89 31 0 
N 66 45 0 
N 64 70 0 
N 7 68 0 
N 8 22 0 
N 67 88 0 
N 13 57 0 
N 63 18 0 
N 76 50 0 
N 97 64 0 
N 55 23 0 
N 12 79 0 
N 78 4 0 
N 19 4 0 
N 29 62 0 
N 99 83 0 
N 9 30 0 
N 91 33 0 
N 54 14 0 
N 88 64 0 
N 96 54 0 
N 69 92 0 
N 23 90 0 
N 19 76 0 
N 17 70 0 
N 19 9 0 
N 82 63 0 
N 87 14 0 
N 37 31 0 
N 63 99 0 
N 85 56 0 
N 90 34 0 
N 2 54 0 
N 94 22 0 
N 78 44 0 
N 22 80 0 
N 41 67 0 
N 65 55 0 
N 57 74 0 
N 96 96 0 
N 14 36 0 
N 23 32 0 
N 21 3 0 
N 53 49 0 
N 45 97 0 
N 50 4 0 
N 43 91 0 
N 63 8 0 
N 34 86 0 
N 98 84 0 
N 44 65 0 
N 99 8 0 
N 38 90 0 
N 92 13 0 
N 2 30 0 
N 67 46 0 
N 72 5 0 
N 51 26 0 
N 93 11 0 
N 97 79 0 
N 44 39 0 
N 87 38 0 
N 70 29 0 
N 54 90 0 
N 54 22 0 
N 7 59 0 
N 86 12 0 
N 81 74 0 
N 42 57 0 
N 57 59 0 
N 51 65 0 
N 2 51 0 
N 52 13 0 
N 76 94 0 
N 7 61 0 
N 74 57 0 
N 0 79 0 
N 20 25 0 
N 50 72 0 
N 69 11 0 
N 18 81 0 
N 23 84 0 
N 86 89 0 
N 95 20 0 
N 3 79 0 
N 86 29 0 
N 65 97 0 
N 67 56 0 
N 84 53 0 
N 11 52 0 
N 34 98 0 
N 39 44 0 
N 85 3 0 
N 61 52 0 
N 16 60 0 
N 32 90 0 
N 89 98 0 
N 69 50 0 
N 77 99 0 
N 36 72 0 
N 14 87 0 
N 91 81 0 
N 9 0 0 
N 16 80 0 
N 79 63 0 
N 85 19 0 
N 99 6 0 
N 97 31 0 
N 17 10 0 
N 67 86 0 
N 30 50 0 
N 37 99 0 
N 70 80 0 
N 29 10 0 
N 44 89 0 
N 37 88 0 
N 24 61 0 
N 46 29 0 
N 22 44 0 
N 19 2 0 
N 27 38 0 
N 23 34 0 
N 53 22 0 
N 49 98 0 
N 65 88 0 
N 8 85 0 
N 2 53 0 
N 30 12 0 
N 26 74 0 
N 1 5 0 
N 55 44 0 
N 16 32 0 
N 31 90 0 
N 93 4 0 
N 71 41 0 
N 86 81 0 
N 87 0 0 
N 0 10 0 
N 60 38 0 
N 70 39 0 
N 81 42 0 
N 28 92 0 
N 84 15 0 
N 61 56 0 
N 51 91 0 
N 1 59 0 
N 57 17 0 
N 77 65 0 
N 2 43 0 
N 1 15 0 
N 38 56 0 
N 0 51 0 
N 96 27 0 
N 86 41 0 
N 20 1 0 
N 63 63 0 
N 10 63 0 
N 63 29 0 
N 98 11 0 
N 94 20 0 
N 79 98 0 
O 60 70 0 
501
Atoms. Timestep: 3
N 71 38 0 
N 19 86 0 
N 57 85 0 
N 97 77 0 
N 46 44 0 
N 4 73 0 
N 87 33 0 
N 31 11 0 
N 15 13 0 
N 29 9 0 
N 83 63 0 
N 15 89 0 
N 95 96 0 
N 15 56 0 
N 49 69 0 
N 70 85 0 
N 93 55 0 
N 48 28 0 
N 8 53 0 
N 47 73 0 
N 95 3 0 
N 86 62 0 
N 3 24 0 
N 10 26 0 
N 44 3 0 
N 73 34 0 
N 40 69 0 
N 48 2 0 
N 25 22 0 
N 96 39 0 
N 11 2 0 
N 35 25 0 
N 92 35 0 
N 14 10 0 
N 13 76 0 
N 4 68 0 
N 67 67 0 
N 14 1 0 
N 37 68 0 
N 93 8 0 
N 67 87 0 
N 32 52 0 
N 86 32 0 
N 18 79 0 
N 90 41 0 
N 98 17 0 
N 97 82 0 
N 81 82 0 
N 45 99 0 
N 16 36 0 
N 92 24 0 
N 93 66 0 
N 23 25 0 
N 23 89 0 
N 13 72 0 
N 40 91 0 
N 12 38 0 
N 68 89 0 
N 33 30 0 
N 9 70 0 
N 44 17 0 
N 45 68 0 
N 56 56 0 
N 5 53 0 
N 69 60 0 
N 52 86 0 
N 2 58 0 
N 31 43 0 
N 36 99 0 
N 35 76 0 
N 73 51 0 
N 83 29 0 
N 84 10 0 
N 19 49 0 
N 51 11 0 
N 36 62 0 
N 37 48 0 
N 57 57 0 
N 13 3 0 
N 34 60 0 
N 31 35 0 
N 55 77 0 
N 73 60 0 
N 84 37 0 
N 75 48 0 
N 34 4 0 
N 63 86 0 
N 80 21 0 
N 33 58 0 
N 35 79 0 
N 87 99 0 
N 47 82 0 
N 67 94 0 
N 18 16 0 
N 11 55 0 
N 38 97 0 
N 0 85 0 
N 5 77 0 
N 43 59 0 
N 64 10 0 
N 11 96 0 
N 44 94 0 
N 48 44 0 
N 8 62 0 
N 48 53 0 
N 48 4 0 
N 58 45 0 
N 41 46 0 
N 45 83 0 
N 1 48 0 
N 33 7 0 
N 22 23 0 
N 71 99 0 
N 30 56 0 
N 74 76 0 
N 91 70 0 
N 30 57 0 
N 92 47 0 
N 34 0 0 
N 85 13 0 
N 27 23 0 
N 42 29 0 
N 34 44 0 
N 31 9 0 
N 28 34 0 
N 62 75 0 
N 33 68 0 
N 16 96 0 
N 4 94 0 
N 69 17 0 
N 92 12 0 
N 59 67 0 
N 34 88 0 
N 70 51 0 
N 60 58 0 
N 71 88 0 
N 91 67 0 
N 58 34 0 
N 86 10 0 
N 10 59 0 
N 56 40 0 
N 6 34 0 
N 62 8 0 
N 55 51 0 
N 20 54 0 
N 34 70 0 
N 99 54 0 
N 87 90 0 
N 75 58 0 
N 4 53 0 
N 41 11 0 
N 36 21 0 
N 4 4 0 
N 51 46 0 
N 98 58 0 
N 54 4 0 
N 35 52 0 
N 26 22 0 
N 92 36 0 
N 80 75 0 
N 6 96 0 
N 35 86 0 
N 43 5 0 
N 7 44 0 
N 2 12 0 
N 81 33 0 
N 54 85 0 
N 64 37 0 
N 92 63 0 
N 34 93 0 
N 67 22 0 
N 97 12 0 
N 25 95 0 
N 72 52 0 
N 6 16 0 
N 6 87 0 
N 82 75 0 
N 56 51 0 
N 15 86 0 
N 36 98 0 
N 94 57 0 
N 31 45 0 
N 76 77 0 
N 56 45 0 
N 46 11 0 
N 29 4 0 
N 78 92 0 
N 54 76 0 
N 59 37 0 
N 78 94 0 
N 28 26 0 
N 94 54 0 
N 49 96 0 
N 16 81 0 
N 30 22 0 
N 45 72 0 
N 84 51 0 
N 11 90 0 
N 12 52 0 
N 40 55 0 
N 88 44 0 
N 27 37 0 
N 24 96 0 
N 42 46 0 
N 70 64 0 
N 55 5 0 
N 51 38 0 
N 20 47 0 
N 34 86 0 
N 50 94 0 
N 32 89 0 
N 38 45 0 
N 9 56 0 
N 12 62 0 
N 57 91 0 
N 73 70 0 
N 67 14 0 
N 41 45 0 
N 28 48 0 
N 45 53 0 
N 12 5 0 
N 64 82 0 
N 20 45 0 
N 82 44 0 
N 72 89 0 
N 96 62 0 
N 79 93 0 
N 17 78 0 
N 63 76 0 
N 75 57 0 
N 85 71 0 
N 41 77 0 
N 67 18 0 
N 10 90 0 
N 72 27 0 
N 68 53 0 
N 15 2 0 
N 30 2 0 
N 34 72 0 
N 78 4 0 
N 61 29 0 
N 63 45 0 
N 41 6 0 
N 40 2 0 
N 32 60 0 
N 87 82 0 
N 65 93 0 
N 64 88 0 
N 54 49 0 
N 38 41 0 
N 21 39 0 
N 52 91 0 
N 46 50 0 
N 65 90 0 
N 80 95 0 
N 48 10 0 
N 79 0 0 
N 60 72 0 
N 18 36 0 
N 28 68 0 
N 14 14 0 
N 93 45 0 
N 44 51 0 
N 34 56 0 
N 19 96 0 
N 41 53 0 
N 85 67 0 
N 94 27 0 
N 2 42 0 
N 58 57 0 
N 23 67 0 
N 47 41 0 
N 2 5 0 
N 21 16 0 
N 67 36 0 
N 94 84 0 
N 69 77 0 
N 53 98 0 
N 39 87 0 
N 66 67 0 
N 95 22 0 
N 39 45 0 
N 73 36 0 
N 73 90 0 
N 93 76 0 
N 87 0 0 
N 36 50 0 
N 59 16 0 
N 8 71 0 
N 37 69 0 
N 34 46 0 
N 82 21 0 
N 45 50 0 
N 37 84 0 
N 25 39 0 
N 59 55 0 
N 84 81 0 
N 18 31 0 
N 64 39 0 
N 25 84 0 
N 64 97 0 
N 33 36 0 
N 42 77 0 
N 7 56 0 
N 3 74 0 
N 23 56 0 
N 51 89 0 
N 19 57 0 
N 62 73 0 
N 32 31 0 
N 47 67 0 
N 58 94 0 
N 9 82 0 
N 62 43 0 
N 24 38 0 
N 38 38 0 
N 83 17 0 
N 94 89 0 
N 22 62 0 
N 80 15 0 
N 82 14 0 
N 55 72 0 
N 78 9 0 
N 83 78 0 
N 28 3 0 
N 50 4 0 
N 54 13 0 
N 67 69 0 
N 94 22 0 
N 31 0 0 
N 88 8 0 
N 9 62 0 
N 30 71 0 
N 88 81 0 
N 97 83 0 
N 29 92 0 
N 95 1 0 
N 66 80 0 
N 75 72 0 
N 89 30 0 
N 66 44 0 
N 63 70 0 
N 7 67 0 
N 8 23 0 
N 68 88 0 
N 14 57 0 
N 62 18 0 
N 75 50 0 
N 96 64 0 
N 54 23 0 
N 13 79 0 
N 77 4 0 
N 19 5 0 
N 29 63 0 
N 0 83 0 
N 9 31 0 
N 92 33 0 
N 55 14 0 
N 88 63 0 
N 96 53 0 
N 69 93 0 
N 24 90 0 
N 19 75 0 
N 17 71 0 
N 19 8 0 
N 82 64 0 
N 86 14 0 
N 37 32 0 
N 63 98 0 
N 85 55 0 
N 90 33 0 
N 3 54 0 
N 94 23 0 
N 79 44 0 
N 23 80 0 
N 41 66 0 
N 64 55 0 
N 58 74 0 
N 96 95 0 
N 14 37 0 
N 23 33 0 
N 22 3 0 
N 52 49 0 
N 45 96 0 
N 51 4 0 
N 43 90 0 
N 63 7 0 
N 34 85 0 
N 97 84 0 
N 44 66 0 
N 98 8 0 
N 38 91 0 
N 91 13 0 
N 2 29 0 
N 66 46 0 
N 71 5 0 
N 52 26 0 
N 93 10 0 
N 96 79 0 
N 44 40 0 
N 86 38 0 
N 69 29 0 
N 54 91 0 
N 53 22 0 
N 7 58 0 
N 86 13 0 
N 81 73 0 
N 43 57 0 
N 57 60 0 
N 51 66 0 
N 3 51 0 
N 52 14 0 
N 76 95 0 
N 7 60 0 
N 73 57 0 
N 0 78 0 
N 21 25 0 
N 50 71 0 
N 68 11 0 
N 18 82 0 
N 23 83 0 
N 87 89 0 
N 95 19 0 
N 3 78 0 
N 86 30 0 
N 66 97 0 
N 67 55 0 
N 83 53 0 
N 11 53 0 
N 34 99 0 
N 39 43 0 
N 85 2 0 
N 61 53 0 
N 16 61 0 
N 33 90 0 
N 89 99 0 
N 70 50 0 
N 77 98 0 
N 35 72 0 
N 15 87 0 
N 91 82 0 
N 8 0 0 
N 17 80 0 
N 80 63 0 
N 85 20 0 
N 0 6 0 
N 98 31 0 
N 17 9 0 
N 66 86 0 
N 30 49 0 
N 38 99 0 
N 71 80 0 
N 29 11 0 
N 44 90 0 
N 38 88 0 
N 25 61 0 
N 46 30 0 
N 23 44 0 
N 20 2 0 
N 28 38 0 
N 23 35 0 
N 52 22 0 
N 49 97 0 
N 65 89 0 
N 8 86 0 
N 2 52 0 
N 30 11 0 
N 26 75 0 
N 0 5 0 
N 56 44 0 
N 17 32 0 
N 31 89 0 
N 94 4 0 
N 71 42 0 
N 86 82 0 
N 87 1 0 
N 1 10 0 
N 59 38 0 
N 70 40 0 
N 81 43 0 
N 28 93 0 
N 85 15 0 
N 61 57 0 
N 51 92 0 
N 1 60 0 
N 56 17 0 
N 77 64 0 
N 1 43 0 
N 1 16 0 
N 38 57 0 
N 99 51 0 
N 96 28 0 
N 87 41 0 
N 19 1 0 
N 63 62 0 
N 10 64 0 
N 63 28 0 
N 98 10 0 
N 94 19 0 
N 78 98 0 
O 60 71 0 
501
Atoms. Timestep: 4
N 72 38 0 
N 18 86 0 
N 57 84 0 
N 97 76 0 
N 45 44 0 
N 5 73 0 
N 87 34 0 
N 31 12 0 
N 16 13 0 
N 29 8 0 
N 83 64 0 
N 15 88 0 
N 95 97 0 
N 14 56 0 
N 49 68 0 
N 70 84 0 
N 94 55 0 
N 49 28 0 
N 8 52 0 
N 47 74 0 
N 96 3 0 
N 86 61 0 
N 2 24 0 
N 9 26 0 
N 45 3 0 
N 73 33 0 
N 40 70 0 
N 48 1 0 
N 25 23 0 
N 96 38 0 
N 11 3 0 
N 35 24 0 
N 92 36 0 
N 14 9 0 
N 13 75 0 
N 4 69 0 
N 68 67 0 
N 15 1 0 
N 38 68 0 
N 93 7 0 
N 67 86 0 
N 32 53 0 
N 87 32 0 
N 17 79 0 
N 90 42 0 
N 97 17 0 
N 97 83 0 
N 81 83 0 
N 45 98 0 
N 16 37 0 
N 91 24 0 
N 93 67 0 
N 24 25 0 
N 22 89 0 
N 12 72 0 
N 41 91 0 
N 13 38 0 
N 68 90 0 
N 34 30 0 
N 9 69 0 
N 44 16 0 
N 45 67 0 
N 56 55 0 
N 4 53 0 
N 69 59 0 
N 53 86 0 
N 3 58 0 
N 31 44 0 
N 35 99 0 
N 35 77 0 
N 74 51 0 
N 82 29 0 
N 84 11 0 
N 19 48 0 
N 51 12 0 
N 37 62 0 
N 37 49 0 
N 58 57 0 
N 12 3 0 
N 34 61 0 
N 31 36 0 
N 56 77 0 
N 73 59 0 
N 83 37 0 
N 75 49 0 
N 33 4 0 
N 62 86 0 
N 79 21 0 
N 33 57 0 
N 35 80 0 
N 88 99 0 
N 47 83 0 
N 68 94 0 
N 19 16 0 
N 12 55 0 
N 39 97 0 
N 0 86 0 
N 5 78 0 
N 43 60 0 
N 63 10 0 
N 11 97 0 
N 44 93 0 
N 47 44 0 
N 8 63 0 
N 48 54 0 
N 48 3 0 
N 57 45 0 
N 41 47 0 
N 44 83 0 
N 1 49 0 
N 32 7 0 
N 21 23 0 
N 71 98 0 
N 31 56 0 
N 73 76 0 
N 91 71 0 
N 31 57 0 
N 93 47 0 
N 34 1 0 
N 85 12 0 
N 28 23 0 
N 42 28 0 
N 35 44 0 
N 31 10 0 
N 28 33 0 
N 62 76 0 
N 33 67 0 
N 15 96 0 
N 3 94 0 
N 69 16 0 
N 93 12 0 
N 59 66 0 
N 35 88 0 
N 70 50 0 
N 59 58 0 
N 71 87 0 
N 90 67 0 
N 58 35 0 
N 85 10 0 
N 9 59 0 
N 55 40 0 
N 7 34 0 
N 62 9 0 
N 55 52 0 
N 21 54 0 
N 34 71 0 
N 98 54 0 
N 87 91 0 
N 75 59 0 
N 4 52 0 
N 41 12 0 
N 35 21 0 
N 3 4 0 
N 51 47 0 
N 97 58 0 
N 53 4 0 
N 35 51 0 
N 27 22 0 
N 91 36 0 
N 80 76 0 
N 5 96 0 
N 35 87 0 
N 43 6 0 
N 7 45 0 
N 3 12 0 
N 82 33 0 
N 55 85 0 
N 63 37 0 
N 91 63 0 
N 34 94 0 
N 66 22 0 
N 97 13 0 
N 24 95 0 
N 71 52 0 
N 5 16 0 
N 5 87 0 
N 82 76 0 
N 56 52 0 
N 14 86 0 
N 35 98 0 
N 95 57 0 
N 32 45 0 
N 77 77 0 
N 55 45 0 
N 45 11 0 
N 28 4 0 
N 77 92 0 
N 53 76 0 
N 59 36 0 
N 79 94 0 
N 28 25 0 
N 94 53 0 
N 50 96 0 
N 16 80 0 
N 30 23 0 
N 45 73 0 
N 83 51 0 
N 11 91 0 
N 11 52 0 
N 40 56 0 
N 88 45 0 
N 26 37 0 
N 24 97 0 
N 43 46 0 
N 70 65 0 
N 54 5 0 
N 50 38 0 
N 21 47 0 
N 34 87 0 
N 50 95 0 
N 31 89 0 
N 39 45 0 
N 10 56 0 
N 13 62 0 
N 57 92 0 
N 73 71 0 
N 68 14 0 
N 42 45 0 
N 27 48 0 
N 45 54 0 
N 13 5 0 
N 65 82 0 
N 19 45 0 
N 81 44 0 
N 72 90 0 
N 97 62 0 
N 80 93 0 
N 18 78 0 
N 63 75 0 
N 74 57 0 
N 86 71 0 
N 41 78 0 
N 67 17 0 
N 9 90 0 
N 72 26 0 
N 68 52 0 
N 16 2 0 
N 29 2 0 
N 33 72 0 
N 77 4 0 
N 62 29 0 
N 63 44 0 
N 41 5 0 
N 41 2 0 
N 32 59 0 
N 88 82 0 
N 66 93 0 
N 63 88 0 
N 54 50 0 
N 37 41 0 
N 20 39 0 
N 52 92 0 
N 45 50 0 
N 65 91 0 
N 80 94 0 
N 48 11 0 
N 79 1 0 
N 60 73 0 
N 18 37 0 
N 29 68 0 
N 14 15 0 
N 93 46 0 
N 43 51 0 
N 33 56 0 
N 20 96 0 
N 42 53 0 
N 86 67 0 
N 93 27 0 
N 1 42 0 
N 58 58 0 
N 24 67 0 
N 46 41 0 
N 2 4 0 
N 20 16 0 
N 68 36 0 
N 95 84 0 
N 69 78 0 
N 52 98 0 
N 39 88 0 
N 65 67 0 
N 94 22 0 
N 40 45 0 
N 73 35 0 
N 73 89 0 
N 93 75 0 
N 87 1 0 
N 37 50 0 
N 58 16 0 
N 9 71 0 
N 38 69 0 
N 34 47 0 
N 81 21 0 
N 45 49 0 
N 37 85 0 
N 26 39 0 
N 60 55 0 
N 84 80 0 
N 18 30 0 
N 64 40 0 
N 26 84 0 
N 65 97 0 
N 33 37 0 
N 42 76 0 
N 6 56 0 
N 3 73 0 
N 23 57 0 
N 50 89 0 
N 18 57 0 
N 62 74 0 
N 32 32 0 
N 47 68 0 
N 57 94 0 
N 9 83 0 
N 61 43 0 
N 24 37 0 
N 38 39 0 
N 82 17 0 
N 94 88 0 
N 22 63 0 
N 80 16 0 
N 82 13 0 
N 56 72 0 
N 78 8 0 
N 83 77 0 
N 27 3 0 
N 51 4 0 
N 53 13 0 
N 68 69 0 
N 94 23 0 
N 32 0 0 
N 88 9 0 
N 10 62 0 
N 30 72 0 
N 88 80 0 
N 98 83 0 
N 28 92 0 
N 95 2 0 
N 66 79 0 
N 75 73 0 
N 88 30 0 
N 67 44 0 
N 63 69 0 
N 8 67 0 
N 7 23 0 
N 68 87 0 
N 15 57 0 
N 63 18 0 
N 75 51 0 
N 96 63 0 
N 54 24 0 
N 12 79 0 
N 77 3 0 
N 19 4 0 
N 29 64 0 
N 0 82 0 
N 9 32 0 
N 92 32 0 
N 54 14 0 
N 87 63 0 
N 97 53 0 
N 70 93 0 
N 25 90 0 
N 18 75 0 
N 16 71 0 
N 18 8 0 
N 82 65 0 
N 85 14 0 
N 38 32 0 
N 62 98 0 
N 86 55 0 
N 91 33 0 
N 3 53 0 
N 94 24 0 
N 79 45 0 
N 22 80 0 
N 40 66 0 
N 64 56 0 
N 58 73 0 
N 96 94 0 
N 14 38 0 
N 22 33 0 
N 22 2 0 
N 52 48 0 
N 44 96 0 
N 51 3 0 
N 43 89 0 
N 64 7 0 
N 33 85 0 
N 97 85 0 
N 43 66 0 
N 97 8 0 
N 39 91 0 
N 91 14 0 
N 3 29 0 
N 66 45 0 
N 70 5 0 
N 52 27 0 
N 92 10 0 
N 97 79 0 
N 45 40 0 
N 87 38 0 
N 69 30 0 
N 53 91 0 
N 52 22 0 
N 6 58 0 
N 87 13 0 
N 80 73 0 
N 42 57 0 
N 57 61 0 
N 51 65 0 
N 2 51 0 
N 53 14 0 
N 76 94 0 
N 6 60 0 
N 72 57 0 
N 0 77 0 
N 22 25 0 
N 50 70 0 
N 68 10 0 
N 17 82 0 
N 24 83 0 
N 88 89 0 
N 95 20 0 
N 4 78 0 
N 85 30 0 
N 67 97 0 
N 68 55 0 
N 84 53 0 
N 11 54 0 
N 34 98 0 
N 38 43 0 
N 85 3 0 
N 61 52 0 
N 15 61 0 
N 33 89 0 
N 89 0 0 
N 71 50 0 
N 77 99 0 
N 36 72 0 
N 16 87 0 
N 91 81 0 
N 8 1 0 
N 17 81 0 
N 80 62 0 
N 84 20 0 
N 99 6 0 
N 97 31 0 
N 17 8 0 
N 66 87 0 
N 30 48 0 
N 38 0 0 
N 70 80 0 
N 30 11 0 
N 45 90 0 
N 38 89 0 
N 25 60 0 
N 46 29 0 
N 24 44 0 
N 19 2 0 
N 29 38 0 
N 24 35 0 
N 51 22 0 
N 49 98 0 
N 65 88 0 
N 8 87 0 
N 3 52 0 
N 30 12 0 
N 26 76 0 
N 1 5 0 
N 55 44 0 
N 17 31 0 
N 31 88 0 
N 94 5 0 
N 71 43 0 
N 85 82 0 
N 86 1 0 
N 1 9 0 
N 58 38 0 
N 69 40 0 
N 82 43 0 
N 29 93 0 
N 85 16 0 
N 61 58 0 
N 51 91 0 
N 2 60 0 
N 56 16 0 
N 76 64 0 
N 1 44 0 
N 1 15 0 
N 39 57 0 
N 0 51 0 
N 97 28 0 
N 86 41 0 
N 18 1 0 
N 63 63 0 
N 10 65 0 
N 64 28 0 
N 99 10 0 
N 93 19 0 
N 78 97 0 
O 60 72 0 
501
Atoms. Timestep: 5
N 72 39 0 
N 17 86 0 
N 58 84 0 
N 97 75 0 
N 45 43 0 
N 6 73 0 
N 87 35 0 
N 32 12 0 
N 17 13 0 
N 29 7 0 
N 82 64 0 
N 14 88 0 
N 95 98 0 
N 14 57 0 
N 48 68 0 
N 70 85 0 
N 94 56 0 
N 49 27 0 
N 9 52 0 
N 47 73 0 
N 96 4 0 
N 85 61 0 
N 2 23 0 
N 10 26 0 
N 44 3 0 
N 73 32 0 
N 40 69 0 
N 48 0 0 
N 26 23 0 
N 96 39 0 
N 10 3 0 
N 36 24 0 
N 93 36 0 
N 15 9 0 
N 13 74 0 
N 5 69 0 
N 68 66 0 
N 14 1 0 
N 37 68 0 
N 94 7 0 
N 68 86 0 
N 32 52 0 
N 88 32 0 
N 18 79 0 
N 89 42 0 
N 97 18 0 
N 96 83 0 
N 81 84 0 
N 45 99 0 
N 16 38 0 
N 90 24 0 
N 92 67 0 
N 24 24 0 
N 23 89 0 
N 13 72 0 
N 41 92 0 
N 14 38 0 
N 67 90 0 
N 33 30 0 
N 9 68 0 
N 44 17 0 
N 45 66 0 
N 55 55 0 
N 4 54 0 
N 70 59 0 
N 53 85 0 
N 3 59 0 
N 30 44 0 
N 35 98 0 
N 34 77 0 
N 75 51 0 
N 82 28 0 
N 83 11 0 
N 19 49 0 
N 50 12 0 
N 38 62 0 
N 38 49 0 
N 57 57 0 
N 12 2 0 
N 35 61 0 
N 31 37 0 
N 57 77 0 
N 73 58 0 
N 84 37 0 
N 74 49 0 
N 34 4 0 
N 62 87 0 
N 79 22 0 
N 33 56 0 
N 34 80 0 
N 87 99 0 
N 47 82 0 
N 68 93 0 
N 20 16 0 
N 13 55 0 
N 40 97 0 
N 1 86 0 
N 5 79 0 
N 44 60 0 
N 63 11 0 
N 11 96 0 
N 45 93 0 
N 47 43 0 
N 8 62 0 
N 48 53 0 
N 48 2 0 
N 57 46 0 
N 40 47 0 
N 44 84 0 
N 2 49 0 
N 33 7 0 
N 20 23 0 
N 70 98 0 
N 31 55 0 
N 73 75 0 
N 91 70 0 
N 31 58 0 
N 93 46 0 
N 34 0 0 
N 85 13 0 
N 28 22 0 
N 41 28 0 
N 36 44 0 
N 32 10 0 
N 27 33 0 
N 61 76 0 
N 34 67 0 
N 14 96 0 
N 3 95 0 
N 69 17 0 
N 93 13 0 
N 60 66 0 
N 35 87 0 
N 71 50 0 
N 58 58 0 
N 70 87 0 
N 91 67 0 
N 58 34 0 
N 85 11 0 
N 9 60 0 
N 56 40 0 
N 6 34 0 
N 61 9 0 
N 56 52 0 
N 20 54 0 
N 35 71 0 
N 98 55 0 
N 86 91 0 
N 75 60 0 
N 3 52 0 
N 40 12 0 
N 34 21 0 
N 3 5 0 
N 51 48 0 
N 97 59 0 
N 52 4 0 
N 35 52 0 
N 27 23 0 
N 91 35 0 
N 80 77 0 
N 4 96 0 
N 36 87 0 
N 44 6 0 
N 7 46 0 
N 4 12 0 
N 83 33 0 
N 55 86 0 
N 62 37 0 
N 91 64 0 
N 35 94 0 
N 65 22 0 
N 98 13 0 
N 23 95 0 
N 71 53 0 
N 4 16 0 
N 6 87 0 
N 82 75 0 
N 56 53 0 
N 15 86 0 
N 35 97 0 
N 95 56 0 
N 32 46 0 
N 77 78 0 
N 55 46 0 
N 45 10 0 
N 29 4 0 
N 77 91 0 
N 52 76 0 
N 58 36 0 
N 78 94 0 
N 28 24 0 
N 94 52 0 
N 50 95 0 
N 15 80 0 
N 29 23 0 
N 46 73 0 
N 83 50 0 
N 12 91 0 
N 12 52 0 
N 40 55 0 
N 89 45 0 
N 27 37 0 
N 25 97 0 
N 44 46 0 
N 69 65 0 
N 54 6 0 
N 50 37 0 
N 20 47 0 
N 34 86 0 
N 49 95 0 
N 31 88 0 
N 39 44 0 
N 10 57 0 
N 12 62 0 
N 56 92 0 
N 74 71 0 
N 68 13 0 
N 42 46 0 
N 28 48 0 
N 44 54 0 
N 13 4 0 
N 64 82 0 
N 19 46 0 
N 81 45 0 
N 72 89 0 
N 98 62 0 
N 80 94 0 
N 17 78 0 
N 63 76 0 
N 74 56 0 
N 86 72 0 
N 40 78 0 
N 66 17 0 
N 8 90 0 
N 71 26 0 
N 68 51 0 
N 17 2 0 
N 29 1 0 
N 33 71 0 
N 76 4 0 
N 62 28 0 
N 64 44 0 
N 42 5 0 
N 42 2 0 
N 31 59 0 
N 89 82 0 
N 65 93 0 
N 63 87 0 
N 54 51 0 
N 36 41 0 
N 19 39 0 
N 53 92 0 
N 46 50 0 
N 66 91 0 
N 80 95 0 
N 49 11 0 
N 80 1 0 
N 60 74 0 
N 18 36 0 
N 29 69 0 
N 13 15 0 
N 94 46 0 
N 44 51 0 
N 33 55 0 
N 20 97 0 
N 42 52 0 
N 86 68 0 
N 92 27 0 
N 1 41 0 
N 58 59 0 
N 25 67 0 
N 46 40 0 
N 1 4 0 
N 21 16 0 
N 68 35 0 
N 95 83 0 
N 69 77 0 
N 52 99 0 
N 40 88 0 
N 64 67 0 
N 95 22 0 
N 41 45 0 
N 73 34 0 
N 73 90 0 
N 92 75 0 
N 87 2 0 
N 37 51 0 
N 58 15 0 
N 8 71 0 
N 39 69 0 
N 33 47 0 
N 82 21 0 
N 46 49 0 
N 38 85 0 
N 26 40 0 
N 61 55 0 
N 83 80 0 
N 18 31 0 
N 64 39 0 
N 27 84 0 
N 65 98 0 
N 32 37 0 
N 42 75 0 
N 6 55 0 
N 3 72 0 
N 23 56 0 
N 49 89 0 
N 19 57 0 
N 62 75 0 
N 32 31 0 
N 46 68 0 
N 58 94 0 
N 9 82 0 
N 61 44 0 
N 23 37 0 
N 37 39 0 
N 82 16 0 
N 94 89 0 
N 22 62 0 
N 81 16 0 
N 82 14 0 
N 56 73 0 
N 78 7 0 
N 82 77 0 
N 27 2 0 
N 51 5 0 
N 53 12 0 
N 69 69 0 
N 95 23 0 
N 32 99 0 
N 89 9 0 
N 10 63 0 
N 31 72 0 
N 87 80 0 
N 98 82 0 
N 27 92 0 
N 94 2 0 
N 66 78 0 
N 75 72 0 
N 88 31 0 
N 68 44 0 
N 62 69 0 
N 9 67 0 
N 8 23 0 
N 69 87 0 
N 15 56 0 
N 63 17 0 
N 75 50 0 
N 97 63 0 
N 53 24 0 
N 12 78 0 
N 77 2 0 
N 19 5 0 
N 29 63 0 
N 1 82 0 
N 10 32 0 
N 93 32 0 
N 54 15 0 
N 87 64 0 
N 96 53 0 
N 71 93 0 
N 25 91 0 
N 18 74 0 
N 16 72 0 
N 18 7 0 
N 83 65 0 
N 84 14 0 
N 39 32 0 
N 62 97 0 
N 85 55 0 
N 90 33 0 
N 3 54 0 
N 94 25 0 
N 79 46 0 
N 21 80 0 
N 41 66 0 
N 65 56 0 
N 58 74 0 
N 96 93 0 
N 14 39 0 
N 23 33 0 
N 22 3 0 
N 52 49 0 
N 44 95 0 
N 52 3 0 
N 43 90 0 
N 63 7 0 
N 32 85 0 
N 96 85 0 
N 43 67 0 
N 98 8 0 
N 40 91 0 
N 91 15 0 
N 3 28 0 
N 66 44 0 
N 70 4 0 
N 52 28 0 
N 92 9 0 
N 97 78 0 
N 45 41 0 
N 87 37 0 
N 70 30 0 
N 52 91 0 
N 51 22 0 
N 6 57 0 
N 88 13 0 
N 81 73 0 
N 42 56 0 
N 56 61 0 
N 50 65 0 
N 1 51 0 
N 52 14 0 
N 76 93 0 
N 5 60 0 
N 73 57 0 
N 0 78 0 
N 21 25 0 
N 50 71 0 
N 67 10 0 
N 17 81 0 
N 24 84 0 
N 87 89 0 
N 95 21 0 
N 3 78 0 
N 84 30 0 
N 68 97 0 
N 68 56 0 
N 84 52 0 
N 12 54 0 
N 34 99 0 
N 37 43 0 
N 86 3 0 
N 60 52 0 
N 15 60 0 
N 33 90 0 
N 89 1 0 
N 71 51 0 
N 78 99 0 
N 36 71 0 
N 15 87 0 
N 91 80 0 
N 7 1 0 
N 17 80 0 
N 80 61 0 
N 83 20 0 
N 99 7 0 
N 97 32 0 
N 16 8 0 
N 66 86 0 
N 31 48 0 
N 37 0 0 
N 70 79 0 
N 29 11 0 
N 46 90 0 
N 39 89 0 
N 26 60 0 
N 46 28 0 
N 24 45 0 
N 20 2 0 
N 28 38 0 
N 24 36 0 
N 50 22 0 
N 48 98 0 
N 64 88 0 
N 9 87 0 
N 2 52 0 
N 30 13 0 
N 27 76 0 
N 2 5 0 
N 56 44 0 
N 16 31 0 
N 30 88 0 
N 94 4 0 
N 70 43 0 
N 86 82 0 
N 86 2 0 
N 2 9 0 
N 57 38 0 
N 69 39 0 
N 81 43 0 
N 29 94 0 
N 85 17 0 
N 61 57 0 
N 51 92 0 
N 3 60 0 
N 56 15 0 
N 76 63 0 
N 2 44 0 
N 1 16 0 
N 39 56 0 
N 99 51 0 
N 97 27 0 
N 86 40 0 
N 19 1 0 
N 63 64 0 
N 9 65 0 
N 65 28 0 
N 98 10 0 
N 93 18 0 
N 78 98 0 
O 60 73 0 
501
Atoms. Timestep: 6
N 72 40 0 
N 17 85 0 
N 57 84 0 
N 97 76 0 
N 45 42 0 
N 6 74 0 
N 87 36 0 
N 33 12 0 
N 16 13 0 
N 29 8 0 
N 81 64 0 
N 14 87 0 
N 95 99 0 
N 13 57 0 
N 49 68 0 
N 70 86 0 
N 93 56 0 
N 48 27 0 
N 10 52 0 
N 48 73 0 
N 97 4 0 
N 86 61 0 
N 1 23 0 
N 10 27 0 
N 43 3 0 
N 74 32 0 
N 41 69 0 
N 49 0 0 
N 26 22 0 
N 96 38 0 
N 9 3 0 
N 37 24 0 
N 92 36 0 
N 15 10 0 
N 13 73 0 
N 5 68 0 
N 69 66 0 
N 15 1 0 
N 37 67 0 
N 94 8 0 
N 67 86 0 
N 32 51 0 
N 88 31 0 
N 18 78 0 
N 89 41 0 
N 96 18 0 
N 96 82 0 
N 81 83 0 
N 44 99 0 
N 17 38 0 
N 90 25 0 
N 91 67 0 
N 23 24 0 
N 23 88 0 
N 13 71 0 
N 41 91 0 
N 14 39 0 
N 66 90 0 
N 34 30 0 
N 8 68 0 
N 44 16 0 
N 44 66 0 
N 54 55 0 
N 5 54 0 
N 69 59 0 
N 53 86 0 
N 3 60 0 
N 30 43 0 
N 35 99 0 
N 33 77 0 
N 75 50 0 
N 82 29 0 
N 83 10 0 
N 19 48 0 
N 50 13 0 
N 39 62 0 
N 38 48 0 
N 57 56 0 
N 12 3 0 
N 36 61 0 
N 31 38 0 
N 56 77 0 
N 72 58 0 
N 84 36 0 
N 73 49 0 
N 34 3 0 
N 63 87 0 
N 79 23 0 
N 33 55 0 
N 34 81 0 
N 87 98 0 
N 48 82 0 
N 68 92 0 
N 19 16 0 
N 13 56 0 
N 41 97 0 
N 1 85 0 
N 5 78 0 
N 44 61 0 
N 62 11 0 
N 11 95 0 
N 44 93 0 
N 47 44 0 
N 7 62 0 
N 48 52 0 
N 48 3 0 
N 58 46 0 
N 40 48 0 
N 45 84 0 
N 1 49 0 
N 33 6 0 
N 20 24 0 
N 70 97 0 
N 30 55 0 
N 73 76 0 
N 91 69 0 
N 32 58 0 
N 93 47 0 
N 34 1 0 
N 85 14 0 
N 28 21 0 
N 41 29 0 
N 36 45 0 
N 32 11 0 
N 28 33 0 
N 61 77 0 
N 34 66 0 
N 14 95 0 
N 2 95 0 
N 69 18 0 
N 93 12 0 
N 60 67 0 
N 34 87 0 
N 71 51 0 
N 58 59 0 
N 70 88 0 
N 90 67 0 
N 59 34 0 
N 84 11 0 
N 10 60 0 
N 56 41 0 
N 5 34 0 
N 62 9 0 
N 56 51 0 
N 21 54 0 
N 35 70 0 
N 97 55 0 
N 86 92 0 
N 75 59 0 
N 3 53 0 
N 39 12 0 
N 35 21 0 
N 2 5 0 
N 51 49 0 
N 98 59 0 
N 52 5 0 
N 34 52 0 
N 27 22 0 
N 90 35 0 
N 81 77 0 
N 4 97 0 
N 36 86 0 
N 44 5 0 
N 8 46 0 
N 3 12 0 
N 84 33 0 
N 55 87 0 
N 61 37 0 
N 90 64 0 
N 34 94 0 
N 65 23 0 
N 99 13 0 
N 23 96 0 
N 71 54 0 
N 5 16 0 
N 7 87 0 
N 83 75 0 
N 56 54 0 
N 14 86 0 
N 36 97 0 
N 96 56 0 
N 31 46 0 
N 77 79 0 
N 54 46 0 
N 44 10 0 
N 28 4 0 
N 77 92 0 
N 52 77 0 
N 58 35 0 
N 78 95 0 
N 28 25 0 
N 95 52 0 
N 49 95 0 
N 15 81 0 
N 28 23 0 
N 45 73 0 
N 83 49 0 
N 13 91 0 
N 13 52 0 
N 40 56 0 
N 90 45 0 
N 26 37 0 
N 25 98 0 
N 45 46 0 
N 70 65 0 
N 54 5 0 
N 50 36 0 
N 20 46 0 
N 34 85 0 
N 48 95 0 
N 32 88 0 
N 40 44 0 
N 10 58 0 
N 12 63 0 
N 56 91 0 
N 73 71 0 
N 67 13 0 
N 43 46 0 
N 28 49 0 
N 43 54 0 
N 13 5 0 
N 63 82 0 
N 19 45 0 
N 82 45 0 
N 71 89 0 
N 97 62 0 
N 79 94 0 
N 16 78 0 
N 63 77 0 
N 74 57 0 
N 86 73 0 
N 41 78 0 
N 66 16 0 
N 7 90 0 
N 71 27 0 
N 68 52 0 
N 16 2 0 
N 29 0 0 
N 33 70 0 
N 75 4 0 
N 61 28 0 
N 64 43 0 
N 42 6 0 
N 41 2 0 
N 30 59 0 
N 89 83 0 
N 65 92 0 
N 63 86 0 
N 54 52 0 
N 37 41 0 
N 18 39 0 
N 54 92 0 
N 46 51 0 
N 67 91 0 
N 80 96 0 
N 49 10 0 
N 79 1 0 
N 61 74 0 
N 18 35 0 
N 30 69 0 
N 13 16 0 
N 94 45 0 
N 45 51 0 
N 34 55 0 
N 20 96 0 
N 43 52 0 
N 85 68 0 
N 91 27 0 
N 1 42 0 
N 58 60 0 
N 24 67 0 
N 47 40 0 
N 0 4 0 
N 21 15 0 
N 68 34 0 
N 94 83 0 
N 69 78 0 
N 52 98 0 
N 39 88 0 
N 64 66 0 
N 95 21 0 
N 42 45 0 
N 73 35 0 
N 72 90 0 
N 91 75 0 
N 86 2 0 
N 36 51 0 
N 57 15 0 
N 7 71 0 
N 38 69 0 
N 32 47 0 
N 82 22 0 
N 46 48 0 
N 39 85 0 
N 27 40 0 
N 61 56 0 
N 84 80 0 
N 19 31 0 
N 64 40 0 
N 27 83 0 
N 65 97 0 
N 33 37 0 
N 43 75 0 
N 5 55 0 
N 3 71 0 
N 24 56 0 
N 50 89 0 
N 18 57 0 
N 62 76 0 
N 33 31 0 
N 46 69 0 
N 57 94 0 
N 9 83 0 
N 61 43 0 
N 23 38 0 
N 38 39 0 
N 81 16 0 
N 94 88 0 
N 22 63 0 
N 81 17 0 
N 82 15 0 
N 56 72 0 
N 78 6 0 
N 82 78 0 
N 26 2 0 
N 50 5 0 
N 53 13 0 
N 68 69 0 
N 94 23 0 
N 31 99 0 
N 88 9 0 
N 10 62 0 
N 32 72 0 
N 88 80 0 
N 97 82 0 
N 27 91 0 
N 94 3 0 
N 66 77 0 
N 74 72 0 
N 89 31 0 
N 68 45 0 
N 63 69 0 
N 10 67 0 
N 8 22 0 
N 68 87 0 
N 15 57 0 
N 63 18 0 
N 75 49 0 
N 98 63 0 
N 52 24 0 
N 11 78 0 
N 78 2 0 
N 19 4 0 
N 29 64 0 
N 0 82 0 
N 9 32 0 
N 94 32 0 
N 55 15 0 
N 88 64 0 
N 95 53 0 
N 71 92 0 
N 25 90 0 
N 18 75 0 
N 15 72 0 
N 18 8 0 
N 84 65 0 
N 84 13 0 
N 40 32 0 
N 61 97 0 
N 86 55 0 
N 90 32 0 
N 2 54 0 
N 94 24 0 
N 79 47 0 
N 21 79 0 
N 41 67 0 
N 64 56 0 
N 57 74 0 
N 97 93 0 
N 15 39 0 
N 23 34 0 
N 22 2 0 
N 52 48 0 
N 43 95 0 
N 51 3 0 
N 44 90 0 
N 63 6 0 
N 32 86 0 
N 97 85 0 
N 42 67 0 
N 98 9 0 
N 40 92 0 
N 90 15 0 
N 3 29 0 
N 66 45 0 
N 71 4 0 
N 52 29 0 
N 92 10 0 
N 98 78 0 
N 45 40 0 
N 86 37 0 
N 70 29 0 
N 52 90 0 
N 50 22 0 
N 7 57 0 
N 88 12 0 
N 81 74 0 
N 41 56 0 
N 56 62 0 
N 50 64 0 
N 1 50 0 
N 52 15 0 
N 76 92 0 
N 4 60 0 
N 73 56 0 
N 0 79 0 
N 21 24 0 
N 51 71 0 
N 68 10 0 
N 18 81 0 
N 24 83 0 
N 87 90 0 
N 96 21 0 
N 3 79 0 
N 84 29 0 
N 68 96 0 
N 68 55 0 
N 84 53 0 
N 11 54 0 
N 33 99 0 
N 37 44 0 
N 85 3 0 
N 60 51 0 
N 15 61 0 
N 34 90 0 
N 89 0 0 
N 72 51 0 
N 78 0 0 
N 37 71 0 
N 15 88 0 
N 91 79 0 
N 8 1 0 
N 18 80 0 
N 80 60 0 
N 82 20 0 
N 98 7 0 
N 98 32 0 
N 16 7 0 
N 65 86 0 
N 32 48 0 
N 36 0 0 
N 71 79 0 
N 28 11 0 
N 45 90 0 
N 38 89 0 
N 26 59 0 
N 46 27 0 
N 23 45 0 
N 20 1 0 
N 28 37 0 
N 23 36 0 
N 50 23 0 
N 49 98 0 
N 63 88 0 
N 9 88 0 
N 2 53 0 
N 29 13 0 
N 28 76 0 
N 1 5 0 
N 56 45 0 
N 15 31 0 
N 30 87 0 
N 95 4 0 
N 69 43 0 
N 85 82 0 
N 85 2 0 
N 2 10 0 
N 58 38 0 
N 69 38 0 
N 82 43 0 
N 29 93 0 
N 85 16 0 
N 61 58 0 
N 51 91 0 
N 2 60 0 
N 56 16 0 
N 75 63 0 
N 3 44 0 
N 1 15 0 
N 39 57 0 
N 0 51 0 
N 97 26 0 
N 86 39 0 
N 19 0 0 
N 63 65 0 
N 8 65 0 
N 64 28 0 
N 98 11 0 
N 93 19 0 
N 77 98 0 
O 59 73 0 
501
Atoms. Timestep: 7
N 72 41 0 
N 18 85 0 
N 58 84 0 
N 98 76 0 
N 46 42 0 
N 7 74 0 
N 86 36 0 
N 32 12 0 
N 17 13 0 
N 29 9 0 
N 80 64 0 
N 15 87 0 
N 96 99 0 
N 12 57 0 
N 49 67 0 
N 69 86 0 
N 93 55 0 
N 49 27 0 
N 11 52 0 
N 48 74 0 
N 98 4 0 
N 87 61 0 
N 1 22 0 
N 10 26 0 
N 43 2 0 
N 74 31 0 
N 40 69 0 
N 49 99 0 
N 25 22 0 
N 96 37 0 
N 9 4 0 
N 37 23 0 
N 93 36 0 
N 14 10 0 
N 12 73 0 
N 4 68 0 
N 69 65 0 
N 15 0 0 
N 37 66 0 
N 93 8 0 
N 68 86 0 
N 33 51 0 
N 88 30 0 
N 18 79 0 
N 90 41 0 
N 95 18 0 
N 95 82 0 
N 80 83 0 
N 44 98 0 
N 17 37 0 
N 90 24 0 
N 90 67 0 
N 22 24 0 
N 23 87 0 
N 13 70 0 
N 42 91 0 
N 15 39 0 
N 65 90 0 
N 33 30 0 
N 8 69 0 
N 43 16 0 
N 44 67 0 
N 54 56 0 
N 6 54 0 
N 69 60 0 
N 52 86 0 
N 3 61 0 
N 29 43 0 
N 36 99 0 
N 33 78 0 
N 76 50 0 
N 82 28 0 
N 83 9 0 
N 19 49 0 
N 50 14 0 
N 39 63 0 
N 39 48 0 
N 58 56 0 
N 12 2 0 
N 35 61 0 
N 32 38 0 
N 57 77 0 
N 71 58 0 
N 83 36 0 
N 72 49 0 
N 34 4 0 
N 62 87 0 
N 79 22 0 
N 32 55 0 
N 34 80 0 
N 87 97 0 
N 49 82 0 
N 68 91 0 
N 19 15 0 
N 12 56 0 
N 42 97 0 
N 1 86 0 
N 5 77 0 
N 43 61 0 
N 61 11 0 
N 12 95 0 
N 45 93 0 
N 48 44 0 
N 7 61 0 
N 48 53 0 
N 48 2 0 
N 59 46 0 
N 41 48 0 
N 45 83 0 
N 1 48 0 
N 33 5 0 
N 19 24 0 
N 69 97 0 
N 31 55 0 
N 72 76 0 
N 92 69 0 
N 32 59 0 
N 92 47 0 
N 34 0 0 
N 85 13 0 
N 28 20 0 
N 40 29 0 
N 36 44 0 
N 33 11 0 
N 29 33 0 
N 60 77 0 
N 34 67 0 
N 13 95 0 
N 3 95 0 
N 68 18 0 
N 92 12 0 
N 59 67 0 
N 35 87 0 
N 70 51 0 
N 57 59 0 
N 69 88 0 
N 89 67 0 
N 60 34 0 
N 85 11 0 
N 11 60 0 
N 57 41 0 
N 5 33 0 
N 61 9 0 
N 56 52 0 
N 22 54 0 
N 35 69 0 
N 97 56 0 
N 85 92 0 
N 76 59 0 
N 3 52 0 
N 39 11 0 
N 34 21 0 
N 1 5 0 
N 50 49 0 
N 99 59 0 
N 52 6 0 
N 34 53 0 
N 27 21 0 
N 90 34 0 
N 81 78 0 
N 5 97 0 
N 37 86 0 
N 44 4 0 
N 9 46 0 
N 2 12 0 
N 84 32 0 
N 55 86 0 
N 61 36 0 
N 90 65 0 
N 33 94 0 
N 65 22 0 
N 98 13 0 
N 23 95 0 
N 70 54 0 
N 5 17 0 
N 8 87 0 
N 83 74 0 
N 55 54 0 
N 14 85 0 
N 37 97 0 
N 96 55 0 
N 32 46 0 
N 78 79 0 
N 55 46 0 
N 43 10 0 
N 28 5 0 
N 78 92 0 
N 52 76 0 
N 58 36 0 
N 79 95 0 
N 28 26 0 
N 95 53 0 
N 50 95 0 
N 15 82 0 
N 27 23 0 
N 46 73 0 
N 84 49 0 
N 13 90 0 
N 12 52 0 
N 40 57 0 
N 90 44 0 
N 26 36 0 
N 24 98 0 
N 45 47 0 
N 70 66 0 
N 54 6 0 
N 50 35 0 
N 20 47 0 
N 34 84 0 
N 48 94 0 
N 32 87 0 
N 39 44 0 
N 10 59 0 
N 11 63 0 
N 57 91 0 
N 73 72 0 
N 67 12 0 
N 43 47 0 
N 27 49 0 
N 42 54 0 
N 13 4 0 
N 63 83 0 
N 20 45 0 
N 83 45 0 
N 72 89 0 
N 96 62 0 
N 79 93 0 
N 17 78 0 
N 62 77 0 
N 75 57 0 
N 87 73 0 
N 41 79 0 
N 66 17 0 
N 6 90 0 
N 72 27 0 
N 68 53 0 
N 16 3 0 
N 30 0 0 
N 33 69 0 
N 76 4 0 
N 62 28 0 
N 65 43 0 
N 43 6 0 
N 42 2 0 
N 30 60 0 
N 89 84 0 
N 65 91 0 
N 62 86 0 
N 55 52 0 
N 37 42 0 
N 17 39 0 
N 54 91 0 
N 47 51 0 
N 67 92 0 
N 79 96 0 
N 50 10 0 
N 79 2 0 
N 61 73 0 
N 18 34 0 
N 30 70 0 
N 13 17 0 
N 94 44 0 
N 44 51 0 
N 35 55 0 
N 20 95 0 
N 43 51 0 
N 85 67 0 
N 92 27 0 
N 1 41 0 
N 59 60 0 
N 23 67 0 
N 47 41 0 
N 99 4 0 
N 21 16 0 
N 67 34 0 
N 94 82 0 
N 69 77 0 
N 53 98 0 
N 40 88 0 
N 64 65 0 
N 96 21 0 
N 42 44 0 
N 73 34 0 
N 72 91 0 
N 91 76 0 
N 87 2 0 
N 35 51 0 
N 57 16 0 
N 8 71 0 
N 38 68 0 
N 33 47 0 
N 82 23 0 
N 46 47 0 
N 39 84 0 
N 26 40 0 
N 60 56 0 
N 84 81 0 
N 18 31 0 
N 64 41 0 
N 27 82 0 
N 65 96 0 
N 34 37 0 
N 43 74 0 
N 5 56 0 
N 4 71 0 
N 24 55 0 
N 49 89 0 
N 17 57 0 
N 61 76 0 
N 34 31 0 
N 46 68 0 
N 56 94 0 
N 9 84 0 
N 62 43 0 
N 22 38 0 
N 38 40 0 
N 81 17 0 
N 94 87 0 
N 23 63 0 
N 80 17 0 
N 82 14 0 
N 55 72 0 
N 79 6 0 
N 82 77 0 
N 26 3 0 
N 51 5 0 
N 53 14 0 
N 69 69 0 
N 95 23 0 
N 31 0 0 
N 88 8 0 
N 10 61 0 
N 32 71 0 
N 88 81 0 
N 97 83 0 
N 26 91 0 
N 95 3 0 
N 65 77 0 
N 75 72 0 
N 89 30 0 
N 68 44 0 
N 63 70 0 
N 9 67 0 
N 8 21 0 
N 67 87 0 
N 16 57 0 
N 64 18 0 
N 74 49 0 
N 98 64 0 
N 53 24 0 
N 12 78 0 
N 77 2 0 
N 20 4 0 
N 30 64 0 
N 1 82 0 
N 10 32 0 
N 95 32 0 
N 55 16 0 
N 87 64 0 
N 96 53 0 
N 71 91 0 
N 25 89 0 
N 18 74 0 
N 15 73 0 
N 19 8 0 
N 83 65 0 
N 83 13 0 
N 39 32 0 
N 61 96 0 
N 87 55 0 
N 90 31 0 
N 2 55 0 
N 93 24 0 
N 79 46 0 
N 21 78 0 
N 40 67 0 
N 65 56 0 
N 57 75 0 
N 97 94 0 
N 16 39 0 
N 23 33 0 
N 22 3 0 
N 51 48 0 
N 42 95 0 
N 51 4 0 
N 45 90 0 
N 63 5 0 
N 31 86 0 
N 97 86 0 
N 42 66 0 
N 98 10 0 
N 40 93 0 
N 90 16 0 
N 3 30 0 
N 66 46 0 
N 71 3 0 
N 51 29 0 
N 91 10 0 
N 98 79 0 
N 45 41 0 
N 85 37 0 
N 70 28 0 
N 53 90 0 
N 50 23 0 
N 7 58 0 
N 87 12 0 
N 80 74 0 
N 42 56 0 
N 56 61 0 
N 50 63 0 
N 1 51 0 
N 51 15 0 
N 76 91 0 
N 5 60 0 
N 73 57 0 
N 99 79 0 
N 21 25 0 
N 51 72 0 
N 67 10 0 
N 18 80 0 
N 24 82 0 
N 87 91 0 
N 96 22 0 
N 4 79 0 
N 84 30 0 
N 69 96 0 
N 69 55 0 
N 83 53 0 
N 12 54 0 
N 33 98 0 
N 37 45 0 
N 86 3 0 
N 61 51 0 
N 15 60 0 
N 34 89 0 
N 90 0 0 
N 72 52 0 
N 79 0 0 
N 37 70 0 
N 16 88 0 
N 91 80 0 
N 7 1 0 
N 19 80 0 
N 81 60 0 
N 82 21 0 
N 98 8 0 
N 99 32 0 
N 17 7 0 
N 66 86 0 
N 31 48 0 
N 35 0 0 
N 71 80 0 
N 28 12 0 
N 45 91 0 
N 39 89 0 
N 26 60 0 
N 45 27 0 
N 23 44 0 
N 21 1 0 
N 29 37 0 
N 23 35 0 
N 49 23 0 
N 49 97 0 
N 62 88 0 
N 9 87 0 
N 2 52 0 
N 29 14 0 
N 27 76 0 
N 1 6 0 
N 56 46 0 
N 16 31 0 
N 30 86 0 
N 94 4 0 
N 68 43 0 
N 86 82 0 
N 85 1 0 
N 2 9 0 
N 57 38 0 
N 69 37 0 
N 82 42 0 
N 28 93 0 
N 86 16 0 
N 61 57 0 
N 51 90 0 
N 2 61 0 
N 56 17 0 
N 75 62 0 
N 2 44 0 
N 0 15 0 
N 39 56 0 
N 0 50 0 
N 98 26 0 
N 86 38 0 
N 19 99 0 
N 63 66 0 
N 8 64 0 
N 63 28 0 
N 98 12 0 
N 92 19 0 
N 77 97 0 
O 59 74 0 
501
Atoms. Timestep: 8
N 73 41 0 
N 18 86 0 
N 58 83 0 
N 98 77 0 
N 47 42 0 
N 7 73 0 
N 85 36 0 
N 31 12 0 
N 16 13 0 
N 28 9 0 
N 79 64 0 
N 14 87 0 
N 96 98 0 
N 11 57 0 
N 49 66 0 
N 69 87 0 
N 92 55 0 
N 48 27 0 
N 11 53 0 
N 47 74 0 
N 99 4 0 
N 86 61 0 
N 1 21 0 
N 9 26 0 
N 42 2 0 
N 74 30 0 
N 40 68 0 
N 50 99 0 
N 25 23 0 
N 95 37 0 
N 10 4 0 
N 37 22 0 
N 94 36 0 
N 14 11 0 
N 12 72 0 
N 4 67 0 
N 68 65 0 
N 16 0 0 
N 37 67 0 
N 93 9 0 
N 68 87 0 
N 33 52 0 
N 87 30 0 
N 19 79 0 
N 91 41 0 
N 95 19 0 
N 95 81 0 
N 79 83 0 
N 43 98 0 
N 17 36 0 
N 89 24 0 
N 90 66 0 
N 21 24 0 
N 23 88 0 
N 14 70 0 
N 42 92 0 
N 15 40 0 
N 65 89 0 
N 33 29 0 
N 9 69 0 
N 43 15 0 
N 43 67 0 
N 55 56 0 
N 6 53 0 
N 69 59 0 
N 52 85 0 
N 4 61 0 
N 28 43 0 
N 36 0 0 
N 32 78 0 
N 76 49 0 
N 83 28 0 
N 82 9 0 
N 19 50 0 
N 51 14 0 
N 38 63 0 
N 40 48 0 
N 58 55 0 
N 13 2 0 
N 35 62 0 
N 33 38 0 
N 57 76 0 
N 71 57 0 
N 83 37 0 
N 71 49 0 
N 34 5 0 
N 63 87 0 
N 79 21 0 
N 32 56 0 
N 34 79 0 
N 86 97 0 
N 49 81 0 
N 68 90 0 
N 18 15 0 
N 11 56 0 
N 43 97 0 
N 1 85 0 
N 5 76 0 
N 43 62 0 
N 60 11 0 
N 12 94 0 
N 45 94 0 
N 48 43 0 
N 7 62 0 
N 48 52 0 
N 47 2 0 
N 59 47 0 
N 42 48 0 
N 46 83 0 
N 1 49 0 
N 32 5 0 
N 18 24 0 
N 68 97 0 
N 31 54 0 
N 73 76 0 
N 91 69 0 
N 31 59 0 
N 92 48 0 
N 34 1 0 
N 86 13 0 
N 28 21 0 
N 39 29 0 
N 36 45 0 
N 34 11 0 
N 30 33 0 
N 61 77 0 
N 34 68 0 
N 14 95 0 
N 3 96 0 
N 67 18 0 
N 92 13 0 
N 60 67 0 
N 34 87 0 
N 70 52 0 
N 57 58 0 
N 70 88 0 
N 88 67 0 
N 59 34 0 
N 86 11 0 
N 12 60 0 
N 57 42 0 
N 5 34 0 
N 61 10 0 
N 56 53 0 
N 21 54 0 
N 34 69 0 
N 97 57 0 
N 84 92 0 
N 77 59 0 
N 3 53 0 
N 38 11 0 
N 34 20 0 
N 0 5 0 
N 49 49 0 
N 0 59 0 
N 52 7 0 
N 35 53 0 
N 26 21 0 
N 90 35 0 
N 81 79 0 
N 4 97 0 
N 37 87 0 
N 45 4 0 
N 10 46 0 
N 2 13 0 
N 85 32 0 
N 54 86 0 
N 60 36 0 
N 90 64 0 
N 33 93 0 
N 66 22 0 
N 99 13 0 
N 24 95 0 
N 70 53 0 
N 4 17 0 
N 8 88 0 
N 83 73 0 
N 54 54 0 
N 14 86 0 
N 37 98 0 
N 96 54 0 
N 32 45 0 
N 79 79 0 
N 56 46 0 
N 42 10 0 
N 28 4 0 
N 77 92 0 
N 52 77 0 
N 58 37 0 
N 78 95 0 
N 28 25 0 
N 94 53 0 
N 51 95 0 
N 15 81 0 
N 27 24 0 
N 46 74 0 
N 84 48 0 
N 12 90 0 
N 12 51 0 
N 39 57 0 
N 91 44 0 
N 26 37 0 
N 24 97 0 
N 45 46 0 
N 69 66 0 
N 54 5 0 
N 50 36 0 
N 19 47 0 
N 33 84 0 
N 48 95 0 
N 32 88 0 
N 38 44 0 
N 11 59 0 
N 10 63 0 
N 57 92 0 
N 72 72 0 
N 67 13 0 
N 42 47 0 
N 27 48 0 
N 42 55 0 
N 13 3 0 
N 62 83 0 
N 21 45 0 
N 83 46 0 
N 71 89 0 
N 96 61 0 
N 79 94 0 
N 18 78 0 
N 62 76 0 
N 75 58 0 
N 88 73 0 
N 42 79 0 
N 67 17 0 
N 6 91 0 
N 72 28 0 
N 69 53 0 
N 16 4 0 
N 31 0 0 
N 33 70 0 
N 75 4 0 
N 62 29 0 
N 66 43 0 
N 43 7 0 
N 41 2 0 
N 30 59 0 
N 89 83 0 
N 66 91 0 
N 63 86 0 
N 54 52 0 
N 38 42 0 
N 17 38 0 
N 54 90 0 
N 46 51 0 
N 67 91 0 
N 79 97 0 
N 51 10 0 
N 79 1 0 
N 62 73 0 
N 19 34 0 
N 30 69 0 
N 14 17 0 
N 94 45 0 
N 43 51 0 
N 34 55 0 
N 20 94 0 
N 43 50 0 
N 85 68 0 
N 92 28 0 
N 0 41 0 
N 60 60 0 
N 24 67 0 
N 47 40 0 
N 99 3 0 
N 20 16 0 
N 68 34 0 
N 94 81 0 
N 68 77 0 
N 52 98 0 
N 40 87 0 
N 64 64 0 
N 96 22 0 
N 42 43 0 
N 73 33 0 
N 72 90 0 
N 90 76 0 
N 87 1 0 
N 34 51 0 
N 58 16 0 
N 8 70 0 
N 39 68 0 
N 32 47 0 
N 81 23 0 
N 47 47 0 
N 39 85 0 
N 27 40 0 
N 59 56 0 
N 85 81 0 
N 18 32 0 
N 64 42 0 
N 28 82 0 
N 64 96 0 
N 34 38 0 
N 43 75 0 
N 6 56 0 
N 4 70 0 
N 24 56 0 
N 49 88 0 
N 16 57 0 
N 60 76 0 
N 33 31 0 
N 46 67 0 
N 56 95 0 
N 9 83 0 
N 62 42 0 
N 21 38 0 
N 38 41 0 
N 82 17 0 
N 94 86 0 
N 22 63 0 
N 80 16 0 
N 83 14 0 
N 55 73 0 
N 79 7 0 
N 83 77 0 
N 26 2 0 
N 52 5 0 
N 53 15 0 
N 68 69 0 
N 95 24 0 
N 31 1 0 
N 87 8 0 
N 10 60 0 
N 32 70 0 
N 88 82 0 
N 97 82 0 
N 25 91 0 
N 94 3 0 
N 66 77 0 
N 75 73 0 
N 89 31 0 
N 68 45 0 
N 63 71 0 
N 8 67 0 
N 8 22 0 
N 66 87 0 
N 16 58 0 
N 64 17 0 
N 74 50 0 
N 98 63 0 
N 53 23 0 
N 12 77 0 
N 77 1 0 
N 20 3 0 
N 30 63 0 
N 0 82 0 
N 9 32 0 
N 96 32 0 
N 54 16 0 
N 86 64 0 
N 96 52 0 
N 70 91 0 
N 24 89 0 
N 18 73 0 
N 14 73 0 
N 18 8 0 
N 83 66 0 
N 83 12 0 
N 38 32 0 
N 61 97 0 
N 87 56 0 
N 90 30 0 
N 3 55 0 
N 94 24 0 
N 79 47 0 
N 21 77 0 
N 40 66 0 
N 65 57 0 
N 57 74 0 
N 96 94 0 
N 16 38 0 
N 23 34 0 
N 22 2 0 
N 50 48 0 
N 42 94 0 
N 51 3 0 
N 45 91 0 
N 63 6 0 
N 31 87 0 
N 96 86 0 
N 42 65 0 
N 97 10 0 
N 40 92 0 
N 90 15 0 
N 3 31 0 
N 66 47 0 
N 71 2 0 
N 50 29 0 
N 90 10 0 
N 97 79 0 
N 46 41 0 
N 85 38 0 
N 70 27 0 
N 52 90 0 
N 49 23 0 
N 7 57 0 
N 87 11 0 
N 80 73 0 
N 43 56 0 
N 57 61 0 
N 51 63 0 
N 2 51 0 
N 50 15 0 
N 76 92 0 
N 5 61 0 
N 74 57 0 
N 99 78 0 
N 22 25 0 
N 51 73 0 
N 66 10 0 
N 18 81 0 
N 24 81 0 
N 86 91 0 
N 96 23 0 
N 4 80 0 
N 85 30 0 
N 70 96 0 
N 69 56 0 
N 83 52 0 
N 11 54 0 
N 33 99 0 
N 37 46 0 
N 86 4 0 
N 62 51 0 
N 15 59 0 
N 34 90 0 
N 89 0 0 
N 73 52 0 
N 79 99 0 
N 38 70 0 
N 15 88 0 
N 92 80 0 
N 7 0 0 
N 19 81 0 
N 81 61 0 
N 82 22 0 
N 98 7 0 
N 99 33 0 
N 17 6 0 
N 65 86 0 
N 31 49 0 
N 35 1 0 
N 72 80 0 
N 27 12 0 
N 46 91 0 
N 39 88 0 
N 27 60 0 
N 46 27 0 
N 23 45 0 
N 21 2 0 
N 28 37 0 
N 24 35 0 
N 49 22 0 
N 48 97 0 
N 63 88 0 
N 10 87 0 
N 1 52 0 
N 30 14 0 
N 27 77 0 
N 2 6 0 
N 57 46 0 
N 16 30 0 
N 29 86 0 
N 93 4 0 
N 68 42 0 
N 86 81 0 
N 85 2 0 
N 1 9 0 
N 56 38 0 
N 68 37 0 
N 82 41 0 
N 28 92 0 
N 87 16 0 
N 60 57 0 
N 50 90 0 
N 2 62 0 
N 56 16 0 
N 75 63 0 
N 3 44 0 
N 0 16 0 
N 38 56 0 
N 1 50 0 
N 99 26 0 
N 87 38 0 
N 19 0 0 
N 63 67 0 
N 8 65 0 
N 64 28 0 
N 98 11 0 
N 93 19 0 
N 76 97 0 
O 59 75 0 
501
Atoms. Timestep: 9
N 72 41 0 
N 18 85 0 
N 57 83 0 
N 97 77 0 
N 47 43 0 
N 8 73 0 
N 85 35 0 
N 30 12 0 
N 15 13 0 
N 29 9 0 
N 80 64 0 
N 14 86 0 
N 97 98 0 
N 10 57 0 
N 48 66 0 
N 70 87 0 
N 93 55 0 
N 49 27 0 
N 11 52 0 
N 47 75 0 
N 99 5 0 
N 86 60 0 
N 1 22 0 
N 8 26 0 
N 41 2 0 
N 74 31 0 
N 41 68 0 
N 49 99 0 
N 26 23 0 
N 95 38 0 
N 11 4 0 
N 37 21 0 
N 95 36 0 
N 14 12 0 
N 13 72 0 
N 4 66 0 
N 67 65 0 
N 17 0 0 
N 38 67 0 
N 93 8 0 
N 67 87 0 
N 32 52 0 
N 86 30 0 
N 20 79 0 
N 90 41 0 
N 96 19 0 
N 96 81 0 
N 79 82 0 
N 42 98 0 
N 18 36 0 
N 89 23 0 
N 91 66 0 
N 20 24 0 
N 22 88 0 
N 14 69 0 
N 42 91 0 
N 16 40 0 
N 65 90 0 
N 33 30 0 
N 9 70 0 
N 42 15 0 
N 44 67 0 
N 54 56 0 
N 7 53 0 
N 68 59 0 
N 51 85 0 
N 4 62 0 
N 27 43 0 
N 37 0 0 
N 31 78 0 
N 77 49 0 
N 82 28 0 
N 82 10 0 
N 19 51 0 
N 50 14 0 
N 38 64 0 
N 40 47 0 
N 58 54 0 
N 13 3 0 
N 35 61 0 
N 33 39 0 
N 56 76 0 
N 72 57 0 
N 82 37 0 
N 70 49 0 
N 34 6 0 
N 62 87 0 
N 78 21 0 
N 33 56 0 
N 34 78 0 
N 86 96 0 
N 50 81 0 
N 67 90 0 
N 18 14 0 
N 11 55 0 
N 42 97 0 
N 0 85 0 
N 5 77 0 
N 43 63 0 
N 61 11 0 
N 12 93 0 
N 46 94 0 
N 49 43 0 
N 7 61 0 
N 47 52 0 
N 46 2 0 
N 58 47 0 
N 42 47 0 
N 45 83 0 
N 1 50 0 
N 32 4 0 
N 18 23 0 
N 69 97 0 
N 30 54 0 
N 73 75 0 
N 92 69 0 
N 30 59 0 
N 93 48 0 
N 35 1 0 
N 85 13 0 
N 27 21 0 
N 39 28 0 
N 36 46 0 
N 33 11 0 
N 31 33 0 
N 61 78 0 
N 33 68 0 
N 14 96 0 
N 2 96 0 
N 68 18 0 
N 93 13 0 
N 60 66 0 
N 35 87 0 
N 71 52 0 
N 57 59 0 
N 70 89 0 
N 88 68 0 
N 59 35 0 
N 85 11 0 
N 13 60 0 
N 56 42 0 
N 5 35 0 
N 60 10 0 
N 56 54 0 
N 21 55 0 
N 33 69 0 
N 98 57 0 
N 85 92 0 
N 77 58 0 
N 4 53 0 
N 38 10 0 
N 35 20 0 
N 0 6 0 
N 48 49 0 
N 1 59 0 
N 53 7 0 
N 35 54 0 
N 26 20 0 
N 91 35 0 
N 81 80 0 
N 3 97 0 
N 37 88 0 
N 45 3 0 
N 10 47 0 
N 2 12 0 
N 85 33 0 
N 53 86 0 
N 61 36 0 
N 90 65 0 
N 33 94 0 
N 67 22 0 
N 99 12 0 
N 24 96 0 
N 70 54 0 
N 4 18 0 
N 8 89 0 
N 83 72 0 
N 54 53 0 
N 13 86 0 
N 37 97 0 
N 95 54 0 
N 33 45 0 
N 79 80 0 
N 57 46 0 
N 42 11 0 
N 28 3 0 
N 76 92 0 
N 53 77 0 
N 58 38 0 
N 78 96 0 
N 29 25 0 
N 93 53 0 
N 51 96 0 
N 15 80 0 
N 28 24 0 
N 46 73 0 
N 84 49 0 
N 12 91 0 
N 12 50 0 
N 39 58 0 
N 91 43 0 
N 25 37 0 
N 24 98 0 
N 45 47 0 
N 70 66 0 
N 53 5 0 
N 49 36 0 
N 18 47 0 
N 34 84 0 
N 49 95 0 
N 33 88 0 
N 38 45 0 
N 12 59 0 
N 11 63 0 
N 58 92 0 
N 71 72 0 
N 67 14 0 
N 43 47 0 
N 27 47 0 
N 41 55 0 
N 13 4 0 
N 61 83 0 
N 21 44 0 
N 83 45 0 
N 71 90 0 
N 97 61 0 
N 79 95 0 
N 19 78 0 
N 63 76 0 
N 76 58 0 
N 88 74 0 
N 43 79 0 
N 66 17 0 
N 7 91 0 
N 71 28 0 
N 69 54 0 
N 16 3 0 
N 30 0 0 
N 33 71 0 
N 76 4 0 
N 61 29 0 
N 66 42 0 
N 43 6 0 
N 41 1 0 
N 30 58 0 
N 90 83 0 
N 66 90 0 
N 62 86 0 
N 54 51 0 
N 38 41 0 
N 17 39 0 
N 54 89 0 
N 46 50 0 
N 68 91 0 
N 80 97 0 
N 50 10 0 
N 79 2 0 
N 62 72 0 
N 18 34 0 
N 30 68 0 
N 14 18 0 
N 93 45 0 
N 43 50 0 
N 33 55 0 
N 20 93 0 
N 42 50 0 
N 85 69 0 
N 92 27 0 
N 1 41 0 
N 61 60 0 
N 24 68 0 
N 46 40 0 
N 98 3 0 
N 21 16 0 
N 69 34 0 
N 93 81 0 
N 69 77 0 
N 52 97 0 
N 41 87 0 
N 63 64 0 
N 96 21 0 
N 42 44 0 
N 73 32 0 
N 72 91 0 
N 91 76 0 
N 88 1 0 
N 34 52 0 
N 58 17 0 
N 7 70 0 
N 38 68 0 
N 33 47 0 
N 81 22 0 
N 47 48 0 
N 38 85 0 
N 27 41 0 
N 58 56 0 
N 85 80 0 
N 17 32 0 
N 64 41 0 
N 28 81 0 
N 63 96 0 
N 35 38 0 
N 43 76 0 
N 7 56 0 
N 4 69 0 
N 24 57 0 
N 49 87 0 
N 16 56 0 
N 60 75 0 
N 34 31 0 
N 46 66 0 
N 55 95 0 
N 8 83 0 
N 62 41 0 
N 21 37 0 
N 37 41 0 
N 82 18 0 
N 94 85 0 
N 22 64 0 
N 80 17 0 
N 83 13 0 
N 55 72 0 
N 79 6 0 
N 82 77 0 
N 25 2 0 
N 52 6 0 
N 52 15 0 
N 67 69 0 
N 95 23 0 
N 30 1 0 
N 86 8 0 
N 10 59 0 
N 31 70 0 
N 89 82 0 
N 96 82 0 
N 26 91 0 
N 94 4 0 
N 65 77 0 
N 76 73 0 
N 89 32 0 
N 68 46 0 
N 62 71 0 
N 9 67 0 
N 9 22 0 
N 65 87 0 
N 15 58 0 
N 64 18 0 
N 73 50 0 
N 99 63 0 
N 53 22 0 
N 12 76 0 
N 77 0 0 
N 19 3 0 
N 30 62 0 
N 1 82 0 
N 9 31 0 
N 96 33 0 
N 53 16 0 
N 85 64 0 
N 97 52 0 
N 69 91 0 
N 24 88 0 
N 18 74 0 
N 14 72 0 
N 17 8 0 
N 82 66 0 
N 83 11 0 
N 37 32 0 
N 60 97 0 
N 87 57 0 
N 90 31 0 
N 4 55 0 
N 94 23 0 
N 79 46 0 
N 21 78 0 
N 39 66 0 
N 64 57 0 
N 57 75 0 
N 96 93 0 
N 16 39 0 
N 23 35 0 
N 22 1 0 
N 51 48 0 
N 43 94 0 
N 51 2 0 
N 45 90 0 
N 63 7 0 
N 31 88 0 
N 97 86 0 
N 43 65 0 
N 97 9 0 
N 41 92 0 
N 89 15 0 
N 4 31 0 
N 67 47 0 
N 71 3 0 
N 50 28 0 
N 90 9 0 
N 96 79 0 
N 46 42 0 
N 85 39 0 
N 69 27 0 
N 51 90 0 
N 50 23 0 
N 7 58 0 
N 87 10 0 
N 79 73 0 
N 44 56 0 
N 57 62 0 
N 52 63 0 
N 3 51 0 
N 50 16 0 
N 76 93 0 
N 5 60 0 
N 74 58 0 
N 99 79 0 
N 22 26 0 
N 50 73 0 
N 65 10 0 
N 18 82 0 
N 23 81 0 
N 86 90 0 
N 96 24 0 
N 4 79 0 
N 85 31 0 
N 69 96 0 
N 68 56 0 
N 83 51 0 
N 10 54 0 
N 33 98 0 
N 38 46 0 
N 87 4 0 
N 63 51 0 
N 16 59 0 
N 33 90 0 
N 89 99 0 
N 74 52 0 
N 79 98 0 
N 39 70 0 
N 15 87 0 
N 92 79 0 
N 7 1 0 
N 20 81 0 
N 80 61 0 
N 82 21 0 
N 97 7 0 
N 99 34 0 
N 18 6 0 
N 64 86 0 
N 31 50 0 
N 36 1 0 
N 72 79 0 
N 27 11 0 
N 46 90 0 
N 39 89 0 
N 28 60 0 
N 46 28 0 
N 23 44 0 
N 21 3 0 
N 29 37 0 
N 24 34 0 
N 50 22 0 
N 48 98 0 
N 64 88 0 
N 11 87 0 
N 1 51 0 
N 31 14 0 
N 27 78 0 
N 2 7 0 
N 58 46 0 
N 16 31 0 
N 29 85 0 
N 92 4 0 
N 68 41 0 
N 86 82 0 
N 86 2 0 
N 2 9 0 
N 56 37 0 
N 67 37 0 
N 83 41 0 
N 29 92 0 
N 87 17 0 
N 60 58 0 
N 50 91 0 
N 2 63 0 
N 57 16 0 
N 74 63 0 
N 2 44 0 
N 1 16 0 
N 38 57 0 
N 2 50 0 
N 0 26 0 
N 86 38 0 
N 20 0 0 
N 63 66 0 
N 8 64 0 
N 65 28 0 
N 99 11 0 
N 93 20 0 
N 77 97 0 
O 58 75 0 
501
Atoms. Timestep: 10
N 72 42 0 
N 18 86 0 
N 57 82 0 
N 97 78 0 
N 46 43 0 
N 8 74 0 
N 86 35 0 
N 31 12 0 
N 15 14 0 
N 29 10 0 
N 80 63 0 
N 14 87 0 
N 98 98 0 
N 10 56 0 
N 49 66 0 
N 69 87 0 
N 92 55 0 
N 48 27 0 
N 11 53 0 
N 47 76 0 
N 99 6 0 
N 86 59 0 
N 1 21 0 
N 8 27 0 
N 40 2 0 
N 75 31 0 
N 41 67 0 
N 50 99 0 
N 26 22 0 
N 94 38 0 
N 12 4 0 
N 37 20 0 
N 95 35 0 
N 13 12 0 
N 12 72 0 
N 3 66 0 
N 68 65 0 
N 18 0 0 
N 38 68 0 
N 93 7 0 
N 66 87 0 
N 32 51 0 
N 87 30 0 
N 19 79 0 
N 90 42 0 
N 95 19 0 
N 96 80 0 
N 78 82 0 
N 41 98 0 
N 17 36 0 
N 89 22 0 
N 90 66 0 
N 19 24 0 
N 21 88 0 
N 13 69 0 
N 42 92 0 
N 15 40 0 
N 65 91 0 
N 32 30 0 
N 9 71 0 
N 42 16 0 
N 43 67 0 
N 54 57 0 
N 6 53 0 
N 68 58 0 
N 51 86 0 
N 4 61 0 
N 27 42 0 
N 37 1 0 
N 31 79 0 
N 77 50 0 
N 82 27 0 
N 83 10 0 
N 18 51 0 
N 51 14 0 
N 37 64 0 
N 41 47 0 
N 58 53 0 
N 13 2 0 
N 36 61 0 
N 34 39 0 
N 56 77 0 
N 73 57 0 
N 82 36 0 
N 69 49 0 
N 33 6 0 
N 62 88 0 
N 77 21 0 
N 32 56 0 
N 33 78 0 
N 85 96 0 
N 49 81 0 
N 66 90 0 
N 18 13 0 
N 11 54 0 
N 43 97 0 
N 99 85 0 
N 4 77 0 
N 44 63 0 
N 62 11 0 
N 13 93 0 
N 45 94 0 
N 49 42 0 
N 7 62 0 
N 47 51 0 
N 45 2 0 
N 58 46 0 
N 43 47 0 
N 46 83 0 
N 0 50 0 
N 33 4 0 
N 17 23 0 
N 70 97 0 
N 31 54 0 
N 74 75 0 
N 93 69 0 
N 30 60 0 
N 93 49 0 
N 35 0 0 
N 86 13 0 
N 27 22 0 
N 40 28 0 
N 35 46 0 
N 34 11 0 
N 32 33 0 
N 60 78 0 
N 33 67 0 
N 14 97 0 
N 3 96 0 
N 69 18 0 
N 92 13 0 
N 60 67 0 
N 36 87 0 
N 70 52 0 
N 56 59 0 
N 69 89 0 
N 88 69 0 
N 59 36 0 
N 86 11 0 
N 14 60 0 
N 56 41 0 
N 5 34 0 
N 59 10 0 
N 57 54 0 
N 22 55 0 
N 34 69 0 
N 97 57 0 
N 85 91 0 
N 77 57 0 
N 5 53 0 
N 37 10 0 
N 35 19 0 
N 0 5 0 
N 48 48 0 
N 1 60 0 
N 53 8 0 
N 36 54 0 
N 26 19 0 
N 91 34 0 
N 80 80 0 
N 2 97 0 
N 37 87 0 
N 44 3 0 
N 11 47 0 
N 1 12 0 
N 84 33 0 
N 52 86 0 
N 62 36 0 
N 90 64 0 
N 33 93 0 
N 66 22 0 
N 99 13 0 
N 25 96 0 
N 71 54 0 
N 4 17 0 
N 8 88 0 
N 82 72 0 
N 54 52 0 
N 12 86 0 
N 37 98 0 
N 94 54 0 
N 33 44 0 
N 79 81 0 
N 56 46 0 
N 41 11 0 
N 27 3 0 
N 75 92 0 
N 54 77 0 
N 59 38 0 
N 79 96 0 
N 30 25 0 
N 93 54 0 
N 51 97 0 
N 15 81 0 
N 27 24 0 
N 46 72 0 
N 85 49 0 
N 12 90 0 
N 11 50 0 
N 39 57 0 
N 92 43 0 
N 25 38 0 
N 23 98 0 
N 46 47 0 
N 70 65 0 
N 54 5 0 
N 49 37 0 
N 17 47 0 
N 34 85 0 
N 49 94 0 
N 32 88 0 
N 37 45 0 
N 12 60 0 
N 11 64 0 
N 58 93 0 
N 71 71 0 
N 68 14 0 
N 43 46 0 
N 28 47 0 
N 42 55 0 
N 14 4 0 
N 61 82 0 
N 21 43 0 
N 82 45 0 
N 70 90 0 
N 97 60 0 
N 78 95 0 
N 18 78 0 
N 63 77 0 
N 76 57 0 
N 88 75 0 
N 43 78 0 
N 65 17 0 
N 7 92 0 
N 71 29 0 
N 68 54 0 
N 16 2 0 
N 30 99 0 
N 32 71 0 
N 75 4 0 
N 60 29 0 
N 66 41 0 
N 43 5 0 
N 42 1 0 
N 31 58 0 
N 89 83 0 
N 66 91 0 
N 62 85 0 
N 54 50 0 
N 38 42 0 
N 17 38 0 
N 54 90 0 
N 47 50 0 
N 69 91 0 
N 80 98 0 
N 50 11 0 
N 80 2 0 
N 63 72 0 
N 18 33 0 
N 31 68 0 
N 14 19 0 
N 93 44 0 
N 42 50 0 
N 32 55 0 
N 20 94 0 
N 42 49 0 
N 84 69 0 
N 93 27 0 
N 0 41 0 
N 62 60 0 
N 24 67 0 
N 47 40 0 
N 97 3 0 
N 21 15 0 
N 68 34 0 
N 93 82 0 
N 69 76 0 
N 53 97 0 
N 40 87 0 
N 64 64 0 
N 96 22 0 
N 43 44 0 
N 73 33 0 
N 73 91 0 
N 92 76 0 
N 89 1 0 
N 35 52 0 
N 58 18 0 
N 7 69 0 
N 39 68 0 
N 34 47 0 
N 81 21 0 
N 47 49 0 
N 38 86 0 
N 28 41 0 
N 58 57 0 
N 86 80 0 
N 16 32 0 
N 63 41 0 
N 28 82 0 
N 63 97 0 
N 35 39 0 
N 43 77 0 
N 6 56 0 
N 3 69 0 
N 23 57 0 
N 50 87 0 
N 17 56 0 
N 61 75 0 
N 34 30 0 
N 46 65 0 
N 54 95 0 
N 9 83 0 
N 62 40 0 
N 21 38 0 
N 36 41 0 
N 83 18 0 
N 94 86 0 
N 22 65 0 
N 80 16 0 
N 83 12 0 
N 54 72 0 
N 79 7 0 
N 82 76 0 
N 26 2 0 
N 53 6 0 
N 52 14 0 
N 68 69 0 
N 95 24 0 
N 30 2 0 
N 87 8 0 
N 10 60 0 
N 31 69 0 
N 89 81 0 
N 95 82 0 
N 26 92 0 
N 94 5 0 
N 65 76 0 
N 76 72 0 
N 90 32 0 
N 69 46 0 
N 63 71 0 
N 9 66 0 
N 10 22 0 
N 65 86 0 
N 14 58 0 
N 63 18 0 
N 72 50 0 
N 99 62 0 
N 52 22 0 
N 12 77 0 
N 77 99 0 
N 19 2 0 
N 29 62 0 
N 1 83 0 
N 8 31 0 
N 96 34 0 
N 53 17 0 
N 86 64 0 
N 97 53 0 
N 69 92 0 
N 24 87 0 
N 17 74 0 
N 14 73 0 
N 16 8 0 
N 82 67 0 
N 84 11 0 
N 37 33 0 
N 61 97 0 
N 86 57 0 
N 89 31 0 
N 4 56 0 
N 93 23 0 
N 79 45 0 
N 22 78 0 
N 39 65 0 
N 63 57 0 
N 57 76 0 
N 95 93 0 
N 15 39 0 
N 22 35 0 
N 23 1 0 
N 51 47 0 
N 44 94 0 
N 51 3 0 
N 45 91 0 
N 63 8 0 
N 31 87 0 
N 97 87 0 
N 42 65 0 
N 97 10 0 
N 41 91 0 
N 88 15 0 
N 5 31 0 
N 67 48 0 
N 70 3 0 
N 50 27 0 
N 89 9 0 
N 96 78 0 
N 46 41 0 
N 84 39 0 
N 69 26 0 
N 50 90 0 
N 50 22 0 
N 7 57 0 
N 88 10 0 
N 79 74 0 
N 44 55 0 
N 56 62 0 
N 52 64 0 
N 3 52 0 
N 49 16 0 
N 77 93 0 
N 4 60 0 
N 74 57 0 
N 99 80 0 
N 22 25 0 
N 51 73 0 
N 64 10 0 
N 17 82 0 
N 24 81 0 
N 87 90 0 
N 97 24 0 
N 3 79 0 
N 86 31 0 
N 69 95 0 
N 69 56 0 
N 83 52 0 
N 10 55 0 
N 32 98 0 
N 39 46 0 
N 87 3 0 
N 63 52 0 
N 16 58 0 
N 34 90 0 
N 89 0 0 
N 73 52 0 
N 79 97 0 
N 39 69 0 
N 15 88 0 
N 91 79 0 
N 7 2 0 
N 20 82 0 
N 81 61 0 
N 83 21 0 
N 96 7 0 
N 99 33 0 
N 19 6 0 
N 64 85 0 
N 31 51 0 
N 36 2 0 
N 71 79 0 
N 27 10 0 
N 46 89 0 
N 38 89 0 
N 28 61 0 
N 46 29 0 
N 24 44 0 
N 20 3 0 
N 29 38 0 
N 24 35 0 
N 50 21 0 
N 48 99 0 
N 64 87 0 
N 11 88 0 
N 0 51 0 
N 32 14 0 
N 28 78 0 
N 1 7 0 
N 58 45 0 
N 16 30 0 
N 28 85 0 
N 92 5 0 
N 67 41 0 
N 86 81 0 
N 86 1 0 
N 2 8 0 
N 56 36 0 
N 66 37 0 
N 84 41 0 
N 29 91 0 
N 86 17 0 
N 60 59 0 
N 50 92 0 
N 3 63 0 
N 58 16 0 
N 74 64 0 
N 2 45 0 
N 2 16 0 
N 38 58 0 
N 3 50 0 
N 0 25 0 
N 87 38 0 
N 20 1 0 
N 64 66 0 
N 7 64 0 
N 65 29 0 
N 99 10 0 
N 93 19 0 
N 76 97 0 
O 58 76 0 
501
Atoms. Timestep: 11
N 73 42 0 
N 18 85 0 
N 57 81 0 
N 96 78 0 
N 46 44 0 
N 9 74 0 
N 87 35 0 
N 30 12 0 
N 15 13 0 
N 28 10 0 
N 80 62 0 
N 15 87 0 
N 98 99 0 
N 11 56 0 
N 48 66 0 
N 69 86 0 
N 92 56 0 
N 48 28 0 
N 11 54 0 
N 48 76 0 
N 99 7 0 
N 87 59 0 
N 0 21 0 
N 9 27 0 
N 40 1 0 
N 75 32 0 
N 41 66 0 
N 49 99 0 
N 26 21 0 
N 94 37 0 
N 11 4 0 
N 36 20 0 
N 94 35 0 
N 13 11 0 
N 12 71 0 
N 3 65 0 
N 67 65 0 
N 17 0 0 
N 38 69 0 
N 94 7 0 
N 66 86 0 
N 32 52 0 
N 87 29 0 
N 18 79 0 
N 90 41 0 
N 96 19 0 
N 96 79 0 
N 78 83 0 
N 40 98 0 
N 17 35 0 
N 88 22 0 
N 90 65 0 
N 19 23 0 
N 21 89 0 
N 12 69 0 
N 42 93 0 
N 15 41 0 
N 64 91 0 
N 32 29 0 
N 10 71 0 
N 42 17 0 
N 42 67 0 
N 54 58 0 
N 5 53 0 
N 68 59 0 
N 52 86 0 
N 3 61 0 
N 28 42 0 
N 37 0 0 
N 31 80 0 
N 77 49 0 
N 82 26 0 
N 83 9 0 
N 18 52 0 
N 51 15 0 
N 37 63 0 
N 41 48 0 
N 57 53 0 
N 14 2 0 
N 36 62 0 
N 33 39 0 
N 56 76 0 
N 72 57 0 
N 82 37 0 
N 69 48 0 
N 33 5 0 
N 62 89 0 
N 76 21 0 
N 32 55 0 
N 32 78 0 
N 85 97 0 
N 48 81 0 
N 65 90 0 
N 18 14 0 
N 12 54 0 
N 43 96 0 
N 98 85 0 
N 3 77 0 
N 44 64 0 
N 61 11 0 
N 13 94 0 
N 45 95 0 
N 49 41 0 
N 7 61 0 
N 47 52 0 
N 44 2 0 
N 57 46 0 
N 44 47 0 
N 45 83 0 
N 99 50 0 
N 34 4 0 
N 18 23 0 
N 71 97 0 
N 31 53 0 
N 75 75 0 
N 93 68 0 
N 31 60 0 
N 93 48 0 
N 35 99 0 
N 86 12 0 
N 27 21 0 
N 40 29 0 
N 35 47 0 
N 34 10 0 
N 33 33 0 
N 61 78 0 
N 34 67 0 
N 14 96 0 
N 3 95 0 
N 69 17 0 
N 93 13 0 
N 60 68 0 
N 36 86 0 
N 71 52 0 
N 56 60 0 
N 69 88 0 
N 87 69 0 
N 59 37 0 
N 86 10 0 
N 15 60 0 
N 56 42 0 
N 6 34 0 
N 59 11 0 
N 56 54 0 
N 22 56 0 
N 34 68 0 
N 97 56 0 
N 85 90 0 
N 77 56 0 
N 5 54 0 
N 37 9 0 
N 35 18 0 
N 99 5 0 
N 49 48 0 
N 1 59 0 
N 52 8 0 
N 36 55 0 
N 26 20 0 
N 91 33 0 
N 80 81 0 
N 2 98 0 
N 38 87 0 
N 44 4 0 
N 11 46 0 
N 2 12 0 
N 83 33 0 
N 53 86 0 
N 61 36 0 
N 90 63 0 
N 33 92 0 
N 66 21 0 
N 0 13 0 
N 25 95 0 
N 71 55 0 
N 5 17 0 
N 8 89 0 
N 82 73 0 
N 55 52 0 
N 11 86 0 
N 38 98 0 
N 94 53 0 
N 33 45 0 
N 78 81 0 
N 56 47 0 
N 40 11 0 
N 27 2 0 
N 75 91 0 
N 54 76 0 
N 60 38 0 
N 80 96 0 
N 31 25 0 
N 92 54 0 
N 50 97 0 
N 15 82 0 
N 27 25 0 
N 46 73 0 
N 85 48 0 
N 12 91 0 
N 11 51 0 
N 39 56 0 
N 92 42 0 
N 24 38 0 
N 23 97 0 
N 45 47 0 
N 69 65 0 
N 55 5 0 
N 49 38 0 
N 18 47 0 
N 34 84 0 
N 49 95 0 
N 33 88 0 
N 37 44 0 
N 13 60 0 
N 10 64 0 
N 58 94 0 
N 71 70 0 
N 68 15 0 
N 43 45 0 
N 29 47 0 
N 42 54 0 
N 13 4 0 
N 61 81 0 
N 21 44 0 
N 82 46 0 
N 69 90 0 
N 96 60 0 
N 78 96 0 
N 19 78 0 
N 64 77 0 
N 76 58 0 
N 88 76 0 
N 43 79 0 
N 65 16 0 
N 8 92 0 
N 72 29 0 
N 68 53 0 
N 16 1 0 
N 29 99 0 
N 31 71 0 
N 75 5 0 
N 61 29 0 
N 65 41 0 
N 43 4 0 
N 42 0 0 
N 31 57 0 
N 90 83 0 
N 66 92 0 
N 61 85 0 
N 54 49 0 
N 38 43 0 
N 17 37 0 
N 53 90 0 
N 47 49 0 
N 69 92 0 
N 79 98 0 
N 51 11 0 
N 79 2 0 
N 63 73 0 
N 17 33 0 
N 30 68 0 
N 14 20 0 
N 93 43 0 
N 43 50 0 
N 31 55 0 
N 20 95 0 
N 41 49 0 
N 84 70 0 
N 94 27 0 
N 99 41 0 
N 61 60 0 
N 25 67 0 
N 47 39 0 
N 96 3 0 
N 22 15 0 
N 69 34 0 
N 92 82 0 
N 68 76 0 
N 52 97 0 
N 40 86 0 
N 64 63 0 
N 97 22 0 
N 43 43 0 
N 74 33 0 
N 74 91 0 
N 91 76 0 
N 89 2 0 
N 34 52 0 
N 58 19 0 
N 7 68 0 
N 39 69 0 
N 33 47 0 
N 82 21 0 
N 48 49 0 
N 39 86 0 
N 27 41 0 
N 58 58 0 
N 86 79 0 
N 17 32 0 
N 62 41 0 
N 28 81 0 
N 63 98 0 
N 35 40 0 
N 43 76 0 
N 6 55 0 
N 2 69 0 
N 23 58 0 
N 50 88 0 
N 16 56 0 
N 61 76 0 
N 35 30 0 
N 46 64 0 
N 54 94 0 
N 10 83 0 
N 63 40 0 
N 21 37 0 
N 35 41 0 
N 83 17 0 
N 94 87 0 
N 23 65 0 
N 80 15 0 
N 83 11 0 
N 54 71 0 
N 79 6 0 
N 81 76 0 
N 26 1 0 
N 53 5 0 
N 52 15 0 
N 68 68 0 
N 95 23 0 
N 30 3 0 
N 87 9 0 
N 11 60 0 
N 31 70 0 
N 88 81 0 
N 95 83 0 
N 26 91 0 
N 93 5 0 
N 65 75 0 
N 76 71 0 
N 90 33 0 
N 68 46 0 
N 64 71 0 
N 10 66 0 
N 11 22 0 
N 65 85 0 
N 14 59 0 
N 63 19 0 
N 72 51 0 
N 99 63 0 
N 51 22 0 
N 11 77 0 
N 78 99 0 
N 18 2 0 
N 30 62 0 
N 1 82 0 
N 7 31 0 
N 95 34 0 
N 52 17 0 
N 86 65 0 
N 98 53 0 
N 70 92 0 
N 24 88 0 
N 16 74 0 
N 14 74 0 
N 17 8 0 
N 81 67 0 
N 84 12 0 
N 37 34 0 
N 60 97 0 
N 87 57 0 
N 90 31 0 
N 3 56 0 
N 93 24 0 
N 80 45 0 
N 22 79 0 
N 39 66 0 
N 62 57 0 
N 57 75 0 
N 94 93 0 
N 14 39 0 
N 23 35 0 
N 23 2 0 
N 50 47 0 
N 44 93 0 
N 51 4 0 
N 44 91 0 
N 62 8 0 
N 31 88 0 
N 97 88 0 
N 42 64 0 
N 98 10 0 
N 41 90 0 
N 89 15 0 
N 6 31 0 
N 67 49 0 
N 70 4 0 
N 51 27 0 
N 90 9 0 
N 95 78 0 
N 46 42 0 
N 83 39 0 
N 68 26 0 
N 50 89 0 
N 50 23 0 
N 6 57 0 
N 88 11 0 
N 78 74 0 
N 44 56 0 
N 56 63 0 
N 52 65 0 
N 4 52 0 
N 49 15 0 
N 78 93 0 
N 3 60 0 
N 74 58 0 
N 0 80 0 
N 22 24 0 
N 51 74 0 
N 63 10 0 
N 17 81 0 
N 25 81 0 
N 88 90 0 
N 97 25 0 
N 2 79 0 
N 85 31 0 
N 68 95 0 
N 69 55 0 
N 83 53 0 
N 11 55 0 
N 33 98 0 
N 40 46 0 
N 87 4 0 
N 64 52 0 
N 16 59 0 
N 34 89 0 
N 88 0 0 
N 73 53 0 
N 78 97 0 
N 40 69 0 
N 14 88 0 
N 90 79 0 
N 6 2 0 
N 21 82 0 
N 82 61 0 
N 83 20 0 
N 96 6 0 
N 0 33 0 
N 18 6 0 
N 64 84 0 
N 31 50 0 
N 36 3 0 
N 71 80 0 
N 27 11 0 
N 45 89 0 
N 38 90 0 
N 29 61 0 
N 46 28 0 
N 24 43 0 
N 21 3 0 
N 29 39 0 
N 25 35 0 
N 49 21 0 
N 48 0 0 
N 64 86 0 
N 11 89 0 
N 99 51 0 
N 32 13 0 
N 29 78 0 
N 1 8 0 
N 59 45 0 
N 16 31 0 
N 28 86 0 
N 92 6 0 
N 68 41 0 
N 86 82 0 
N 85 1 0 
N 2 7 0 
N 55 36 0 
N 65 37 0 
N 85 41 0 
N 29 92 0 
N 86 16 0 
N 59 59 0 
N 50 91 0 
N 4 63 0 
N 58 17 0 
N 74 63 0 
N 2 44 0 
N 1 16 0 
N 39 58 0 
N 4 50 0 
N 0 24 0 
N 87 37 0 
N 19 1 0 
N 64 65 0 
N 6 64 0 
N 66 29 0 
N 0 10 0 
N 93 20 0 
N 76 98 0 
O 57 76 0 
500
Atoms. Timestep: 12
N 73 41 0 
N 18 84 0 
N 57 82 0 
N 95 78 0 
N 46 45 0 
N 8 74 0 
N 87 34 0 
N 31 12 0 
N 15 12 0 
N 28 9 0 
N 79 62 0 
N 15 88 0 
N 98 0 0 
N 11 57 0 
N 48 67 0 
N 68 86 0 
N 92 55 0 
N 48 29 0 
N 11 55 0 
N 48 77 0 
N 98 7 0 
N 87 60 0 
N 99 21 0 
N 9 28 0 
N 40 2 0 
N 75 31 0 
N 41 67 0 
N 50 99 0 
N 25 21 0 
N 95 37 0 
N 11 3 0 
N 35 20 0 
N 95 35 0 
N 12 11 0 
N 12 70 0 
N 3 66 0 
N 66 65 0 
N 17 99 0 
N 38 70 0 
N 93 7 0 
N 66 87 0 
N 32 53 0 
N 87 28 0 
N 18 78 0 
N 91 41 0 
N 96 18 0 
N 95 79 0 
N 79 83 0 
N 39 98 0 
N 18 35 0 
N 88 23 0 
N 90 64 0 
N 19 22 0 
N 22 89 0 
N 11 69 0 
N 43 93 0 
N 14 41 0 
N 63 91 0 
N 33 29 0 
N 9 71 0 
N 42 16 0 
N 43 67 0 
N 53 58 0 
N 5 54 0 
N 68 58 0 
N 52 85 0 
N 3 62 0 
N 29 42 0 
N 36 0 0 
N 32 80 0 
N 78 49 0 
N 83 26 0 
N 84 9 0 
N 19 52 0 
N 51 16 0 
N 38 63 0 
N 41 47 0 
N 57 52 0 
N 13 2 0 
N 36 63 0 
N 34 39 0 
N 56 77 0 
N 72 56 0 
N 82 38 0 
N 70 48 0 
N 33 6 0 
N 62 90 0 
N 76 22 0 
N 31 55 0 
N 33 78 0 
N 86 97 0 
N 47 81 0 
N 65 89 0 
N 18 13 0 
N 12 55 0 
N 43 97 0 
N 99 85 0 
N 2 77 0 
N 44 63 0 
N 61 10 0 
N 12 94 0 
N 46 95 0 
N 49 40 0 
N 7 60 0 
N 46 52 0 
N 44 3 0 
N 57 45 0 
N 45 47 0 
N 44 83 0 
N 99 51 0 
N 34 3 0 
N 18 22 0 
N 72 97 0 
N 31 52 0 
N 75 76 0 
N 93 67 0 
N 31 61 0 
N 93 49 0 
N 35 98 0 
N 87 12 0 
N 28 21 0 
N 40 28 0 
N 35 48 0 
N 34 11 0 
N 33 32 0 
N 62 78 0 
N 35 67 0 
N 13 96 0 
N 3 94 0 
N 70 17 0 
N 94 13 0 
N 59 68 0 
N 37 86 0 
N 72 52 0 
N 56 61 0 
N 69 87 0 
N 87 68 0 
N 59 38 0 
N 86 11 0 
N 16 60 0 
N 56 41 0 
N 5 34 0 
N 59 10 0 
N 57 54 0 
N 23 56 0 
N 33 68 0 
N 97 55 0 
N 85 89 0 
N 76 56 0 
N 5 55 0 
N 37 8 0 
N 35 19 0 
N 99 4 0 
N 50 48 0 
N 1 58 0 
N 53 8 0 
N 35 55 0 
N 27 20 0 
N 92 33 0 
N 80 82 0 
N 2 97 0 
N 38 88 0 
N 45 4 0 
N 11 47 0 
N 3 12 0 
N 83 34 0 
N 53 87 0 
N 61 35 0 
N 91 63 0 
N 33 91 0 
N 65 21 0 
N 0 14 0 
N 25 96 0 
N 71 56 0 
N 6 17 0 
N 9 89 0 
N 81 73 0 
N 55 51 0 
N 10 86 0 
N 38 99 0 
N 95 53 0 
N 33 44 0 
N 78 82 0 
N 57 47 0 
N 39 11 0 
N 26 2 0 
N 74 91 0 
N 54 77 0 
N 60 39 0 
N 80 97 0 
N 32 25 0 
N 91 54 0 
N 49 97 0 
N 15 83 0 
N 27 24 0 
N 46 72 0 
N 84 48 0 
N 12 92 0 
N 11 50 0 
N 38 56 0 
N 92 41 0 
N 24 39 0 
N 23 96 0 
N 45 48 0 
N 69 66 0 
N 55 4 0 
N 49 37 0 
N 18 48 0 
N 34 85 0 
N 49 94 0 
N 33 87 0 
N 36 44 0 
N 13 61 0 
N 10 63 0 
N 58 93 0 
N 72 70 0 
N 68 14 0 
N 43 46 0 
N 29 46 0 
N 42 55 0 
N 14 4 0 
N 61 80 0 
N 22 44 0 
N 81 46 0 
N 69 89 0 
N 96 59 0 
N 78 97 0 
N 20 78 0 
N 64 78 0 
N 77 58 0 
N 87 76 0 
N 42 79 0 
N 65 17 0 
N 8 93 0 
N 73 29 0 
N 67 53 0 
N 17 1 0 
N 29 0 0 
N 30 71 0 
N 74 5 0 
N 61 28 0 
N 66 41 0 
N 42 4 0 
N 42 99 0 
N 32 57 0 
N 89 83 0 
N 66 91 0 
N 61 84 0 
N 53 49 0 
N 38 42 0 
N 16 37 0 
N 52 90 0 
N 48 49 0 
N 69 91 0 
N 79 97 0 
N 50 11 0 
N 79 3 0 
N 63 72 0 
N 17 34 0 
N 30 67 0 
N 15 20 0 
N 93 42 0 
N 42 50 0 
N 30 55 0 
N 20 96 0 
N 40 49 0 
N 85 70 0 
N 94 26 0 
N 99 42 0 
N 61 61 0 
N 25 66 0 
N 47 40 0 
N 96 4 0 
N 21 15 0 
N 70 34 0 
N 91 82 0 
N 68 77 0 
N 52 98 0 
N 39 86 0 
N 65 63 0 
N 97 23 0 
N 44 43 0 
N 74 32 0 
N 74 92 0 
N 90 76 0 
N 89 1 0 
N 33 52 0 
N 59 19 0 
N 6 68 0 
N 39 70 0 
N 34 47 0 
N 82 22 0 
N 49 49 0 
N 39 87 0 
N 28 41 0 
N 58 57 0 
N 86 80 0 
N 18 32 0 
N 63 41 0 
N 29 81 0 
N 62 98 0 
N 36 40 0 
N 42 76 0 
N 6 54 0 
N 3 69 0 
N 22 58 0 
N 49 88 0 
N 16 57 0 
N 61 75 0 
N 35 29 0 
N 46 63 0 
N 54 95 0 
N 11 83 0 
N 63 39 0 
N 21 36 0 
N 35 42 0 
N 82 17 0 
N 95 87 0 
N 23 66 0 
N 79 15 0 
N 83 10 0 
N 55 71 0 
N 78 6 0 
N 81 77 0 
N 27 1 0 
N 54 5 0 
N 52 16 0 
N 67 68 0 
N 96 23 0 
N 31 3 0 
N 87 10 0 
N 11 61 0 
N 30 70 0 
N 89 81 0 
N 95 82 0 
N 27 91 0 
N 93 6 0 
N 65 76 0 
N 77 71 0 
N 90 34 0 
N 68 47 0 
N 65 71 0 
N 9 66 0 
N 11 23 0 
N 66 85 0 
N 15 59 0 
N 62 19 0 
N 71 51 0 
N 98 63 0 
N 52 22 0 
N 11 76 0 
N 78 0 0 
N 19 2 0 
N 30 61 0 
N 1 81 0 
N 8 31 0 
N 96 34 0 
N 52 18 0 
N 87 65 0 
N 97 53 0 
N 70 91 0 
N 24 87 0 
N 15 74 0 
N 13 74 0 
N 16 8 0 
N 81 66 0 
N 84 11 0 
N 36 34 0 
N 60 98 0 
N 88 57 0 
N 90 30 0 
N 2 56 0 
N 92 24 0 
N 81 45 0 
N 21 79 0 
N 39 67 0 
N 61 57 0 
N 57 76 0 
N 93 93 0 
N 14 40 0 
N 24 35 0 
N 22 2 0 
N 49 47 0 
N 44 94 0 
N 51 3 0 
N 43 91 0 
N 61 8 0 
N 32 88 0 
N 97 87 0 
N 41 64 0 
N 99 10 0 
N 41 91 0 
N 88 15 0 
N 5 31 0 
N 68 49 0 
N 70 5 0 
N 50 27 0 
N 90 10 0 
N 95 77 0 
N 45 42 0 
N 82 39 0 
N 69 26 0 
N 49 89 0 
N 50 22 0 
N 5 57 0 
N 88 10 0 
N 79 74 0 
N 45 56 0 
N 55 63 0 
N 52 64 0 
N 4 51 0 
N 49 16 0 
N 78 92 0 
N 2 60 0 
N 74 57 0 
N 1 80 0 
N 22 23 0 
N 51 73 0 
N 64 10 0 
N 16 81 0 
N 25 82 0 
N 88 89 0 
N 98 25 0 
N 3 79 0 
N 86 31 0 
N 68 94 0 
N 70 55 0 
N 82 53 0 
N 10 55 0 
N 32 98 0 
N 40 45 0 
N 87 3 0 
N 65 52 0 
N 16 58 0 
N 34 88 0 
N 88 1 0 
N 74 53 0 
N 78 98 0 
N 40 68 0 
N 13 88 0 
N 90 80 0 
N 7 2 0 
N 20 82 0 
N 81 61 0 
N 83 21 0 
N 97 6 0 
N 1 33 0 
N 18 7 0 
N 63 84 0 
N 32 50 0 
N 37 3 0 
N 71 79 0 
N 28 11 0 
N 45 90 0 
N 39 90 0 
N 28 61 0 
N 47 28 0 
N 25 43 0 
N 21 2 0 
N 29 40 0 
N 25 36 0 
N 49 22 0 
N 48 1 0 
N 65 86 0 
N 10 89 0 
N 99 52 0 
N 33 13 0 
N 28 78 0 
N 2 8 0 
N 59 44 0 
N 17 31 0 
N 28 85 0 
N 92 7 0 
N 69 41 0 
N 87 82 0 
N 85 2 0 
N 2 6 0 
N 54 36 0 
N 64 37 0 
N 84 41 0 
N 29 91 0 
N 85 16 0 
N 59 58 0 
N 50 92 0 
N 3 63 0 
N 57 17 0 
N 73 63 0 
N 1 44 0 
N 0 16 0 
N 38 58 0 
N 4 49 0 
N 0 25 0 
N 88 37 0 
N 20 1 0 
N 63 65 0 
N 5 64 0 
N 67 29 0 
N 1 10 0 
N 93 21 0 
N 76 97 0 
