3191
Atoms. Timestep: 1
N 91 19 0 
N 24 55 0 
N 15 70 0 
N 53 96 0 
N 34 19 0 
N 63 22 0 
N 87 65 0 
N 5 51 0 
N 11 51 0 
N 51 29 0 
N 15 4 0 
N 63 29 0 
N 61 10 0 
N 79 82 0 
N 54 85 0 
N 53 61 0 
N 37 73 0 
N 7 91 0 
N 5 11 0 
N 86 25 0 
N 15 37 0 
N 77 11 0 
N 21 28 0 
N 51 73 0 
N 61 97 0 
N 15 91 0 
N 92 9 0 
N 59 99 0 
N 1 39 0 
N 33 49 0 
N 75 30 0 
N 63 17 0 
N 25 63 0 
N 99 44 0 
N 30 19 0 
N 81 53 0 
N 94 69 0 
N 66 5 0 
N 63 87 0 
N 97 3 0 
N 47 13 0 
N 27 98 0 
N 91 27 0 
N 30 63 0 
N 55 45 0 
N 63 21 0 
N 59 77 0 
N 50 39 0 
N 93 78 0 
N 29 14 0 
N 57 23 0 
N 37 39 0 
N 9 21 0 
N 23 32 0 
N 97 74 0 
N 13 79 0 
N 53 67 0 
N 85 7 0 
N 3 20 0 
N 69 71 0 
N 99 61 0 
N 71 97 0 
N 9 34 0 
N 75 83 0 
N 67 11 0 
N 6 57 0 
N 75 61 0 
N 85 31 0 
N 42 21 0 
N 63 33 0 
N 43 21 0 
N 7 95 0 
N 1 46 0 
N 15 77 0 
N 41 81 0 
N 31 25 0 
N 55 86 0 
N 9 35 0 
N 27 51 0 
N 71 9 0 
N 62 45 0 
N 95 21 0 
N 77 95 0 
N 91 42 0 
N 1 35 0 
N 7 25 0 
N 35 69 0 
N 1 77 0 
N 22 29 0 
N 84 83 0 
N 62 79 0 
N 95 94 0 
N 19 19 0 
N 89 59 0 
N 91 7 0 
N 68 3 0 
N 69 55 0 
N 97 15 0 
N 63 65 0 
N 13 33 0 
N 46 63 0 
N 61 95 0 
N 49 39 0 
N 93 13 0 
N 93 98 0 
N 54 91 0 
N 68 63 0 
N 67 49 0 
N 30 91 0 
N 22 75 0 
N 27 44 0 
N 75 63 0 
N 16 77 0 
N 83 13 0 
N 44 67 0 
N 47 48 0 
N 16 55 0 
N 1 75 0 
N 69 93 0 
N 21 98 0 
N 33 30 0 
N 59 81 0 
N 47 27 0 
N 59 59 0 
N 15 28 0 
N 77 7 0 
N 5 75 0 
N 4 9 0 
N 31 15 0 
N 94 83 0 
N 1 84 0 
N 69 40 0 
N 13 40 0 
N 67 96 0 
N 19 11 0 
N 13 77 0 
N 31 55 0 
N 85 42 0 
N 97 43 0 
N 85 20 0 
N 11 43 0 
N 73 77 0 
N 76 1 0 
N 57 7 0 
N 82 87 0 
N 49 91 0 
N 99 51 0 
N 43 57 0 
N 98 79 0 
N 61 90 0 
N 95 39 0 
N 89 71 0 
N 24 35 0 
N 10 97 0 
N 51 71 0 
N 19 81 0 
N 99 82 0 
N 3 69 0 
N 5 3 0 
N 15 41 0 
N 89 39 0 
N 41 55 0 
N 91 38 0 
N 19 4 0 
N 35 89 0 
N 35 79 0 
N 70 13 0 
N 91 87 0 
N 99 22 0 
N 47 70 0 
N 9 97 0 
N 77 33 0 
N 23 39 0 
N 19 15 0 
N 71 27 0 
N 43 89 0 
N 91 62 0 
N 51 1 0 
N 81 77 0 
N 81 85 0 
N 72 33 0 
N 19 7 0 
N 83 55 0 
N 47 55 0 
N 1 69 0 
N 5 65 0 
N 98 53 0 
N 67 79 0 
N 90 71 0 
N 23 17 0 
N 17 75 0 
N 2 93 0 
N 66 63 0 
N 19 83 0 
N 57 67 0 
N 97 22 0 
N 65 75 0 
N 95 23 0 
N 47 37 0 
N 97 34 0 
N 78 5 0 
N 61 88 0 
N 66 31 0 
N 47 97 0 
N 61 7 0 
N 33 67 0 
N 69 29 0 
N 59 41 0 
N 93 85 0 
N 93 58 0 
N 25 61 0 
N 25 66 0 
N 17 6 0 
N 97 23 0 
N 29 21 0 
N 11 74 0 
N 61 70 0 
N 57 65 0 
N 91 83 0 
N 25 87 0 
N 1 57 0 
N 87 25 0 
N 99 70 0 
N 59 29 0 
N 25 46 0 
N 98 81 0 
N 75 37 0 
N 91 51 0 
N 79 25 0 
N 97 73 0 
N 85 81 0 
N 57 49 0 
N 41 23 0 
N 87 76 0 
N 65 55 0 
N 82 55 0 
N 25 33 0 
N 68 81 0 
N 5 39 0 
N 26 11 0 
N 73 57 0 
N 19 69 0 
N 92 51 0 
N 9 25 0 
N 53 49 0 
N 21 3 0 
N 29 13 0 
N 23 67 0 
N 17 65 0 
N 14 13 0 
N 81 93 0 
N 52 61 0 
N 41 85 0 
N 25 25 0 
N 17 33 0 
N 18 27 0 
N 81 44 0 
N 59 37 0 
N 53 24 0 
N 15 81 0 
N 15 63 0 
N 1 33 0 
N 97 47 0 
N 12 29 0 
N 41 77 0 
N 97 91 0 
N 55 39 0 
N 73 45 0 
N 87 73 0 
N 56 45 0 
N 93 99 0 
N 19 8 0 
N 39 89 0 
N 11 1 0 
N 41 47 0 
N 57 55 0 
N 5 27 0 
N 30 39 0 
N 50 65 0 
N 6 33 0 
N 58 71 0 
N 17 13 0 
N 35 73 0 
N 70 21 0 
N 27 77 0 
N 65 19 0 
N 85 87 0 
N 43 45 0 
N 91 10 0 
N 91 2 0 
N 52 5 0 
N 39 21 0 
N 61 87 0 
N 63 6 0 
N 45 1 0 
N 29 79 0 
N 41 45 0 
N 18 67 0 
N 19 42 0 
N 89 45 0 
N 77 93 0 
N 3 56 0 
N 27 86 0 
N 15 97 0 
N 50 55 0 
N 58 9 0 
N 69 75 0 
N 5 46 0 
N 71 1 0 
N 21 90 0 
N 95 73 0 
N 35 51 0 
N 41 99 0 
N 11 33 0 
N 34 99 0 
N 35 76 0 
N 27 9 0 
N 69 38 0 
N 2 5 0 
N 51 19 0 
N 73 75 0 
N 5 14 0 
N 91 48 0 
N 27 69 0 
N 36 9 0 
N 68 1 0 
N 65 23 0 
N 97 1 0 
N 53 87 0 
N 13 43 0 
N 49 36 0 
N 87 0 0 
N 91 43 0 
N 67 18 0 
N 91 50 0 
N 45 31 0 
N 16 99 0 
N 11 95 0 
N 80 1 0 
N 83 63 0 
N 37 34 0 
N 25 37 0 
N 54 1 0 
N 81 38 0 
N 10 17 0 
N 15 95 0 
N 93 3 0 
N 51 93 0 
N 79 91 0 
N 59 85 0 
N 77 27 0 
N 65 81 0 
N 14 53 0 
N 97 59 0 
N 17 21 0 
N 50 27 0 
N 49 38 0 
N 37 2 0 
N 26 93 0 
N 46 55 0 
N 79 20 0 
N 63 36 0 
N 39 76 0 
N 37 33 0 
N 31 37 0 
N 1 40 0 
N 75 17 0 
N 51 43 0 
N 93 40 0 
N 99 42 0 
N 27 81 0 
N 67 8 0 
N 37 80 0 
N 63 23 0 
N 31 67 0 
N 43 7 0 
N 54 49 0 
N 94 13 0 
N 57 29 0 
N 77 91 0 
N 29 5 0 
N 5 86 0 
N 41 9 0 
N 33 76 0 
N 31 64 0 
N 57 51 0 
N 65 52 0 
N 35 23 0 
N 83 41 0 
N 13 31 0 
N 85 97 0 
N 96 75 0 
N 53 95 0 
N 73 27 0 
N 99 47 0 
N 4 31 0 
N 53 3 0 
N 58 27 0 
N 81 81 0 
N 57 78 0 
N 81 87 0 
N 3 65 0 
N 1 47 0 
N 30 61 0 
N 17 81 0 
N 79 35 0 
N 34 65 0 
N 81 71 0 
N 87 46 0 
N 48 35 0 
N 71 8 0 
N 61 5 0 
N 92 7 0 
N 9 42 0 
N 94 7 0 
N 55 48 0 
N 16 53 0 
N 26 35 0 
N 69 47 0 
N 91 41 0 
N 91 77 0 
N 91 34 0 
N 13 85 0 
N 51 65 0 
N 91 69 0 
N 79 13 0 
N 41 49 0 
N 15 61 0 
N 77 24 0 
N 6 21 0 
N 22 83 0 
N 33 22 0 
N 81 15 0 
N 32 65 0 
N 67 53 0 
N 93 53 0 
N 83 45 0 
N 1 9 0 
N 57 87 0 
N 83 66 0 
N 63 1 0 
N 13 61 0 
N 31 5 0 
N 17 72 0 
N 20 41 0 
N 23 27 0 
N 72 79 0 
N 73 80 0 
N 23 62 0 
N 19 68 0 
N 63 77 0 
N 92 77 0 
N 98 29 0 
N 66 17 0 
N 69 33 0 
N 67 30 0 
N 38 57 0 
N 95 63 0 
N 77 67 0 
N 4 3 0 
N 37 83 0 
N 63 35 0 
N 15 32 0 
N 19 88 0 
N 27 63 0 
N 11 12 0 
N 1 27 0 
N 85 65 0 
N 57 77 0 
N 19 71 0 
N 43 83 0 
N 7 11 0 
N 13 1 0 
N 39 13 0 
N 89 21 0 
N 43 49 0 
N 1 64 0 
N 33 87 0 
N 39 67 0 
N 35 10 0 
N 55 59 0 
N 91 39 0 
N 92 97 0 
N 67 29 0 
N 55 42 0 
N 79 23 0 
N 20 93 0 
N 97 24 0 
N 73 23 0 
N 86 15 0 
N 39 84 0 
N 52 19 0 
N 39 17 0 
N 31 29 0 
N 37 78 0 
N 51 39 0 
N 1 61 0 
N 70 15 0 
N 34 73 0 
N 94 67 0 
C 0 0 0 
C 2 0 0 
C 4 0 0 
C 6 0 0 
C 8 0 0 
C 10 0 0 
C 12 0 0 
C 14 0 0 
C 16 0 0 
C 18 0 0 
C 20 0 0 
C 22 0 0 
C 24 0 0 
C 26 0 0 
C 28 0 0 
C 30 0 0 
C 32 0 0 
C 34 0 0 
C 36 0 0 
C 38 0 0 
C 40 0 0 
C 42 0 0 
C 44 0 0 
C 46 0 0 
C 48 0 0 
C 50 0 0 
C 52 0 0 
C 54 0 0 
C 56 0 0 
C 58 0 0 
C 60 0 0 
C 62 0 0 
C 64 0 0 
C 66 0 0 
C 68 0 0 
C 70 0 0 
C 72 0 0 
C 74 0 0 
C 76 0 0 
C 78 0 0 
C 80 0 0 
C 82 0 0 
C 84 0 0 
C 86 0 0 
C 88 0 0 
C 90 0 0 
C 92 0 0 
C 94 0 0 
C 96 0 0 
C 98 0 0 
C 100 0 0 
C 0 2 0 
C 2 2 0 
C 4 2 0 
C 6 2 0 
C 8 2 0 
C 10 2 0 
C 12 2 0 
C 14 2 0 
C 16 2 0 
C 18 2 0 
C 20 2 0 
C 22 2 0 
C 24 2 0 
C 26 2 0 
C 28 2 0 
C 30 2 0 
C 32 2 0 
C 34 2 0 
C 36 2 0 
C 38 2 0 
C 40 2 0 
C 42 2 0 
C 44 2 0 
C 46 2 0 
C 48 2 0 
C 50 2 0 
C 52 2 0 
C 54 2 0 
C 56 2 0 
C 58 2 0 
C 60 2 0 
C 62 2 0 
C 64 2 0 
C 66 2 0 
C 68 2 0 
C 70 2 0 
C 72 2 0 
C 74 2 0 
C 76 2 0 
C 78 2 0 
C 80 2 0 
C 82 2 0 
C 84 2 0 
C 86 2 0 
C 88 2 0 
C 90 2 0 
C 92 2 0 
C 94 2 0 
C 96 2 0 
C 98 2 0 
C 100 2 0 
C 0 4 0 
C 2 4 0 
C 4 4 0 
C 6 4 0 
C 8 4 0 
C 10 4 0 
C 12 4 0 
C 14 4 0 
C 16 4 0 
C 18 4 0 
C 20 4 0 
C 22 4 0 
C 24 4 0 
C 26 4 0 
C 28 4 0 
C 30 4 0 
C 32 4 0 
C 34 4 0 
C 36 4 0 
C 38 4 0 
C 40 4 0 
C 42 4 0 
C 44 4 0 
C 46 4 0 
C 48 4 0 
C 50 4 0 
C 52 4 0 
C 54 4 0 
C 56 4 0 
C 58 4 0 
C 60 4 0 
C 62 4 0 
C 64 4 0 
C 66 4 0 
C 68 4 0 
C 70 4 0 
C 72 4 0 
C 74 4 0 
C 76 4 0 
C 78 4 0 
C 80 4 0 
C 82 4 0 
C 84 4 0 
C 86 4 0 
C 88 4 0 
C 90 4 0 
C 92 4 0 
C 94 4 0 
C 96 4 0 
C 98 4 0 
C 100 4 0 
C 0 6 0 
C 2 6 0 
C 4 6 0 
C 6 6 0 
C 8 6 0 
C 10 6 0 
C 12 6 0 
C 14 6 0 
C 16 6 0 
C 18 6 0 
C 20 6 0 
C 22 6 0 
C 24 6 0 
C 26 6 0 
C 28 6 0 
C 30 6 0 
C 32 6 0 
C 34 6 0 
C 36 6 0 
C 38 6 0 
C 40 6 0 
C 42 6 0 
C 44 6 0 
C 46 6 0 
C 48 6 0 
C 50 6 0 
C 52 6 0 
C 54 6 0 
C 56 6 0 
C 58 6 0 
C 60 6 0 
C 62 6 0 
C 64 6 0 
C 66 6 0 
C 68 6 0 
C 70 6 0 
C 72 6 0 
C 74 6 0 
C 76 6 0 
C 78 6 0 
C 80 6 0 
C 82 6 0 
C 84 6 0 
C 86 6 0 
C 88 6 0 
C 90 6 0 
C 92 6 0 
C 94 6 0 
C 96 6 0 
C 98 6 0 
C 100 6 0 
C 0 8 0 
C 2 8 0 
C 4 8 0 
C 6 8 0 
C 8 8 0 
C 10 8 0 
C 12 8 0 
C 14 8 0 
C 16 8 0 
C 18 8 0 
C 20 8 0 
C 22 8 0 
C 24 8 0 
C 26 8 0 
C 28 8 0 
C 30 8 0 
C 32 8 0 
C 34 8 0 
C 36 8 0 
C 38 8 0 
C 40 8 0 
C 42 8 0 
C 44 8 0 
C 46 8 0 
C 48 8 0 
C 50 8 0 
C 52 8 0 
C 54 8 0 
C 56 8 0 
C 58 8 0 
C 60 8 0 
C 62 8 0 
C 64 8 0 
C 66 8 0 
C 68 8 0 
C 70 8 0 
C 72 8 0 
C 74 8 0 
C 76 8 0 
C 78 8 0 
C 80 8 0 
C 82 8 0 
C 84 8 0 
C 86 8 0 
C 88 8 0 
C 90 8 0 
C 92 8 0 
C 94 8 0 
C 96 8 0 
C 98 8 0 
C 100 8 0 
C 0 10 0 
C 2 10 0 
C 4 10 0 
C 6 10 0 
C 8 10 0 
C 10 10 0 
C 12 10 0 
C 14 10 0 
C 16 10 0 
C 18 10 0 
C 20 10 0 
C 22 10 0 
C 24 10 0 
C 26 10 0 
C 28 10 0 
C 30 10 0 
C 32 10 0 
C 34 10 0 
C 36 10 0 
C 38 10 0 
C 40 10 0 
C 42 10 0 
C 44 10 0 
C 46 10 0 
C 48 10 0 
C 50 10 0 
C 52 10 0 
C 54 10 0 
C 56 10 0 
C 58 10 0 
C 60 10 0 
C 62 10 0 
C 64 10 0 
C 66 10 0 
C 68 10 0 
C 70 10 0 
C 72 10 0 
C 74 10 0 
C 76 10 0 
C 78 10 0 
C 80 10 0 
C 82 10 0 
C 84 10 0 
C 86 10 0 
C 88 10 0 
C 90 10 0 
C 92 10 0 
C 94 10 0 
C 96 10 0 
C 98 10 0 
C 100 10 0 
C 0 12 0 
C 2 12 0 
C 4 12 0 
C 6 12 0 
C 8 12 0 
C 10 12 0 
C 12 12 0 
C 14 12 0 
C 16 12 0 
C 18 12 0 
C 20 12 0 
C 22 12 0 
C 24 12 0 
C 26 12 0 
C 28 12 0 
C 30 12 0 
C 32 12 0 
C 34 12 0 
C 36 12 0 
C 38 12 0 
C 40 12 0 
C 42 12 0 
C 44 12 0 
C 46 12 0 
C 48 12 0 
C 50 12 0 
C 52 12 0 
C 54 12 0 
C 56 12 0 
C 58 12 0 
C 60 12 0 
C 62 12 0 
C 64 12 0 
C 66 12 0 
C 68 12 0 
C 70 12 0 
C 72 12 0 
C 74 12 0 
C 76 12 0 
C 78 12 0 
C 80 12 0 
C 82 12 0 
C 84 12 0 
C 86 12 0 
C 88 12 0 
C 90 12 0 
C 92 12 0 
C 94 12 0 
C 96 12 0 
C 98 12 0 
C 100 12 0 
C 0 14 0 
C 2 14 0 
C 4 14 0 
C 6 14 0 
C 8 14 0 
C 10 14 0 
C 12 14 0 
C 14 14 0 
C 16 14 0 
C 18 14 0 
C 20 14 0 
C 22 14 0 
C 24 14 0 
C 26 14 0 
C 28 14 0 
C 30 14 0 
C 32 14 0 
C 34 14 0 
C 36 14 0 
C 38 14 0 
C 40 14 0 
C 42 14 0 
C 44 14 0 
C 46 14 0 
C 48 14 0 
C 50 14 0 
C 52 14 0 
C 54 14 0 
C 56 14 0 
C 58 14 0 
C 60 14 0 
C 62 14 0 
C 64 14 0 
C 66 14 0 
C 68 14 0 
C 70 14 0 
C 72 14 0 
C 74 14 0 
C 76 14 0 
C 78 14 0 
C 80 14 0 
C 82 14 0 
C 84 14 0 
C 86 14 0 
C 88 14 0 
C 90 14 0 
C 92 14 0 
C 94 14 0 
C 96 14 0 
C 98 14 0 
C 100 14 0 
C 0 16 0 
C 2 16 0 
C 4 16 0 
C 6 16 0 
C 8 16 0 
C 10 16 0 
C 12 16 0 
C 14 16 0 
C 16 16 0 
C 18 16 0 
C 20 16 0 
C 22 16 0 
C 24 16 0 
C 26 16 0 
C 28 16 0 
C 30 16 0 
C 32 16 0 
C 34 16 0 
C 36 16 0 
C 38 16 0 
C 40 16 0 
C 42 16 0 
C 44 16 0 
C 46 16 0 
C 48 16 0 
C 50 16 0 
C 52 16 0 
C 54 16 0 
C 56 16 0 
C 58 16 0 
C 60 16 0 
C 62 16 0 
C 64 16 0 
C 66 16 0 
C 68 16 0 
C 70 16 0 
C 72 16 0 
C 74 16 0 
C 76 16 0 
C 78 16 0 
C 80 16 0 
C 82 16 0 
C 84 16 0 
C 86 16 0 
C 88 16 0 
C 90 16 0 
C 92 16 0 
C 94 16 0 
C 96 16 0 
C 98 16 0 
C 100 16 0 
C 0 18 0 
C 2 18 0 
C 4 18 0 
C 6 18 0 
C 8 18 0 
C 10 18 0 
C 12 18 0 
C 14 18 0 
C 16 18 0 
C 18 18 0 
C 20 18 0 
C 22 18 0 
C 24 18 0 
C 26 18 0 
C 28 18 0 
C 30 18 0 
C 32 18 0 
C 34 18 0 
C 36 18 0 
C 38 18 0 
C 40 18 0 
C 42 18 0 
C 44 18 0 
C 46 18 0 
C 48 18 0 
C 50 18 0 
C 52 18 0 
C 54 18 0 
C 56 18 0 
C 58 18 0 
C 60 18 0 
C 62 18 0 
C 64 18 0 
C 66 18 0 
C 68 18 0 
C 70 18 0 
C 72 18 0 
C 74 18 0 
C 76 18 0 
C 78 18 0 
C 80 18 0 
C 82 18 0 
C 84 18 0 
C 86 18 0 
C 88 18 0 
C 90 18 0 
C 92 18 0 
C 94 18 0 
C 96 18 0 
C 98 18 0 
C 100 18 0 
C 0 20 0 
C 2 20 0 
C 4 20 0 
C 6 20 0 
C 8 20 0 
C 10 20 0 
C 12 20 0 
C 14 20 0 
C 16 20 0 
C 18 20 0 
C 20 20 0 
C 22 20 0 
C 24 20 0 
C 26 20 0 
C 28 20 0 
C 30 20 0 
C 32 20 0 
C 34 20 0 
C 36 20 0 
C 38 20 0 
C 40 20 0 
C 42 20 0 
C 44 20 0 
C 46 20 0 
C 48 20 0 
C 50 20 0 
C 52 20 0 
C 54 20 0 
C 56 20 0 
C 58 20 0 
C 60 20 0 
C 62 20 0 
C 64 20 0 
C 66 20 0 
C 68 20 0 
C 70 20 0 
C 72 20 0 
C 74 20 0 
C 76 20 0 
C 78 20 0 
C 80 20 0 
C 82 20 0 
C 84 20 0 
C 86 20 0 
C 88 20 0 
C 90 20 0 
C 92 20 0 
C 94 20 0 
C 96 20 0 
C 98 20 0 
C 100 20 0 
C 0 22 0 
C 2 22 0 
C 4 22 0 
C 6 22 0 
C 8 22 0 
C 10 22 0 
C 12 22 0 
C 14 22 0 
C 16 22 0 
C 18 22 0 
C 20 22 0 
C 22 22 0 
C 24 22 0 
C 26 22 0 
C 28 22 0 
C 30 22 0 
C 32 22 0 
C 34 22 0 
C 36 22 0 
C 38 22 0 
C 40 22 0 
C 42 22 0 
C 44 22 0 
C 46 22 0 
C 48 22 0 
C 50 22 0 
C 52 22 0 
C 54 22 0 
C 56 22 0 
C 58 22 0 
C 60 22 0 
C 62 22 0 
C 64 22 0 
C 66 22 0 
C 68 22 0 
C 70 22 0 
C 72 22 0 
C 74 22 0 
C 76 22 0 
C 78 22 0 
C 80 22 0 
C 82 22 0 
C 84 22 0 
C 86 22 0 
C 88 22 0 
C 90 22 0 
C 92 22 0 
C 94 22 0 
C 96 22 0 
C 98 22 0 
C 100 22 0 
C 0 24 0 
C 2 24 0 
C 4 24 0 
C 6 24 0 
C 8 24 0 
C 10 24 0 
C 12 24 0 
C 14 24 0 
C 16 24 0 
C 18 24 0 
C 20 24 0 
C 22 24 0 
C 24 24 0 
C 26 24 0 
C 28 24 0 
C 30 24 0 
C 32 24 0 
C 34 24 0 
C 36 24 0 
C 38 24 0 
C 40 24 0 
C 42 24 0 
C 44 24 0 
C 46 24 0 
C 48 24 0 
C 50 24 0 
C 52 24 0 
C 54 24 0 
C 56 24 0 
C 58 24 0 
C 60 24 0 
C 62 24 0 
C 64 24 0 
C 66 24 0 
C 68 24 0 
C 70 24 0 
C 72 24 0 
C 74 24 0 
C 76 24 0 
C 78 24 0 
C 80 24 0 
C 82 24 0 
C 84 24 0 
C 86 24 0 
C 88 24 0 
C 90 24 0 
C 92 24 0 
C 94 24 0 
C 96 24 0 
C 98 24 0 
C 100 24 0 
C 0 26 0 
C 2 26 0 
C 4 26 0 
C 6 26 0 
C 8 26 0 
C 10 26 0 
C 12 26 0 
C 14 26 0 
C 16 26 0 
C 18 26 0 
C 20 26 0 
C 22 26 0 
C 24 26 0 
C 26 26 0 
C 28 26 0 
C 30 26 0 
C 32 26 0 
C 34 26 0 
C 36 26 0 
C 38 26 0 
C 40 26 0 
C 42 26 0 
C 44 26 0 
C 46 26 0 
C 48 26 0 
C 50 26 0 
C 52 26 0 
C 54 26 0 
C 56 26 0 
C 58 26 0 
C 60 26 0 
C 62 26 0 
C 64 26 0 
C 66 26 0 
C 68 26 0 
C 70 26 0 
C 72 26 0 
C 74 26 0 
C 76 26 0 
C 78 26 0 
C 80 26 0 
C 82 26 0 
C 84 26 0 
C 86 26 0 
C 88 26 0 
C 90 26 0 
C 92 26 0 
C 94 26 0 
C 96 26 0 
C 98 26 0 
C 100 26 0 
C 0 28 0 
C 2 28 0 
C 4 28 0 
C 6 28 0 
C 8 28 0 
C 10 28 0 
C 12 28 0 
C 14 28 0 
C 16 28 0 
C 18 28 0 
C 20 28 0 
C 22 28 0 
C 24 28 0 
C 26 28 0 
C 28 28 0 
C 30 28 0 
C 32 28 0 
C 34 28 0 
C 36 28 0 
C 38 28 0 
C 40 28 0 
C 42 28 0 
C 44 28 0 
C 46 28 0 
C 48 28 0 
C 50 28 0 
C 52 28 0 
C 54 28 0 
C 56 28 0 
C 58 28 0 
C 60 28 0 
C 62 28 0 
C 64 28 0 
C 66 28 0 
C 68 28 0 
C 70 28 0 
C 72 28 0 
C 74 28 0 
C 76 28 0 
C 78 28 0 
C 80 28 0 
C 82 28 0 
C 84 28 0 
C 86 28 0 
C 88 28 0 
C 90 28 0 
C 92 28 0 
C 94 28 0 
C 96 28 0 
C 98 28 0 
C 100 28 0 
C 0 30 0 
C 2 30 0 
C 4 30 0 
C 6 30 0 
C 8 30 0 
C 10 30 0 
C 12 30 0 
C 14 30 0 
C 16 30 0 
C 18 30 0 
C 20 30 0 
C 22 30 0 
C 24 30 0 
C 26 30 0 
C 28 30 0 
C 30 30 0 
C 32 30 0 
C 34 30 0 
C 36 30 0 
C 38 30 0 
C 40 30 0 
C 42 30 0 
C 44 30 0 
C 46 30 0 
C 48 30 0 
C 50 30 0 
C 52 30 0 
C 54 30 0 
C 56 30 0 
C 58 30 0 
C 60 30 0 
C 62 30 0 
C 64 30 0 
C 66 30 0 
C 68 30 0 
C 70 30 0 
C 72 30 0 
C 74 30 0 
C 76 30 0 
C 78 30 0 
C 80 30 0 
C 82 30 0 
C 84 30 0 
C 86 30 0 
C 88 30 0 
C 90 30 0 
C 92 30 0 
C 94 30 0 
C 96 30 0 
C 98 30 0 
C 100 30 0 
C 0 32 0 
C 2 32 0 
C 4 32 0 
C 6 32 0 
C 8 32 0 
C 10 32 0 
C 12 32 0 
C 14 32 0 
C 16 32 0 
C 18 32 0 
C 20 32 0 
C 22 32 0 
C 24 32 0 
C 26 32 0 
C 28 32 0 
C 30 32 0 
C 32 32 0 
C 34 32 0 
C 36 32 0 
C 38 32 0 
C 40 32 0 
C 42 32 0 
C 44 32 0 
C 46 32 0 
C 48 32 0 
C 50 32 0 
C 52 32 0 
C 54 32 0 
C 56 32 0 
C 58 32 0 
C 60 32 0 
C 62 32 0 
C 64 32 0 
C 66 32 0 
C 68 32 0 
C 70 32 0 
C 72 32 0 
C 74 32 0 
C 76 32 0 
C 78 32 0 
C 80 32 0 
C 82 32 0 
C 84 32 0 
C 86 32 0 
C 88 32 0 
C 90 32 0 
C 92 32 0 
C 94 32 0 
C 96 32 0 
C 98 32 0 
C 100 32 0 
C 0 34 0 
C 2 34 0 
C 4 34 0 
C 6 34 0 
C 8 34 0 
C 10 34 0 
C 12 34 0 
C 14 34 0 
C 16 34 0 
C 18 34 0 
C 20 34 0 
C 22 34 0 
C 24 34 0 
C 26 34 0 
C 28 34 0 
C 30 34 0 
C 32 34 0 
C 34 34 0 
C 36 34 0 
C 38 34 0 
C 40 34 0 
C 42 34 0 
C 44 34 0 
C 46 34 0 
C 48 34 0 
C 50 34 0 
C 52 34 0 
C 54 34 0 
C 56 34 0 
C 58 34 0 
C 60 34 0 
C 62 34 0 
C 64 34 0 
C 66 34 0 
C 68 34 0 
C 70 34 0 
C 72 34 0 
C 74 34 0 
C 76 34 0 
C 78 34 0 
C 80 34 0 
C 82 34 0 
C 84 34 0 
C 86 34 0 
C 88 34 0 
C 90 34 0 
C 92 34 0 
C 94 34 0 
C 96 34 0 
C 98 34 0 
C 100 34 0 
C 0 36 0 
C 2 36 0 
C 4 36 0 
C 6 36 0 
C 8 36 0 
C 10 36 0 
C 12 36 0 
C 14 36 0 
C 16 36 0 
C 18 36 0 
C 20 36 0 
C 22 36 0 
C 24 36 0 
C 26 36 0 
C 28 36 0 
C 30 36 0 
C 32 36 0 
C 34 36 0 
C 36 36 0 
C 38 36 0 
C 40 36 0 
C 42 36 0 
C 44 36 0 
C 46 36 0 
C 48 36 0 
C 50 36 0 
C 52 36 0 
C 54 36 0 
C 56 36 0 
C 58 36 0 
C 60 36 0 
C 62 36 0 
C 64 36 0 
C 66 36 0 
C 68 36 0 
C 70 36 0 
C 72 36 0 
C 74 36 0 
C 76 36 0 
C 78 36 0 
C 80 36 0 
C 82 36 0 
C 84 36 0 
C 86 36 0 
C 88 36 0 
C 90 36 0 
C 92 36 0 
C 94 36 0 
C 96 36 0 
C 98 36 0 
C 100 36 0 
C 0 38 0 
C 2 38 0 
C 4 38 0 
C 6 38 0 
C 8 38 0 
C 10 38 0 
C 12 38 0 
C 14 38 0 
C 16 38 0 
C 18 38 0 
C 20 38 0 
C 22 38 0 
C 24 38 0 
C 26 38 0 
C 28 38 0 
C 30 38 0 
C 32 38 0 
C 34 38 0 
C 36 38 0 
C 38 38 0 
C 40 38 0 
C 42 38 0 
C 44 38 0 
C 46 38 0 
C 48 38 0 
C 50 38 0 
C 52 38 0 
C 54 38 0 
C 56 38 0 
C 58 38 0 
C 60 38 0 
C 62 38 0 
C 64 38 0 
C 66 38 0 
C 68 38 0 
C 70 38 0 
C 72 38 0 
C 74 38 0 
C 76 38 0 
C 78 38 0 
C 80 38 0 
C 82 38 0 
C 84 38 0 
C 86 38 0 
C 88 38 0 
C 90 38 0 
C 92 38 0 
C 94 38 0 
C 96 38 0 
C 98 38 0 
C 100 38 0 
C 0 40 0 
C 2 40 0 
C 4 40 0 
C 6 40 0 
C 8 40 0 
C 10 40 0 
C 12 40 0 
C 14 40 0 
C 16 40 0 
C 18 40 0 
C 20 40 0 
C 22 40 0 
C 24 40 0 
C 26 40 0 
C 28 40 0 
C 30 40 0 
C 32 40 0 
C 34 40 0 
C 36 40 0 
C 38 40 0 
C 40 40 0 
C 42 40 0 
C 44 40 0 
C 46 40 0 
C 48 40 0 
C 50 40 0 
C 52 40 0 
C 54 40 0 
C 56 40 0 
C 58 40 0 
C 60 40 0 
C 62 40 0 
C 64 40 0 
C 66 40 0 
C 68 40 0 
C 70 40 0 
C 72 40 0 
C 74 40 0 
C 76 40 0 
C 78 40 0 
C 80 40 0 
C 82 40 0 
C 84 40 0 
C 86 40 0 
C 88 40 0 
C 90 40 0 
C 92 40 0 
C 94 40 0 
C 96 40 0 
C 98 40 0 
C 100 40 0 
C 0 42 0 
C 2 42 0 
C 4 42 0 
C 6 42 0 
C 8 42 0 
C 10 42 0 
C 12 42 0 
C 14 42 0 
C 16 42 0 
C 18 42 0 
C 20 42 0 
C 22 42 0 
C 24 42 0 
C 26 42 0 
C 28 42 0 
C 30 42 0 
C 32 42 0 
C 34 42 0 
C 36 42 0 
C 38 42 0 
C 40 42 0 
C 42 42 0 
C 44 42 0 
C 46 42 0 
C 48 42 0 
C 50 42 0 
C 52 42 0 
C 54 42 0 
C 56 42 0 
C 58 42 0 
C 60 42 0 
C 62 42 0 
C 64 42 0 
C 66 42 0 
C 68 42 0 
C 70 42 0 
C 72 42 0 
C 74 42 0 
C 76 42 0 
C 78 42 0 
C 80 42 0 
C 82 42 0 
C 84 42 0 
C 86 42 0 
C 88 42 0 
C 90 42 0 
C 92 42 0 
C 94 42 0 
C 96 42 0 
C 98 42 0 
C 100 42 0 
C 0 44 0 
C 2 44 0 
C 4 44 0 
C 6 44 0 
C 8 44 0 
C 10 44 0 
C 12 44 0 
C 14 44 0 
C 16 44 0 
C 18 44 0 
C 20 44 0 
C 22 44 0 
C 24 44 0 
C 26 44 0 
C 28 44 0 
C 30 44 0 
C 32 44 0 
C 34 44 0 
C 36 44 0 
C 38 44 0 
C 40 44 0 
C 42 44 0 
C 44 44 0 
C 46 44 0 
C 48 44 0 
C 50 44 0 
C 52 44 0 
C 54 44 0 
C 56 44 0 
C 58 44 0 
C 60 44 0 
C 62 44 0 
C 64 44 0 
C 66 44 0 
C 68 44 0 
C 70 44 0 
C 72 44 0 
C 74 44 0 
C 76 44 0 
C 78 44 0 
C 80 44 0 
C 82 44 0 
C 84 44 0 
C 86 44 0 
C 88 44 0 
C 90 44 0 
C 92 44 0 
C 94 44 0 
C 96 44 0 
C 98 44 0 
C 100 44 0 
C 0 46 0 
C 2 46 0 
C 4 46 0 
C 6 46 0 
C 8 46 0 
C 10 46 0 
C 12 46 0 
C 14 46 0 
C 16 46 0 
C 18 46 0 
C 20 46 0 
C 22 46 0 
C 24 46 0 
C 26 46 0 
C 28 46 0 
C 30 46 0 
C 32 46 0 
C 34 46 0 
C 36 46 0 
C 38 46 0 
C 40 46 0 
C 42 46 0 
C 44 46 0 
C 46 46 0 
C 48 46 0 
C 50 46 0 
C 52 46 0 
C 54 46 0 
C 56 46 0 
C 58 46 0 
C 60 46 0 
C 62 46 0 
C 64 46 0 
C 66 46 0 
C 68 46 0 
C 70 46 0 
C 72 46 0 
C 74 46 0 
C 76 46 0 
C 78 46 0 
C 80 46 0 
C 82 46 0 
C 84 46 0 
C 86 46 0 
C 88 46 0 
C 90 46 0 
C 92 46 0 
C 94 46 0 
C 96 46 0 
C 98 46 0 
C 100 46 0 
C 0 48 0 
C 2 48 0 
C 4 48 0 
C 6 48 0 
C 8 48 0 
C 10 48 0 
C 12 48 0 
C 14 48 0 
C 16 48 0 
C 18 48 0 
C 20 48 0 
C 22 48 0 
C 24 48 0 
C 26 48 0 
C 28 48 0 
C 30 48 0 
C 32 48 0 
C 34 48 0 
C 36 48 0 
C 38 48 0 
C 40 48 0 
C 42 48 0 
C 44 48 0 
C 46 48 0 
C 48 48 0 
C 50 48 0 
C 52 48 0 
C 54 48 0 
C 56 48 0 
C 58 48 0 
C 60 48 0 
C 62 48 0 
C 64 48 0 
C 66 48 0 
C 68 48 0 
C 70 48 0 
C 72 48 0 
C 74 48 0 
C 76 48 0 
C 78 48 0 
C 80 48 0 
C 82 48 0 
C 84 48 0 
C 86 48 0 
C 88 48 0 
C 90 48 0 
C 92 48 0 
C 94 48 0 
C 96 48 0 
C 98 48 0 
C 100 48 0 
C 0 50 0 
C 2 50 0 
C 4 50 0 
C 6 50 0 
C 8 50 0 
C 10 50 0 
C 12 50 0 
C 14 50 0 
C 16 50 0 
C 18 50 0 
C 20 50 0 
C 22 50 0 
C 24 50 0 
C 26 50 0 
C 28 50 0 
C 30 50 0 
C 32 50 0 
C 34 50 0 
C 36 50 0 
C 38 50 0 
C 40 50 0 
C 42 50 0 
C 44 50 0 
C 46 50 0 
C 48 50 0 
C 50 50 0 
C 52 50 0 
C 54 50 0 
C 56 50 0 
C 58 50 0 
C 60 50 0 
C 62 50 0 
C 64 50 0 
C 66 50 0 
C 68 50 0 
C 70 50 0 
C 72 50 0 
C 74 50 0 
C 76 50 0 
C 78 50 0 
C 80 50 0 
C 82 50 0 
C 84 50 0 
C 86 50 0 
C 88 50 0 
C 90 50 0 
C 92 50 0 
C 94 50 0 
C 96 50 0 
C 98 50 0 
C 100 50 0 
C 0 52 0 
C 2 52 0 
C 4 52 0 
C 6 52 0 
C 8 52 0 
C 10 52 0 
C 12 52 0 
C 14 52 0 
C 16 52 0 
C 18 52 0 
C 20 52 0 
C 22 52 0 
C 24 52 0 
C 26 52 0 
C 28 52 0 
C 30 52 0 
C 32 52 0 
C 34 52 0 
C 36 52 0 
C 38 52 0 
C 40 52 0 
C 42 52 0 
C 44 52 0 
C 46 52 0 
C 48 52 0 
C 50 52 0 
C 52 52 0 
C 54 52 0 
C 56 52 0 
C 58 52 0 
C 60 52 0 
C 62 52 0 
C 64 52 0 
C 66 52 0 
C 68 52 0 
C 70 52 0 
C 72 52 0 
C 74 52 0 
C 76 52 0 
C 78 52 0 
C 80 52 0 
C 82 52 0 
C 84 52 0 
C 86 52 0 
C 88 52 0 
C 90 52 0 
C 92 52 0 
C 94 52 0 
C 96 52 0 
C 98 52 0 
C 100 52 0 
C 0 54 0 
C 2 54 0 
C 4 54 0 
C 6 54 0 
C 8 54 0 
C 10 54 0 
C 12 54 0 
C 14 54 0 
C 16 54 0 
C 18 54 0 
C 20 54 0 
C 22 54 0 
C 24 54 0 
C 26 54 0 
C 28 54 0 
C 30 54 0 
C 32 54 0 
C 34 54 0 
C 36 54 0 
C 38 54 0 
C 40 54 0 
C 42 54 0 
C 44 54 0 
C 46 54 0 
C 48 54 0 
C 50 54 0 
C 52 54 0 
C 54 54 0 
C 56 54 0 
C 58 54 0 
C 60 54 0 
C 62 54 0 
C 64 54 0 
C 66 54 0 
C 68 54 0 
C 70 54 0 
C 72 54 0 
C 74 54 0 
C 76 54 0 
C 78 54 0 
C 80 54 0 
C 82 54 0 
C 84 54 0 
C 86 54 0 
C 88 54 0 
C 90 54 0 
C 92 54 0 
C 94 54 0 
C 96 54 0 
C 98 54 0 
C 100 54 0 
C 0 56 0 
C 2 56 0 
C 4 56 0 
C 6 56 0 
C 8 56 0 
C 10 56 0 
C 12 56 0 
C 14 56 0 
C 16 56 0 
C 18 56 0 
C 20 56 0 
C 22 56 0 
C 24 56 0 
C 26 56 0 
C 28 56 0 
C 30 56 0 
C 32 56 0 
C 34 56 0 
C 36 56 0 
C 38 56 0 
C 40 56 0 
C 42 56 0 
C 44 56 0 
C 46 56 0 
C 48 56 0 
C 50 56 0 
C 52 56 0 
C 54 56 0 
C 56 56 0 
C 58 56 0 
C 60 56 0 
C 62 56 0 
C 64 56 0 
C 66 56 0 
C 68 56 0 
C 70 56 0 
C 72 56 0 
C 74 56 0 
C 76 56 0 
C 78 56 0 
C 80 56 0 
C 82 56 0 
C 84 56 0 
C 86 56 0 
C 88 56 0 
C 90 56 0 
C 92 56 0 
C 94 56 0 
C 96 56 0 
C 98 56 0 
C 100 56 0 
C 0 58 0 
C 2 58 0 
C 4 58 0 
C 6 58 0 
C 8 58 0 
C 10 58 0 
C 12 58 0 
C 14 58 0 
C 16 58 0 
C 18 58 0 
C 20 58 0 
C 22 58 0 
C 24 58 0 
C 26 58 0 
C 28 58 0 
C 30 58 0 
C 32 58 0 
C 34 58 0 
C 36 58 0 
C 38 58 0 
C 40 58 0 
C 42 58 0 
C 44 58 0 
C 46 58 0 
C 48 58 0 
C 50 58 0 
C 52 58 0 
C 54 58 0 
C 56 58 0 
C 58 58 0 
C 60 58 0 
C 62 58 0 
C 64 58 0 
C 66 58 0 
C 68 58 0 
C 70 58 0 
C 72 58 0 
C 74 58 0 
C 76 58 0 
C 78 58 0 
C 80 58 0 
C 82 58 0 
C 84 58 0 
C 86 58 0 
C 88 58 0 
C 90 58 0 
C 92 58 0 
C 94 58 0 
C 96 58 0 
C 98 58 0 
C 100 58 0 
C 0 60 0 
C 2 60 0 
C 4 60 0 
C 6 60 0 
C 8 60 0 
C 10 60 0 
C 12 60 0 
C 14 60 0 
C 16 60 0 
C 18 60 0 
C 20 60 0 
C 22 60 0 
C 24 60 0 
C 26 60 0 
C 28 60 0 
C 30 60 0 
C 32 60 0 
C 34 60 0 
C 36 60 0 
C 38 60 0 
C 40 60 0 
C 42 60 0 
C 44 60 0 
C 46 60 0 
C 48 60 0 
C 50 60 0 
C 52 60 0 
C 54 60 0 
C 56 60 0 
C 58 60 0 
C 60 60 0 
C 62 60 0 
C 64 60 0 
C 66 60 0 
C 68 60 0 
C 70 60 0 
C 72 60 0 
C 74 60 0 
C 76 60 0 
C 78 60 0 
C 80 60 0 
C 82 60 0 
C 84 60 0 
C 86 60 0 
C 88 60 0 
C 90 60 0 
C 92 60 0 
C 94 60 0 
C 96 60 0 
C 98 60 0 
C 100 60 0 
C 0 62 0 
C 2 62 0 
C 4 62 0 
C 6 62 0 
C 8 62 0 
C 10 62 0 
C 12 62 0 
C 14 62 0 
C 16 62 0 
C 18 62 0 
C 20 62 0 
C 22 62 0 
C 24 62 0 
C 26 62 0 
C 28 62 0 
C 30 62 0 
C 32 62 0 
C 34 62 0 
C 36 62 0 
C 38 62 0 
C 40 62 0 
C 42 62 0 
C 44 62 0 
C 46 62 0 
C 48 62 0 
C 50 62 0 
C 52 62 0 
C 54 62 0 
C 56 62 0 
C 58 62 0 
C 60 62 0 
C 62 62 0 
C 64 62 0 
C 66 62 0 
C 68 62 0 
C 70 62 0 
C 72 62 0 
C 74 62 0 
C 76 62 0 
C 78 62 0 
C 80 62 0 
C 82 62 0 
C 84 62 0 
C 86 62 0 
C 88 62 0 
C 90 62 0 
C 92 62 0 
C 94 62 0 
C 96 62 0 
C 98 62 0 
C 100 62 0 
C 0 64 0 
C 2 64 0 
C 4 64 0 
C 6 64 0 
C 8 64 0 
C 10 64 0 
C 12 64 0 
C 14 64 0 
C 16 64 0 
C 18 64 0 
C 20 64 0 
C 22 64 0 
C 24 64 0 
C 26 64 0 
C 28 64 0 
C 30 64 0 
C 32 64 0 
C 34 64 0 
C 36 64 0 
C 38 64 0 
C 40 64 0 
C 42 64 0 
C 44 64 0 
C 46 64 0 
C 48 64 0 
C 50 64 0 
C 52 64 0 
C 54 64 0 
C 56 64 0 
C 58 64 0 
C 60 64 0 
C 62 64 0 
C 64 64 0 
C 66 64 0 
C 68 64 0 
C 70 64 0 
C 72 64 0 
C 74 64 0 
C 76 64 0 
C 78 64 0 
C 80 64 0 
C 82 64 0 
C 84 64 0 
C 86 64 0 
C 88 64 0 
C 90 64 0 
C 92 64 0 
C 94 64 0 
C 96 64 0 
C 98 64 0 
C 100 64 0 
C 0 66 0 
C 2 66 0 
C 4 66 0 
C 6 66 0 
C 8 66 0 
C 10 66 0 
C 12 66 0 
C 14 66 0 
C 16 66 0 
C 18 66 0 
C 20 66 0 
C 22 66 0 
C 24 66 0 
C 26 66 0 
C 28 66 0 
C 30 66 0 
C 32 66 0 
C 34 66 0 
C 36 66 0 
C 38 66 0 
C 40 66 0 
C 42 66 0 
C 44 66 0 
C 46 66 0 
C 48 66 0 
C 50 66 0 
C 52 66 0 
C 54 66 0 
C 56 66 0 
C 58 66 0 
C 60 66 0 
C 62 66 0 
C 64 66 0 
C 66 66 0 
C 68 66 0 
C 70 66 0 
C 72 66 0 
C 74 66 0 
C 76 66 0 
C 78 66 0 
C 80 66 0 
C 82 66 0 
C 84 66 0 
C 86 66 0 
C 88 66 0 
C 90 66 0 
C 92 66 0 
C 94 66 0 
C 96 66 0 
C 98 66 0 
C 100 66 0 
C 0 68 0 
C 2 68 0 
C 4 68 0 
C 6 68 0 
C 8 68 0 
C 10 68 0 
C 12 68 0 
C 14 68 0 
C 16 68 0 
C 18 68 0 
C 20 68 0 
C 22 68 0 
C 24 68 0 
C 26 68 0 
C 28 68 0 
C 30 68 0 
C 32 68 0 
C 34 68 0 
C 36 68 0 
C 38 68 0 
C 40 68 0 
C 42 68 0 
C 44 68 0 
C 46 68 0 
C 48 68 0 
C 50 68 0 
C 52 68 0 
C 54 68 0 
C 56 68 0 
C 58 68 0 
C 60 68 0 
C 62 68 0 
C 64 68 0 
C 66 68 0 
C 68 68 0 
C 70 68 0 
C 72 68 0 
C 74 68 0 
C 76 68 0 
C 78 68 0 
C 80 68 0 
C 82 68 0 
C 84 68 0 
C 86 68 0 
C 88 68 0 
C 90 68 0 
C 92 68 0 
C 94 68 0 
C 96 68 0 
C 98 68 0 
C 100 68 0 
C 0 70 0 
C 2 70 0 
C 4 70 0 
C 6 70 0 
C 8 70 0 
C 10 70 0 
C 12 70 0 
C 14 70 0 
C 16 70 0 
C 18 70 0 
C 20 70 0 
C 22 70 0 
C 24 70 0 
C 26 70 0 
C 28 70 0 
C 30 70 0 
C 32 70 0 
C 34 70 0 
C 36 70 0 
C 38 70 0 
C 40 70 0 
C 42 70 0 
C 44 70 0 
C 46 70 0 
C 48 70 0 
C 50 70 0 
C 52 70 0 
C 54 70 0 
C 56 70 0 
C 58 70 0 
C 60 70 0 
C 62 70 0 
C 64 70 0 
C 66 70 0 
C 68 70 0 
C 70 70 0 
C 72 70 0 
C 74 70 0 
C 76 70 0 
C 78 70 0 
C 80 70 0 
C 82 70 0 
C 84 70 0 
C 86 70 0 
C 88 70 0 
C 90 70 0 
C 92 70 0 
C 94 70 0 
C 96 70 0 
C 98 70 0 
C 100 70 0 
C 0 72 0 
C 2 72 0 
C 4 72 0 
C 6 72 0 
C 8 72 0 
C 10 72 0 
C 12 72 0 
C 14 72 0 
C 16 72 0 
C 18 72 0 
C 20 72 0 
C 22 72 0 
C 24 72 0 
C 26 72 0 
C 28 72 0 
C 30 72 0 
C 32 72 0 
C 34 72 0 
C 36 72 0 
C 38 72 0 
C 40 72 0 
C 42 72 0 
C 44 72 0 
C 46 72 0 
C 48 72 0 
C 50 72 0 
C 52 72 0 
C 54 72 0 
C 56 72 0 
C 58 72 0 
C 60 72 0 
C 62 72 0 
C 64 72 0 
C 66 72 0 
C 68 72 0 
C 70 72 0 
C 72 72 0 
C 74 72 0 
C 76 72 0 
C 78 72 0 
C 80 72 0 
C 82 72 0 
C 84 72 0 
C 86 72 0 
C 88 72 0 
C 90 72 0 
C 92 72 0 
C 94 72 0 
C 96 72 0 
C 98 72 0 
C 100 72 0 
C 0 74 0 
C 2 74 0 
C 4 74 0 
C 6 74 0 
C 8 74 0 
C 10 74 0 
C 12 74 0 
C 14 74 0 
C 16 74 0 
C 18 74 0 
C 20 74 0 
C 22 74 0 
C 24 74 0 
C 26 74 0 
C 28 74 0 
C 30 74 0 
C 32 74 0 
C 34 74 0 
C 36 74 0 
C 38 74 0 
C 40 74 0 
C 42 74 0 
C 44 74 0 
C 46 74 0 
C 48 74 0 
C 50 74 0 
C 52 74 0 
C 54 74 0 
C 56 74 0 
C 58 74 0 
C 60 74 0 
C 62 74 0 
C 64 74 0 
C 66 74 0 
C 68 74 0 
C 70 74 0 
C 72 74 0 
C 74 74 0 
C 76 74 0 
C 78 74 0 
C 80 74 0 
C 82 74 0 
C 84 74 0 
C 86 74 0 
C 88 74 0 
C 90 74 0 
C 92 74 0 
C 94 74 0 
C 96 74 0 
C 98 74 0 
C 100 74 0 
C 0 76 0 
C 2 76 0 
C 4 76 0 
C 6 76 0 
C 8 76 0 
C 10 76 0 
C 12 76 0 
C 14 76 0 
C 16 76 0 
C 18 76 0 
C 20 76 0 
C 22 76 0 
C 24 76 0 
C 26 76 0 
C 28 76 0 
C 30 76 0 
C 32 76 0 
C 34 76 0 
C 36 76 0 
C 38 76 0 
C 40 76 0 
C 42 76 0 
C 44 76 0 
C 46 76 0 
C 48 76 0 
C 50 76 0 
C 52 76 0 
C 54 76 0 
C 56 76 0 
C 58 76 0 
C 60 76 0 
C 62 76 0 
C 64 76 0 
C 66 76 0 
C 68 76 0 
C 70 76 0 
C 72 76 0 
C 74 76 0 
C 76 76 0 
C 78 76 0 
C 80 76 0 
C 82 76 0 
C 84 76 0 
C 86 76 0 
C 88 76 0 
C 90 76 0 
C 92 76 0 
C 94 76 0 
C 96 76 0 
C 98 76 0 
C 100 76 0 
C 0 78 0 
C 2 78 0 
C 4 78 0 
C 6 78 0 
C 8 78 0 
C 10 78 0 
C 12 78 0 
C 14 78 0 
C 16 78 0 
C 18 78 0 
C 20 78 0 
C 22 78 0 
C 24 78 0 
C 26 78 0 
C 28 78 0 
C 30 78 0 
C 32 78 0 
C 34 78 0 
C 36 78 0 
C 38 78 0 
C 40 78 0 
C 42 78 0 
C 44 78 0 
C 46 78 0 
C 48 78 0 
C 50 78 0 
C 52 78 0 
C 54 78 0 
C 56 78 0 
C 58 78 0 
C 60 78 0 
C 62 78 0 
C 64 78 0 
C 66 78 0 
C 68 78 0 
C 70 78 0 
C 72 78 0 
C 74 78 0 
C 76 78 0 
C 78 78 0 
C 80 78 0 
C 82 78 0 
C 84 78 0 
C 86 78 0 
C 88 78 0 
C 90 78 0 
C 92 78 0 
C 94 78 0 
C 96 78 0 
C 98 78 0 
C 100 78 0 
C 0 80 0 
C 2 80 0 
C 4 80 0 
C 6 80 0 
C 8 80 0 
C 10 80 0 
C 12 80 0 
C 14 80 0 
C 16 80 0 
C 18 80 0 
C 20 80 0 
C 22 80 0 
C 24 80 0 
C 26 80 0 
C 28 80 0 
C 30 80 0 
C 32 80 0 
C 34 80 0 
C 36 80 0 
C 38 80 0 
C 40 80 0 
C 42 80 0 
C 44 80 0 
C 46 80 0 
C 48 80 0 
C 50 80 0 
C 52 80 0 
C 54 80 0 
C 56 80 0 
C 58 80 0 
C 60 80 0 
C 62 80 0 
C 64 80 0 
C 66 80 0 
C 68 80 0 
C 70 80 0 
C 72 80 0 
C 74 80 0 
C 76 80 0 
C 78 80 0 
C 80 80 0 
C 82 80 0 
C 84 80 0 
C 86 80 0 
C 88 80 0 
C 90 80 0 
C 92 80 0 
C 94 80 0 
C 96 80 0 
C 98 80 0 
C 100 80 0 
C 0 82 0 
C 2 82 0 
C 4 82 0 
C 6 82 0 
C 8 82 0 
C 10 82 0 
C 12 82 0 
C 14 82 0 
C 16 82 0 
C 18 82 0 
C 20 82 0 
C 22 82 0 
C 24 82 0 
C 26 82 0 
C 28 82 0 
C 30 82 0 
C 32 82 0 
C 34 82 0 
C 36 82 0 
C 38 82 0 
C 40 82 0 
C 42 82 0 
C 44 82 0 
C 46 82 0 
C 48 82 0 
C 50 82 0 
C 52 82 0 
C 54 82 0 
C 56 82 0 
C 58 82 0 
C 60 82 0 
C 62 82 0 
C 64 82 0 
C 66 82 0 
C 68 82 0 
C 70 82 0 
C 72 82 0 
C 74 82 0 
C 76 82 0 
C 78 82 0 
C 80 82 0 
C 82 82 0 
C 84 82 0 
C 86 82 0 
C 88 82 0 
C 90 82 0 
C 92 82 0 
C 94 82 0 
C 96 82 0 
C 98 82 0 
C 100 82 0 
C 0 84 0 
C 2 84 0 
C 4 84 0 
C 6 84 0 
C 8 84 0 
C 10 84 0 
C 12 84 0 
C 14 84 0 
C 16 84 0 
C 18 84 0 
C 20 84 0 
C 22 84 0 
C 24 84 0 
C 26 84 0 
C 28 84 0 
C 30 84 0 
C 32 84 0 
C 34 84 0 
C 36 84 0 
C 38 84 0 
C 40 84 0 
C 42 84 0 
C 44 84 0 
C 46 84 0 
C 48 84 0 
C 50 84 0 
C 52 84 0 
C 54 84 0 
C 56 84 0 
C 58 84 0 
C 60 84 0 
C 62 84 0 
C 64 84 0 
C 66 84 0 
C 68 84 0 
C 70 84 0 
C 72 84 0 
C 74 84 0 
C 76 84 0 
C 78 84 0 
C 80 84 0 
C 82 84 0 
C 84 84 0 
C 86 84 0 
C 88 84 0 
C 90 84 0 
C 92 84 0 
C 94 84 0 
C 96 84 0 
C 98 84 0 
C 100 84 0 
C 0 86 0 
C 2 86 0 
C 4 86 0 
C 6 86 0 
C 8 86 0 
C 10 86 0 
C 12 86 0 
C 14 86 0 
C 16 86 0 
C 18 86 0 
C 20 86 0 
C 22 86 0 
C 24 86 0 
C 26 86 0 
C 28 86 0 
C 30 86 0 
C 32 86 0 
C 34 86 0 
C 36 86 0 
C 38 86 0 
C 40 86 0 
C 42 86 0 
C 44 86 0 
C 46 86 0 
C 48 86 0 
C 50 86 0 
C 52 86 0 
C 54 86 0 
C 56 86 0 
C 58 86 0 
C 60 86 0 
C 62 86 0 
C 64 86 0 
C 66 86 0 
C 68 86 0 
C 70 86 0 
C 72 86 0 
C 74 86 0 
C 76 86 0 
C 78 86 0 
C 80 86 0 
C 82 86 0 
C 84 86 0 
C 86 86 0 
C 88 86 0 
C 90 86 0 
C 92 86 0 
C 94 86 0 
C 96 86 0 
C 98 86 0 
C 100 86 0 
C 0 88 0 
C 2 88 0 
C 4 88 0 
C 6 88 0 
C 8 88 0 
C 10 88 0 
C 12 88 0 
C 14 88 0 
C 16 88 0 
C 18 88 0 
C 20 88 0 
C 22 88 0 
C 24 88 0 
C 26 88 0 
C 28 88 0 
C 30 88 0 
C 32 88 0 
C 34 88 0 
C 36 88 0 
C 38 88 0 
C 40 88 0 
C 42 88 0 
C 44 88 0 
C 46 88 0 
C 48 88 0 
C 50 88 0 
C 52 88 0 
C 54 88 0 
C 56 88 0 
C 58 88 0 
C 60 88 0 
C 62 88 0 
C 64 88 0 
C 66 88 0 
C 68 88 0 
C 70 88 0 
C 72 88 0 
C 74 88 0 
C 76 88 0 
C 78 88 0 
C 80 88 0 
C 82 88 0 
C 84 88 0 
C 86 88 0 
C 88 88 0 
C 90 88 0 
C 92 88 0 
C 94 88 0 
C 96 88 0 
C 98 88 0 
C 100 88 0 
C 0 90 0 
C 2 90 0 
C 4 90 0 
C 6 90 0 
C 8 90 0 
C 10 90 0 
C 12 90 0 
C 14 90 0 
C 16 90 0 
C 18 90 0 
C 20 90 0 
C 22 90 0 
C 24 90 0 
C 26 90 0 
C 28 90 0 
C 30 90 0 
C 32 90 0 
C 34 90 0 
C 36 90 0 
C 38 90 0 
C 40 90 0 
C 42 90 0 
C 44 90 0 
C 46 90 0 
C 48 90 0 
C 50 90 0 
C 52 90 0 
C 54 90 0 
C 56 90 0 
C 58 90 0 
C 60 90 0 
C 62 90 0 
C 64 90 0 
C 66 90 0 
C 68 90 0 
C 70 90 0 
C 72 90 0 
C 74 90 0 
C 76 90 0 
C 78 90 0 
C 80 90 0 
C 82 90 0 
C 84 90 0 
C 86 90 0 
C 88 90 0 
C 90 90 0 
C 92 90 0 
C 94 90 0 
C 96 90 0 
C 98 90 0 
C 100 90 0 
C 0 92 0 
C 2 92 0 
C 4 92 0 
C 6 92 0 
C 8 92 0 
C 10 92 0 
C 12 92 0 
C 14 92 0 
C 16 92 0 
C 18 92 0 
C 20 92 0 
C 22 92 0 
C 24 92 0 
C 26 92 0 
C 28 92 0 
C 30 92 0 
C 32 92 0 
C 34 92 0 
C 36 92 0 
C 38 92 0 
C 40 92 0 
C 42 92 0 
C 44 92 0 
C 46 92 0 
C 48 92 0 
C 50 92 0 
C 52 92 0 
C 54 92 0 
C 56 92 0 
C 58 92 0 
C 60 92 0 
C 62 92 0 
C 64 92 0 
C 66 92 0 
C 68 92 0 
C 70 92 0 
C 72 92 0 
C 74 92 0 
C 76 92 0 
C 78 92 0 
C 80 92 0 
C 82 92 0 
C 84 92 0 
C 86 92 0 
C 88 92 0 
C 90 92 0 
C 92 92 0 
C 94 92 0 
C 96 92 0 
C 98 92 0 
C 100 92 0 
C 0 94 0 
C 2 94 0 
C 4 94 0 
C 6 94 0 
C 8 94 0 
C 10 94 0 
C 12 94 0 
C 14 94 0 
C 16 94 0 
C 18 94 0 
C 20 94 0 
C 22 94 0 
C 24 94 0 
C 26 94 0 
C 28 94 0 
C 30 94 0 
C 32 94 0 
C 34 94 0 
C 36 94 0 
C 38 94 0 
C 40 94 0 
C 42 94 0 
C 44 94 0 
C 46 94 0 
C 48 94 0 
C 50 94 0 
C 52 94 0 
C 54 94 0 
C 56 94 0 
C 58 94 0 
C 60 94 0 
C 62 94 0 
C 64 94 0 
C 66 94 0 
C 68 94 0 
C 70 94 0 
C 72 94 0 
C 74 94 0 
C 76 94 0 
C 78 94 0 
C 80 94 0 
C 82 94 0 
C 84 94 0 
C 86 94 0 
C 88 94 0 
C 90 94 0 
C 92 94 0 
C 94 94 0 
C 96 94 0 
C 98 94 0 
C 100 94 0 
C 0 96 0 
C 2 96 0 
C 4 96 0 
C 6 96 0 
C 8 96 0 
C 10 96 0 
C 12 96 0 
C 14 96 0 
C 16 96 0 
C 18 96 0 
C 20 96 0 
C 22 96 0 
C 24 96 0 
C 26 96 0 
C 28 96 0 
C 30 96 0 
C 32 96 0 
C 34 96 0 
C 36 96 0 
C 38 96 0 
C 40 96 0 
C 42 96 0 
C 44 96 0 
C 46 96 0 
C 48 96 0 
C 50 96 0 
C 52 96 0 
C 54 96 0 
C 56 96 0 
C 58 96 0 
C 60 96 0 
C 62 96 0 
C 64 96 0 
C 66 96 0 
C 68 96 0 
C 70 96 0 
C 72 96 0 
C 74 96 0 
C 76 96 0 
C 78 96 0 
C 80 96 0 
C 82 96 0 
C 84 96 0 
C 86 96 0 
C 88 96 0 
C 90 96 0 
C 92 96 0 
C 94 96 0 
C 96 96 0 
C 98 96 0 
C 100 96 0 
C 0 98 0 
C 2 98 0 
C 4 98 0 
C 6 98 0 
C 8 98 0 
C 10 98 0 
C 12 98 0 
C 14 98 0 
C 16 98 0 
C 18 98 0 
C 20 98 0 
C 22 98 0 
C 24 98 0 
C 26 98 0 
C 28 98 0 
C 30 98 0 
C 32 98 0 
C 34 98 0 
C 36 98 0 
C 38 98 0 
C 40 98 0 
C 42 98 0 
C 44 98 0 
C 46 98 0 
C 48 98 0 
C 50 98 0 
C 52 98 0 
C 54 98 0 
C 56 98 0 
C 58 98 0 
C 60 98 0 
C 62 98 0 
C 64 98 0 
C 66 98 0 
C 68 98 0 
C 70 98 0 
C 72 98 0 
C 74 98 0 
C 76 98 0 
C 78 98 0 
C 80 98 0 
C 82 98 0 
C 84 98 0 
C 86 98 0 
C 88 98 0 
C 90 98 0 
C 92 98 0 
C 94 98 0 
C 96 98 0 
C 98 98 0 
C 100 98 0 
C 0 100 0 
C 2 100 0 
C 4 100 0 
C 6 100 0 
C 8 100 0 
C 10 100 0 
C 12 100 0 
C 14 100 0 
C 16 100 0 
C 18 100 0 
C 20 100 0 
C 22 100 0 
C 24 100 0 
C 26 100 0 
C 28 100 0 
C 30 100 0 
C 32 100 0 
C 34 100 0 
C 36 100 0 
C 38 100 0 
C 40 100 0 
C 42 100 0 
C 44 100 0 
C 46 100 0 
C 48 100 0 
C 50 100 0 
C 52 100 0 
C 54 100 0 
C 56 100 0 
C 58 100 0 
C 60 100 0 
C 62 100 0 
C 64 100 0 
C 66 100 0 
C 68 100 0 
C 70 100 0 
C 72 100 0 
C 74 100 0 
C 76 100 0 
C 78 100 0 
C 80 100 0 
C 82 100 0 
C 84 100 0 
C 86 100 0 
C 88 100 0 
C 90 100 0 
C 92 100 0 
C 94 100 0 
C 96 100 0 
C 98 100 0 
C 100 100 0 
O 60 99 0 
O 87 45 0 
O 17 19 0 
O 79 65 0 
O 95 54 0 
O 17 14 0 
O 94 45 0 
O 51 59 0 
O 17 5 0 
O 73 85 0 
O 3 97 0 
O 1 56 0 
O 41 48 0 
O 89 88 0 
O 45 61 0 
O 63 30 0 
O 14 27 0 
O 99 65 0 
O 71 75 0 
O 43 61 0 
O 61 29 0 
O 27 43 0 
O 41 31 0 
O 55 91 0 
O 29 97 0 
O 2 47 0 
O 4 91 0 
O 69 99 0 
O 5 60 0 
O 41 60 0 
O 43 25 0 
O 7 23 0 
O 55 89 0 
O 33 23 0 
O 75 7 0 
O 91 13 0 
O 29 77 0 
O 67 91 0 
O 67 65 0 
O 97 27 0 
O 47 75 0 
O 95 85 0 
O 61 41 0 
O 89 86 0 
O 88 19 0 
O 32 55 0 
O 10 61 0 
O 77 3 0 
O 79 16 0 
O 37 13 0 
O 31 77 0 
O 57 69 0 
O 81 84 0 
O 30 67 0 
O 33 61 0 
O 13 49 0 
O 95 71 0 
O 3 35 0 
O 45 87 0 
O 11 41 0 
O 77 65 0 
O 15 64 0 
O 81 83 0 
O 99 81 0 
O 95 79 0 
O 35 87 0 
O 21 77 0 
O 13 11 0 
O 87 79 0 
O 3 7 0 
O 45 9 0 
O 20 67 0 
O 48 39 0 
O 3 33 0 
O 49 27 0 
O 98 61 0 
O 96 91 0 
O 3 64 0 
O 2 97 0 
O 92 99 0 
O 11 67 0 
O 55 44 0 
O 31 1 0 
O 0 93 0 
O 87 13 0 
O 74 49 0 
O 41 33 0 
O 23 85 0 
O 93 56 0 
O 10 21 0 
3167
Atoms. Timestep: 2
N 90 19 0 
N 25 55 0 
N 15 69 0 
N 53 95 0 
N 35 19 0 
N 63 23 0 
N 86 65 0 
N 5 52 0 
N 12 51 0 
N 52 29 0 
N 15 5 0 
N 63 30 0 
N 61 9 0 
N 79 83 0 
N 55 85 0 
N 52 61 0 
N 37 74 0 
N 6 91 0 
N 4 11 0 
N 87 25 0 
N 14 37 0 
N 76 11 0 
N 21 27 0 
N 51 74 0 
N 62 97 0 
N 14 91 0 
N 91 9 0 
N 60 99 0 
N 2 39 0 
N 33 50 0 
N 75 30 0 
N 63 18 0 
N 25 64 0 
N 99 45 0 
N 29 19 0 
N 81 52 0 
N 95 69 0 
N 67 5 0 
N 64 87 0 
N 97 4 0 
N 47 12 0 
N 27 97 0 
N 90 27 0 
N 31 63 0 
N 55 44 0 
N 63 21 0 
N 58 77 0 
N 50 39 0 
N 93 79 0 
N 29 13 0 
N 58 23 0 
N 38 39 0 
N 10 21 0 
N 23 31 0 
N 97 73 0 
N 14 79 0 
N 53 68 0 
N 86 7 0 
N 3 21 0 
N 70 71 0 
N 98 61 0 
N 70 97 0 
N 9 35 0 
N 75 84 0 
N 68 11 0 
N 5 57 0 
N 75 62 0 
N 86 31 0 
N 43 21 0 
N 63 32 0 
N 43 22 0 
N 6 95 0 
N 1 45 0 
N 16 77 0 
N 41 82 0 
N 32 25 0 
N 55 87 0 
N 8 35 0 
N 28 51 0 
N 72 9 0 
N 61 45 0 
N 96 21 0 
N 77 94 0 
N 91 43 0 
N 0 35 0 
N 7 24 0 
N 35 68 0 
N 2 77 0 
N 21 29 0 
N 83 83 0 
N 63 79 0 
N 95 95 0 
N 18 19 0 
N 90 59 0 
N 91 8 0 
N 69 3 0 
N 69 54 0 
N 97 14 0 
N 64 65 0 
N 13 32 0 
N 45 63 0 
N 61 96 0 
N 48 39 0 
N 92 13 0 
N 93 97 0 
N 55 91 0 
N 69 63 0 
N 68 49 0 
N 29 91 0 
N 21 75 0 
N 27 43 0 
N 75 64 0 
N 17 77 0 
N 84 13 0 
N 45 67 0 
N 47 47 0 
N 15 55 0 
N 1 74 0 
N 68 93 0 
N 21 97 0 
N 33 31 0 
N 58 81 0 
N 47 26 0 
N 58 59 0 
N 15 27 0 
N 76 7 0 
N 5 74 0 
N 3 9 0 
N 31 14 0 
N 95 83 0 
N 1 85 0 
N 69 41 0 
N 13 41 0 
N 67 97 0 
N 18 11 0 
N 14 77 0 
N 32 55 0 
N 85 43 0 
N 96 43 0 
N 85 19 0 
N 11 42 0 
N 73 76 0 
N 77 1 0 
N 58 7 0 
N 81 87 0 
N 50 91 0 
N 98 51 0 
N 43 58 0 
N 97 79 0 
N 61 91 0 
N 95 40 0 
N 90 71 0 
N 25 35 0 
N 9 97 0 
N 50 71 0 
N 19 80 0 
N 99 83 0 
N 3 68 0 
N 6 3 0 
N 14 41 0 
N 90 39 0 
N 41 56 0 
N 91 39 0 
N 19 5 0 
N 35 88 0 
N 35 78 0 
N 71 13 0 
N 91 88 0 
N 99 23 0 
N 47 71 0 
N 8 97 0 
N 77 32 0 
N 24 39 0 
N 19 16 0 
N 70 27 0 
N 43 88 0 
N 91 61 0 
N 52 1 0 
N 81 78 0 
N 81 84 0 
N 71 33 0 
N 18 7 0 
N 84 55 0 
N 47 56 0 
N 2 69 0 
N 5 64 0 
N 99 53 0 
N 67 78 0 
N 91 71 0 
N 22 17 0 
N 18 75 0 
N 1 93 0 
N 67 63 0 
N 19 84 0 
N 57 68 0 
N 97 23 0 
N 66 75 0 
N 96 23 0 
N 48 37 0 
N 97 33 0 
N 77 5 0 
N 61 89 0 
N 65 31 0 
N 47 96 0 
N 60 7 0 
N 33 66 0 
N 68 29 0 
N 60 41 0 
N 93 86 0 
N 93 57 0 
N 26 61 0 
N 25 67 0 
N 17 5 0 
N 97 24 0 
N 29 20 0 
N 11 73 0 
N 61 69 0 
N 57 66 0 
N 90 83 0 
N 25 86 0 
N 1 56 0 
N 88 25 0 
N 99 69 0 
N 60 29 0 
N 25 45 0 
N 99 81 0 
N 74 37 0 
N 91 52 0 
N 79 24 0 
N 97 72 0 
N 86 81 0 
N 57 48 0 
N 42 23 0 
N 87 77 0 
N 66 55 0 
N 82 55 0 
N 25 34 0 
N 69 81 0 
N 4 39 0 
N 27 11 0 
N 74 57 0 
N 19 68 0 
N 93 51 0 
N 9 24 0 
N 54 49 0 
N 20 3 0 
N 30 13 0 
N 22 67 0 
N 17 66 0 
N 13 13 0 
N 81 92 0 
N 51 61 0 
N 41 86 0 
N 24 25 0 
N 16 33 0 
N 17 27 0 
N 81 45 0 
N 59 38 0 
N 53 25 0 
N 16 81 0 
N 15 64 0 
N 2 33 0 
N 97 46 0 
N 13 29 0 
N 41 76 0 
N 96 91 0 
N 55 40 0 
N 74 45 0 
N 87 74 0 
N 57 45 0 
N 92 99 0 
N 19 8 0 
N 38 89 0 
N 11 2 0 
N 41 47 0 
N 57 56 0 
N 5 26 0 
N 29 39 0 
N 51 65 0 
N 5 33 0 
N 57 71 0 
N 17 14 0 
N 35 74 0 
N 71 21 0 
N 28 77 0 
N 64 19 0 
N 86 87 0 
N 43 44 0 
N 91 11 0 
N 91 3 0 
N 51 5 0 
N 39 22 0 
N 60 87 0 
N 63 7 0 
N 45 2 0 
N 29 78 0 
N 41 44 0 
N 18 67 0 
N 19 43 0 
N 90 45 0 
N 77 92 0 
N 3 56 0 
N 27 85 0 
N 15 96 0 
N 51 55 0 
N 59 9 0 
N 69 76 0 
N 5 47 0 
N 71 2 0 
N 21 89 0 
N 95 72 0 
N 35 52 0 
N 41 98 0 
N 11 34 0 
N 33 99 0 
N 35 77 0 
N 27 8 0 
N 69 39 0 
N 3 5 0 
N 50 19 0 
N 72 75 0 
N 5 13 0 
N 91 47 0 
N 26 69 0 
N 37 9 0 
N 67 1 0 
N 64 23 0 
N 96 1 0 
N 54 87 0 
N 13 42 0 
N 49 37 0 
N 87 1 0 
N 92 43 0 
N 67 18 0 
N 91 50 0 
N 44 31 0 
N 17 99 0 
N 10 95 0 
N 79 1 0 
N 82 63 0 
N 37 33 0 
N 26 37 0 
N 55 1 0 
N 81 39 0 
N 10 17 0 
N 16 95 0 
N 92 3 0 
N 51 92 0 
N 79 90 0 
N 58 85 0 
N 77 26 0 
N 66 81 0 
N 13 53 0 
N 98 59 0 
N 17 20 0 
N 49 27 0 
N 49 38 0 
N 37 1 0 
N 27 93 0 
N 45 55 0 
N 79 19 0 
N 63 35 0 
N 39 75 0 
N 38 33 0 
N 30 37 0 
N 1 40 0 
N 75 16 0 
N 51 44 0 
N 93 41 0 
N 99 43 0 
N 27 80 0 
N 67 7 0 
N 37 79 0 
N 63 24 0 
N 30 67 0 
N 43 8 0 
N 55 49 0 
N 94 13 0 
N 57 30 0 
N 76 91 0 
N 29 4 0 
N 5 87 0 
N 42 9 0 
N 33 77 0 
N 31 64 0 
N 56 51 0 
N 65 51 0 
N 35 24 0 
N 83 42 0 
N 13 30 0 
N 85 98 0 
N 95 75 0 
N 53 94 0 
N 72 27 0 
N 98 47 0 
N 3 31 0 
N 54 3 0 
N 59 27 0 
N 81 82 0 
N 57 77 0 
N 81 86 0 
N 3 64 0 
N 2 47 0 
N 31 61 0 
N 18 81 0 
N 79 34 0 
N 33 65 0 
N 80 71 0 
N 87 45 0 
N 48 35 0 
N 71 7 0 
N 60 5 0 
N 92 7 0 
N 9 41 0 
N 93 7 0 
N 55 47 0 
N 15 53 0 
N 27 35 0 
N 70 47 0 
N 92 41 0 
N 92 77 0 
N 91 33 0 
N 14 85 0 
N 51 64 0 
N 92 69 0 
N 79 14 0 
N 41 48 0 
N 15 62 0 
N 77 23 0 
N 7 21 0 
N 23 83 0 
N 33 23 0 
N 80 15 0 
N 31 65 0 
N 67 52 0 
N 93 54 0 
N 84 45 0 
N 1 8 0 
N 56 87 0 
N 83 65 0 
N 63 2 0 
N 12 61 0 
N 31 4 0 
N 17 71 0 
N 21 41 0 
N 22 27 0 
N 71 79 0 
N 73 81 0 
N 23 63 0 
N 19 67 0 
N 63 76 0 
N 93 77 0 
N 97 29 0 
N 67 17 0 
N 69 32 0 
N 67 31 0 
N 39 57 0 
N 95 62 0 
N 77 66 0 
N 3 3 0 
N 36 83 0 
N 63 34 0 
N 15 31 0 
N 19 87 0 
N 28 63 0 
N 11 11 0 
N 2 27 0 
N 84 65 0 
N 57 76 0 
N 19 70 0 
N 44 83 0 
N 8 11 0 
N 13 2 0 
N 38 13 0 
N 88 21 0 
N 43 48 0 
N 1 64 0 
N 34 87 0 
N 39 66 0 
N 35 11 0 
N 54 59 0 
N 92 39 0 
N 92 97 0 
N 66 29 0 
N 55 41 0 
N 79 22 0 
N 21 93 0 
N 97 25 0 
N 74 23 0 
N 87 15 0 
N 39 85 0 
N 52 19 0 
N 39 16 0 
N 31 28 0 
N 37 77 0 
N 51 39 0 
N 2 61 0 
N 71 15 0 
N 33 73 0 
N 95 67 0 
C 0 0 0 
C 2 0 0 
C 4 0 0 
C 6 0 0 
C 8 0 0 
C 10 0 0 
C 12 0 0 
C 14 0 0 
C 16 0 0 
C 18 0 0 
C 20 0 0 
C 22 0 0 
C 24 0 0 
C 26 0 0 
C 28 0 0 
C 30 0 0 
C 32 0 0 
C 34 0 0 
C 36 0 0 
C 38 0 0 
C 40 0 0 
C 42 0 0 
C 44 0 0 
C 46 0 0 
C 48 0 0 
C 50 0 0 
C 52 0 0 
C 54 0 0 
C 56 0 0 
C 58 0 0 
C 60 0 0 
C 62 0 0 
C 64 0 0 
C 66 0 0 
C 68 0 0 
C 70 0 0 
C 72 0 0 
C 74 0 0 
C 76 0 0 
C 78 0 0 
C 80 0 0 
C 82 0 0 
C 84 0 0 
C 86 0 0 
C 88 0 0 
C 90 0 0 
C 92 0 0 
C 94 0 0 
C 96 0 0 
C 98 0 0 
C 100 0 0 
C 0 2 0 
C 2 2 0 
C 4 2 0 
C 6 2 0 
C 8 2 0 
C 10 2 0 
C 12 2 0 
C 14 2 0 
C 16 2 0 
C 18 2 0 
C 20 2 0 
C 22 2 0 
C 24 2 0 
C 26 2 0 
C 28 2 0 
C 30 2 0 
C 32 2 0 
C 34 2 0 
C 36 2 0 
C 38 2 0 
C 40 2 0 
C 42 2 0 
C 44 2 0 
C 46 2 0 
C 48 2 0 
C 50 2 0 
C 52 2 0 
C 54 2 0 
C 56 2 0 
C 58 2 0 
C 60 2 0 
C 62 2 0 
C 64 2 0 
C 66 2 0 
C 68 2 0 
C 70 2 0 
C 72 2 0 
C 74 2 0 
C 76 2 0 
C 78 2 0 
C 80 2 0 
C 82 2 0 
C 84 2 0 
C 86 2 0 
C 88 2 0 
C 90 2 0 
C 92 2 0 
C 94 2 0 
C 96 2 0 
C 98 2 0 
C 100 2 0 
C 0 4 0 
C 2 4 0 
C 4 4 0 
C 6 4 0 
C 8 4 0 
C 10 4 0 
C 12 4 0 
C 14 4 0 
C 16 4 0 
C 18 4 0 
C 20 4 0 
C 22 4 0 
C 24 4 0 
C 26 4 0 
C 28 4 0 
C 30 4 0 
C 32 4 0 
C 34 4 0 
C 36 4 0 
C 38 4 0 
C 40 4 0 
C 42 4 0 
C 44 4 0 
C 46 4 0 
C 48 4 0 
C 50 4 0 
C 52 4 0 
C 54 4 0 
C 56 4 0 
C 58 4 0 
C 60 4 0 
C 62 4 0 
C 64 4 0 
C 66 4 0 
C 68 4 0 
C 70 4 0 
C 72 4 0 
C 74 4 0 
C 76 4 0 
C 78 4 0 
C 80 4 0 
C 82 4 0 
C 84 4 0 
C 86 4 0 
C 88 4 0 
C 90 4 0 
C 92 4 0 
C 94 4 0 
C 96 4 0 
C 98 4 0 
C 100 4 0 
C 0 6 0 
C 2 6 0 
C 4 6 0 
C 6 6 0 
C 8 6 0 
C 10 6 0 
C 12 6 0 
C 14 6 0 
C 16 6 0 
C 18 6 0 
C 20 6 0 
C 22 6 0 
C 24 6 0 
C 26 6 0 
C 28 6 0 
C 30 6 0 
C 32 6 0 
C 34 6 0 
C 36 6 0 
C 38 6 0 
C 40 6 0 
C 42 6 0 
C 44 6 0 
C 46 6 0 
C 48 6 0 
C 50 6 0 
C 52 6 0 
C 54 6 0 
C 56 6 0 
C 58 6 0 
C 60 6 0 
C 62 6 0 
C 64 6 0 
C 66 6 0 
C 68 6 0 
C 70 6 0 
C 72 6 0 
C 74 6 0 
C 76 6 0 
C 78 6 0 
C 80 6 0 
C 82 6 0 
C 84 6 0 
C 86 6 0 
C 88 6 0 
C 90 6 0 
C 92 6 0 
C 94 6 0 
C 96 6 0 
C 98 6 0 
C 100 6 0 
C 0 8 0 
C 2 8 0 
C 4 8 0 
C 6 8 0 
C 8 8 0 
C 10 8 0 
C 12 8 0 
C 14 8 0 
C 16 8 0 
C 18 8 0 
C 20 8 0 
C 22 8 0 
C 24 8 0 
C 26 8 0 
C 28 8 0 
C 30 8 0 
C 32 8 0 
C 34 8 0 
C 36 8 0 
C 38 8 0 
C 40 8 0 
C 42 8 0 
C 44 8 0 
C 46 8 0 
C 48 8 0 
C 50 8 0 
C 52 8 0 
C 54 8 0 
C 56 8 0 
C 58 8 0 
C 60 8 0 
C 62 8 0 
C 64 8 0 
C 66 8 0 
C 68 8 0 
C 70 8 0 
C 72 8 0 
C 74 8 0 
C 76 8 0 
C 78 8 0 
C 80 8 0 
C 82 8 0 
C 84 8 0 
C 86 8 0 
C 88 8 0 
C 90 8 0 
C 92 8 0 
C 94 8 0 
C 96 8 0 
C 98 8 0 
C 100 8 0 
C 0 10 0 
C 2 10 0 
C 4 10 0 
C 6 10 0 
C 8 10 0 
C 10 10 0 
C 12 10 0 
C 14 10 0 
C 16 10 0 
C 18 10 0 
C 20 10 0 
C 22 10 0 
C 24 10 0 
C 26 10 0 
C 28 10 0 
C 30 10 0 
C 32 10 0 
C 34 10 0 
C 36 10 0 
C 38 10 0 
C 40 10 0 
C 42 10 0 
C 44 10 0 
C 46 10 0 
C 48 10 0 
C 50 10 0 
C 52 10 0 
C 54 10 0 
C 56 10 0 
C 58 10 0 
C 60 10 0 
C 62 10 0 
C 64 10 0 
C 66 10 0 
C 68 10 0 
C 70 10 0 
C 72 10 0 
C 74 10 0 
C 76 10 0 
C 78 10 0 
C 80 10 0 
C 82 10 0 
C 84 10 0 
C 86 10 0 
C 88 10 0 
C 90 10 0 
C 92 10 0 
C 94 10 0 
C 96 10 0 
C 98 10 0 
C 100 10 0 
C 0 12 0 
C 2 12 0 
C 4 12 0 
C 6 12 0 
C 8 12 0 
C 10 12 0 
C 12 12 0 
C 14 12 0 
C 16 12 0 
C 18 12 0 
C 20 12 0 
C 22 12 0 
C 24 12 0 
C 26 12 0 
C 28 12 0 
C 30 12 0 
C 32 12 0 
C 34 12 0 
C 36 12 0 
C 38 12 0 
C 40 12 0 
C 42 12 0 
C 44 12 0 
C 46 12 0 
C 48 12 0 
C 50 12 0 
C 52 12 0 
C 54 12 0 
C 56 12 0 
C 58 12 0 
C 60 12 0 
C 62 12 0 
C 64 12 0 
C 66 12 0 
C 68 12 0 
C 70 12 0 
C 72 12 0 
C 74 12 0 
C 76 12 0 
C 78 12 0 
C 80 12 0 
C 82 12 0 
C 84 12 0 
C 86 12 0 
C 88 12 0 
C 90 12 0 
C 92 12 0 
C 94 12 0 
C 96 12 0 
C 98 12 0 
C 100 12 0 
C 0 14 0 
C 2 14 0 
C 4 14 0 
C 6 14 0 
C 8 14 0 
C 10 14 0 
C 12 14 0 
C 14 14 0 
C 16 14 0 
C 18 14 0 
C 20 14 0 
C 22 14 0 
C 24 14 0 
C 26 14 0 
C 28 14 0 
C 30 14 0 
C 32 14 0 
C 34 14 0 
C 36 14 0 
C 38 14 0 
C 40 14 0 
C 42 14 0 
C 44 14 0 
C 46 14 0 
C 48 14 0 
C 50 14 0 
C 52 14 0 
C 54 14 0 
C 56 14 0 
C 58 14 0 
C 60 14 0 
C 62 14 0 
C 64 14 0 
C 66 14 0 
C 68 14 0 
C 70 14 0 
C 72 14 0 
C 74 14 0 
C 76 14 0 
C 78 14 0 
C 80 14 0 
C 82 14 0 
C 84 14 0 
C 86 14 0 
C 88 14 0 
C 90 14 0 
C 92 14 0 
C 94 14 0 
C 96 14 0 
C 98 14 0 
C 100 14 0 
C 0 16 0 
C 2 16 0 
C 4 16 0 
C 6 16 0 
C 8 16 0 
C 10 16 0 
C 12 16 0 
C 14 16 0 
C 16 16 0 
C 18 16 0 
C 20 16 0 
C 22 16 0 
C 24 16 0 
C 26 16 0 
C 28 16 0 
C 30 16 0 
C 32 16 0 
C 34 16 0 
C 36 16 0 
C 38 16 0 
C 40 16 0 
C 42 16 0 
C 44 16 0 
C 46 16 0 
C 48 16 0 
C 50 16 0 
C 52 16 0 
C 54 16 0 
C 56 16 0 
C 58 16 0 
C 60 16 0 
C 62 16 0 
C 64 16 0 
C 66 16 0 
C 68 16 0 
C 70 16 0 
C 72 16 0 
C 74 16 0 
C 76 16 0 
C 78 16 0 
C 80 16 0 
C 82 16 0 
C 84 16 0 
C 86 16 0 
C 88 16 0 
C 90 16 0 
C 92 16 0 
C 94 16 0 
C 96 16 0 
C 98 16 0 
C 100 16 0 
C 0 18 0 
C 2 18 0 
C 4 18 0 
C 6 18 0 
C 8 18 0 
C 10 18 0 
C 12 18 0 
C 14 18 0 
C 16 18 0 
C 18 18 0 
C 20 18 0 
C 22 18 0 
C 24 18 0 
C 26 18 0 
C 28 18 0 
C 30 18 0 
C 32 18 0 
C 34 18 0 
C 36 18 0 
C 38 18 0 
C 40 18 0 
C 42 18 0 
C 44 18 0 
C 46 18 0 
C 48 18 0 
C 50 18 0 
C 52 18 0 
C 54 18 0 
C 56 18 0 
C 58 18 0 
C 60 18 0 
C 62 18 0 
C 64 18 0 
C 66 18 0 
C 68 18 0 
C 70 18 0 
C 72 18 0 
C 74 18 0 
C 76 18 0 
C 78 18 0 
C 80 18 0 
C 82 18 0 
C 84 18 0 
C 86 18 0 
C 88 18 0 
C 90 18 0 
C 92 18 0 
C 94 18 0 
C 96 18 0 
C 98 18 0 
C 100 18 0 
C 0 20 0 
C 2 20 0 
C 4 20 0 
C 6 20 0 
C 8 20 0 
C 10 20 0 
C 12 20 0 
C 14 20 0 
C 16 20 0 
C 18 20 0 
C 20 20 0 
C 22 20 0 
C 24 20 0 
C 26 20 0 
C 28 20 0 
C 30 20 0 
C 32 20 0 
C 34 20 0 
C 36 20 0 
C 38 20 0 
C 40 20 0 
C 42 20 0 
C 44 20 0 
C 46 20 0 
C 48 20 0 
C 50 20 0 
C 52 20 0 
C 54 20 0 
C 56 20 0 
C 58 20 0 
C 60 20 0 
C 62 20 0 
C 64 20 0 
C 66 20 0 
C 68 20 0 
C 70 20 0 
C 72 20 0 
C 74 20 0 
C 76 20 0 
C 78 20 0 
C 80 20 0 
C 82 20 0 
C 84 20 0 
C 86 20 0 
C 88 20 0 
C 90 20 0 
C 92 20 0 
C 94 20 0 
C 96 20 0 
C 98 20 0 
C 100 20 0 
C 0 22 0 
C 2 22 0 
C 4 22 0 
C 6 22 0 
C 8 22 0 
C 10 22 0 
C 12 22 0 
C 14 22 0 
C 16 22 0 
C 18 22 0 
C 20 22 0 
C 22 22 0 
C 24 22 0 
C 26 22 0 
C 28 22 0 
C 30 22 0 
C 32 22 0 
C 34 22 0 
C 36 22 0 
C 38 22 0 
C 40 22 0 
C 42 22 0 
C 44 22 0 
C 46 22 0 
C 48 22 0 
C 50 22 0 
C 52 22 0 
C 54 22 0 
C 56 22 0 
C 58 22 0 
C 60 22 0 
C 62 22 0 
C 64 22 0 
C 66 22 0 
C 68 22 0 
C 70 22 0 
C 72 22 0 
C 74 22 0 
C 76 22 0 
C 78 22 0 
C 80 22 0 
C 82 22 0 
C 84 22 0 
C 86 22 0 
C 88 22 0 
C 90 22 0 
C 92 22 0 
C 94 22 0 
C 96 22 0 
C 98 22 0 
C 100 22 0 
C 0 24 0 
C 2 24 0 
C 4 24 0 
C 6 24 0 
C 8 24 0 
C 10 24 0 
C 12 24 0 
C 14 24 0 
C 16 24 0 
C 18 24 0 
C 20 24 0 
C 22 24 0 
C 24 24 0 
C 26 24 0 
C 28 24 0 
C 30 24 0 
C 32 24 0 
C 34 24 0 
C 36 24 0 
C 38 24 0 
C 40 24 0 
C 42 24 0 
C 44 24 0 
C 46 24 0 
C 48 24 0 
C 50 24 0 
C 52 24 0 
C 54 24 0 
C 56 24 0 
C 58 24 0 
C 60 24 0 
C 62 24 0 
C 64 24 0 
C 66 24 0 
C 68 24 0 
C 70 24 0 
C 72 24 0 
C 74 24 0 
C 76 24 0 
C 78 24 0 
C 80 24 0 
C 82 24 0 
C 84 24 0 
C 86 24 0 
C 88 24 0 
C 90 24 0 
C 92 24 0 
C 94 24 0 
C 96 24 0 
C 98 24 0 
C 100 24 0 
C 0 26 0 
C 2 26 0 
C 4 26 0 
C 6 26 0 
C 8 26 0 
C 10 26 0 
C 12 26 0 
C 14 26 0 
C 16 26 0 
C 18 26 0 
C 20 26 0 
C 22 26 0 
C 24 26 0 
C 26 26 0 
C 28 26 0 
C 30 26 0 
C 32 26 0 
C 34 26 0 
C 36 26 0 
C 38 26 0 
C 40 26 0 
C 42 26 0 
C 44 26 0 
C 46 26 0 
C 48 26 0 
C 50 26 0 
C 52 26 0 
C 54 26 0 
C 56 26 0 
C 58 26 0 
C 60 26 0 
C 62 26 0 
C 64 26 0 
C 66 26 0 
C 68 26 0 
C 70 26 0 
C 72 26 0 
C 74 26 0 
C 76 26 0 
C 78 26 0 
C 80 26 0 
C 82 26 0 
C 84 26 0 
C 86 26 0 
C 88 26 0 
C 90 26 0 
C 92 26 0 
C 94 26 0 
C 96 26 0 
C 98 26 0 
C 100 26 0 
C 0 28 0 
C 2 28 0 
C 4 28 0 
C 6 28 0 
C 8 28 0 
C 10 28 0 
C 12 28 0 
C 14 28 0 
C 16 28 0 
C 18 28 0 
C 20 28 0 
C 22 28 0 
C 24 28 0 
C 26 28 0 
C 28 28 0 
C 30 28 0 
C 32 28 0 
C 34 28 0 
C 36 28 0 
C 38 28 0 
C 40 28 0 
C 42 28 0 
C 44 28 0 
C 46 28 0 
C 48 28 0 
C 50 28 0 
C 52 28 0 
C 54 28 0 
C 56 28 0 
C 58 28 0 
C 60 28 0 
C 62 28 0 
C 64 28 0 
C 66 28 0 
C 68 28 0 
C 70 28 0 
C 72 28 0 
C 74 28 0 
C 76 28 0 
C 78 28 0 
C 80 28 0 
C 82 28 0 
C 84 28 0 
C 86 28 0 
C 88 28 0 
C 90 28 0 
C 92 28 0 
C 94 28 0 
C 96 28 0 
C 98 28 0 
C 100 28 0 
C 0 30 0 
C 2 30 0 
C 4 30 0 
C 6 30 0 
C 8 30 0 
C 10 30 0 
C 12 30 0 
C 14 30 0 
C 16 30 0 
C 18 30 0 
C 20 30 0 
C 22 30 0 
C 24 30 0 
C 26 30 0 
C 28 30 0 
C 30 30 0 
C 32 30 0 
C 34 30 0 
C 36 30 0 
C 38 30 0 
C 40 30 0 
C 42 30 0 
C 44 30 0 
C 46 30 0 
C 48 30 0 
C 50 30 0 
C 52 30 0 
C 54 30 0 
C 56 30 0 
C 58 30 0 
C 60 30 0 
C 62 30 0 
C 64 30 0 
C 66 30 0 
C 68 30 0 
C 70 30 0 
C 72 30 0 
C 74 30 0 
C 76 30 0 
C 78 30 0 
C 80 30 0 
C 82 30 0 
C 84 30 0 
C 86 30 0 
C 88 30 0 
C 90 30 0 
C 92 30 0 
C 94 30 0 
C 96 30 0 
C 98 30 0 
C 100 30 0 
C 0 32 0 
C 2 32 0 
C 4 32 0 
C 6 32 0 
C 8 32 0 
C 10 32 0 
C 12 32 0 
C 14 32 0 
C 16 32 0 
C 18 32 0 
C 20 32 0 
C 22 32 0 
C 24 32 0 
C 26 32 0 
C 28 32 0 
C 30 32 0 
C 32 32 0 
C 34 32 0 
C 36 32 0 
C 38 32 0 
C 40 32 0 
C 42 32 0 
C 44 32 0 
C 46 32 0 
C 48 32 0 
C 50 32 0 
C 52 32 0 
C 54 32 0 
C 56 32 0 
C 58 32 0 
C 60 32 0 
C 62 32 0 
C 64 32 0 
C 66 32 0 
C 68 32 0 
C 70 32 0 
C 72 32 0 
C 74 32 0 
C 76 32 0 
C 78 32 0 
C 80 32 0 
C 82 32 0 
C 84 32 0 
C 86 32 0 
C 88 32 0 
C 90 32 0 
C 92 32 0 
C 94 32 0 
C 96 32 0 
C 98 32 0 
C 100 32 0 
C 0 34 0 
C 2 34 0 
C 4 34 0 
C 6 34 0 
C 8 34 0 
C 10 34 0 
C 12 34 0 
C 14 34 0 
C 16 34 0 
C 18 34 0 
C 20 34 0 
C 22 34 0 
C 24 34 0 
C 26 34 0 
C 28 34 0 
C 30 34 0 
C 32 34 0 
C 34 34 0 
C 36 34 0 
C 38 34 0 
C 40 34 0 
C 42 34 0 
C 44 34 0 
C 46 34 0 
C 48 34 0 
C 50 34 0 
C 52 34 0 
C 54 34 0 
C 56 34 0 
C 58 34 0 
C 60 34 0 
C 62 34 0 
C 64 34 0 
C 66 34 0 
C 68 34 0 
C 70 34 0 
C 72 34 0 
C 74 34 0 
C 76 34 0 
C 78 34 0 
C 80 34 0 
C 82 34 0 
C 84 34 0 
C 86 34 0 
C 88 34 0 
C 90 34 0 
C 92 34 0 
C 94 34 0 
C 96 34 0 
C 98 34 0 
C 100 34 0 
C 0 36 0 
C 2 36 0 
C 4 36 0 
C 6 36 0 
C 8 36 0 
C 10 36 0 
C 12 36 0 
C 14 36 0 
C 16 36 0 
C 18 36 0 
C 20 36 0 
C 22 36 0 
C 24 36 0 
C 26 36 0 
C 28 36 0 
C 30 36 0 
C 32 36 0 
C 34 36 0 
C 36 36 0 
C 38 36 0 
C 40 36 0 
C 42 36 0 
C 44 36 0 
C 46 36 0 
C 48 36 0 
C 50 36 0 
C 52 36 0 
C 54 36 0 
C 56 36 0 
C 58 36 0 
C 60 36 0 
C 62 36 0 
C 64 36 0 
C 66 36 0 
C 68 36 0 
C 70 36 0 
C 72 36 0 
C 74 36 0 
C 76 36 0 
C 78 36 0 
C 80 36 0 
C 82 36 0 
C 84 36 0 
C 86 36 0 
C 88 36 0 
C 90 36 0 
C 92 36 0 
C 94 36 0 
C 96 36 0 
C 98 36 0 
C 100 36 0 
C 0 38 0 
C 2 38 0 
C 4 38 0 
C 6 38 0 
C 8 38 0 
C 10 38 0 
C 12 38 0 
C 14 38 0 
C 16 38 0 
C 18 38 0 
C 20 38 0 
C 22 38 0 
C 24 38 0 
C 26 38 0 
C 28 38 0 
C 30 38 0 
C 32 38 0 
C 34 38 0 
C 36 38 0 
C 38 38 0 
C 40 38 0 
C 42 38 0 
C 44 38 0 
C 46 38 0 
C 48 38 0 
C 50 38 0 
C 52 38 0 
C 54 38 0 
C 56 38 0 
C 58 38 0 
C 60 38 0 
C 62 38 0 
C 64 38 0 
C 66 38 0 
C 68 38 0 
C 70 38 0 
C 72 38 0 
C 74 38 0 
C 76 38 0 
C 78 38 0 
C 80 38 0 
C 82 38 0 
C 84 38 0 
C 86 38 0 
C 88 38 0 
C 90 38 0 
C 92 38 0 
C 94 38 0 
C 96 38 0 
C 98 38 0 
C 100 38 0 
C 0 40 0 
C 2 40 0 
C 4 40 0 
C 6 40 0 
C 8 40 0 
C 10 40 0 
C 12 40 0 
C 14 40 0 
C 16 40 0 
C 18 40 0 
C 20 40 0 
C 22 40 0 
C 24 40 0 
C 26 40 0 
C 28 40 0 
C 30 40 0 
C 32 40 0 
C 34 40 0 
C 36 40 0 
C 38 40 0 
C 40 40 0 
C 42 40 0 
C 44 40 0 
C 46 40 0 
C 48 40 0 
C 50 40 0 
C 52 40 0 
C 54 40 0 
C 56 40 0 
C 58 40 0 
C 60 40 0 
C 62 40 0 
C 64 40 0 
C 66 40 0 
C 68 40 0 
C 70 40 0 
C 72 40 0 
C 74 40 0 
C 76 40 0 
C 78 40 0 
C 80 40 0 
C 82 40 0 
C 84 40 0 
C 86 40 0 
C 88 40 0 
C 90 40 0 
C 92 40 0 
C 94 40 0 
C 96 40 0 
C 98 40 0 
C 100 40 0 
C 0 42 0 
C 2 42 0 
C 4 42 0 
C 6 42 0 
C 8 42 0 
C 10 42 0 
C 12 42 0 
C 14 42 0 
C 16 42 0 
C 18 42 0 
C 20 42 0 
C 22 42 0 
C 24 42 0 
C 26 42 0 
C 28 42 0 
C 30 42 0 
C 32 42 0 
C 34 42 0 
C 36 42 0 
C 38 42 0 
C 40 42 0 
C 42 42 0 
C 44 42 0 
C 46 42 0 
C 48 42 0 
C 50 42 0 
C 52 42 0 
C 54 42 0 
C 56 42 0 
C 58 42 0 
C 60 42 0 
C 62 42 0 
C 64 42 0 
C 66 42 0 
C 68 42 0 
C 70 42 0 
C 72 42 0 
C 74 42 0 
C 76 42 0 
C 78 42 0 
C 80 42 0 
C 82 42 0 
C 84 42 0 
C 86 42 0 
C 88 42 0 
C 90 42 0 
C 92 42 0 
C 94 42 0 
C 96 42 0 
C 98 42 0 
C 100 42 0 
C 0 44 0 
C 2 44 0 
C 4 44 0 
C 6 44 0 
C 8 44 0 
C 10 44 0 
C 12 44 0 
C 14 44 0 
C 16 44 0 
C 18 44 0 
C 20 44 0 
C 22 44 0 
C 24 44 0 
C 26 44 0 
C 28 44 0 
C 30 44 0 
C 32 44 0 
C 34 44 0 
C 36 44 0 
C 38 44 0 
C 40 44 0 
C 42 44 0 
C 44 44 0 
C 46 44 0 
C 48 44 0 
C 50 44 0 
C 52 44 0 
C 54 44 0 
C 56 44 0 
C 58 44 0 
C 60 44 0 
C 62 44 0 
C 64 44 0 
C 66 44 0 
C 68 44 0 
C 70 44 0 
C 72 44 0 
C 74 44 0 
C 76 44 0 
C 78 44 0 
C 80 44 0 
C 82 44 0 
C 84 44 0 
C 86 44 0 
C 88 44 0 
C 90 44 0 
C 92 44 0 
C 94 44 0 
C 96 44 0 
C 98 44 0 
C 100 44 0 
C 0 46 0 
C 2 46 0 
C 4 46 0 
C 6 46 0 
C 8 46 0 
C 10 46 0 
C 12 46 0 
C 14 46 0 
C 16 46 0 
C 18 46 0 
C 20 46 0 
C 22 46 0 
C 24 46 0 
C 26 46 0 
C 28 46 0 
C 30 46 0 
C 32 46 0 
C 34 46 0 
C 36 46 0 
C 38 46 0 
C 40 46 0 
C 42 46 0 
C 44 46 0 
C 46 46 0 
C 48 46 0 
C 50 46 0 
C 52 46 0 
C 54 46 0 
C 56 46 0 
C 58 46 0 
C 60 46 0 
C 62 46 0 
C 64 46 0 
C 66 46 0 
C 68 46 0 
C 70 46 0 
C 72 46 0 
C 74 46 0 
C 76 46 0 
C 78 46 0 
C 80 46 0 
C 82 46 0 
C 84 46 0 
C 86 46 0 
C 88 46 0 
C 90 46 0 
C 92 46 0 
C 94 46 0 
C 96 46 0 
C 98 46 0 
C 100 46 0 
C 0 48 0 
C 2 48 0 
C 4 48 0 
C 6 48 0 
C 8 48 0 
C 10 48 0 
C 12 48 0 
C 14 48 0 
C 16 48 0 
C 18 48 0 
C 20 48 0 
C 22 48 0 
C 24 48 0 
C 26 48 0 
C 28 48 0 
C 30 48 0 
C 32 48 0 
C 34 48 0 
C 36 48 0 
C 38 48 0 
C 40 48 0 
C 42 48 0 
C 44 48 0 
C 46 48 0 
C 48 48 0 
C 50 48 0 
C 52 48 0 
C 54 48 0 
C 56 48 0 
C 58 48 0 
C 60 48 0 
C 62 48 0 
C 64 48 0 
C 66 48 0 
C 68 48 0 
C 70 48 0 
C 72 48 0 
C 74 48 0 
C 76 48 0 
C 78 48 0 
C 80 48 0 
C 82 48 0 
C 84 48 0 
C 86 48 0 
C 88 48 0 
C 90 48 0 
C 92 48 0 
C 94 48 0 
C 96 48 0 
C 98 48 0 
C 100 48 0 
C 0 50 0 
C 2 50 0 
C 4 50 0 
C 6 50 0 
C 8 50 0 
C 10 50 0 
C 12 50 0 
C 14 50 0 
C 16 50 0 
C 18 50 0 
C 20 50 0 
C 22 50 0 
C 24 50 0 
C 26 50 0 
C 28 50 0 
C 30 50 0 
C 32 50 0 
C 34 50 0 
C 36 50 0 
C 38 50 0 
C 40 50 0 
C 42 50 0 
C 44 50 0 
C 46 50 0 
C 48 50 0 
C 50 50 0 
C 52 50 0 
C 54 50 0 
C 56 50 0 
C 58 50 0 
C 60 50 0 
C 62 50 0 
C 64 50 0 
C 66 50 0 
C 68 50 0 
C 70 50 0 
C 72 50 0 
C 74 50 0 
C 76 50 0 
C 78 50 0 
C 80 50 0 
C 82 50 0 
C 84 50 0 
C 86 50 0 
C 88 50 0 
C 90 50 0 
C 92 50 0 
C 94 50 0 
C 96 50 0 
C 98 50 0 
C 100 50 0 
C 0 52 0 
C 2 52 0 
C 4 52 0 
C 6 52 0 
C 8 52 0 
C 10 52 0 
C 12 52 0 
C 14 52 0 
C 16 52 0 
C 18 52 0 
C 20 52 0 
C 22 52 0 
C 24 52 0 
C 26 52 0 
C 28 52 0 
C 30 52 0 
C 32 52 0 
C 34 52 0 
C 36 52 0 
C 38 52 0 
C 40 52 0 
C 42 52 0 
C 44 52 0 
C 46 52 0 
C 48 52 0 
C 50 52 0 
C 52 52 0 
C 54 52 0 
C 56 52 0 
C 58 52 0 
C 60 52 0 
C 62 52 0 
C 64 52 0 
C 66 52 0 
C 68 52 0 
C 70 52 0 
C 72 52 0 
C 74 52 0 
C 76 52 0 
C 78 52 0 
C 80 52 0 
C 82 52 0 
C 84 52 0 
C 86 52 0 
C 88 52 0 
C 90 52 0 
C 92 52 0 
C 94 52 0 
C 96 52 0 
C 98 52 0 
C 100 52 0 
C 0 54 0 
C 2 54 0 
C 4 54 0 
C 6 54 0 
C 8 54 0 
C 10 54 0 
C 12 54 0 
C 14 54 0 
C 16 54 0 
C 18 54 0 
C 20 54 0 
C 22 54 0 
C 24 54 0 
C 26 54 0 
C 28 54 0 
C 30 54 0 
C 32 54 0 
C 34 54 0 
C 36 54 0 
C 38 54 0 
C 40 54 0 
C 42 54 0 
C 44 54 0 
C 46 54 0 
C 48 54 0 
C 50 54 0 
C 52 54 0 
C 54 54 0 
C 56 54 0 
C 58 54 0 
C 60 54 0 
C 62 54 0 
C 64 54 0 
C 66 54 0 
C 68 54 0 
C 70 54 0 
C 72 54 0 
C 74 54 0 
C 76 54 0 
C 78 54 0 
C 80 54 0 
C 82 54 0 
C 84 54 0 
C 86 54 0 
C 88 54 0 
C 90 54 0 
C 92 54 0 
C 94 54 0 
C 96 54 0 
C 98 54 0 
C 100 54 0 
C 0 56 0 
C 2 56 0 
C 4 56 0 
C 6 56 0 
C 8 56 0 
C 10 56 0 
C 12 56 0 
C 14 56 0 
C 16 56 0 
C 18 56 0 
C 20 56 0 
C 22 56 0 
C 24 56 0 
C 26 56 0 
C 28 56 0 
C 30 56 0 
C 32 56 0 
C 34 56 0 
C 36 56 0 
C 38 56 0 
C 40 56 0 
C 42 56 0 
C 44 56 0 
C 46 56 0 
C 48 56 0 
C 50 56 0 
C 52 56 0 
C 54 56 0 
C 56 56 0 
C 58 56 0 
C 60 56 0 
C 62 56 0 
C 64 56 0 
C 66 56 0 
C 68 56 0 
C 70 56 0 
C 72 56 0 
C 74 56 0 
C 76 56 0 
C 78 56 0 
C 80 56 0 
C 82 56 0 
C 84 56 0 
C 86 56 0 
C 88 56 0 
C 90 56 0 
C 92 56 0 
C 94 56 0 
C 96 56 0 
C 98 56 0 
C 100 56 0 
C 0 58 0 
C 2 58 0 
C 4 58 0 
C 6 58 0 
C 8 58 0 
C 10 58 0 
C 12 58 0 
C 14 58 0 
C 16 58 0 
C 18 58 0 
C 20 58 0 
C 22 58 0 
C 24 58 0 
C 26 58 0 
C 28 58 0 
C 30 58 0 
C 32 58 0 
C 34 58 0 
C 36 58 0 
C 38 58 0 
C 40 58 0 
C 42 58 0 
C 44 58 0 
C 46 58 0 
C 48 58 0 
C 50 58 0 
C 52 58 0 
C 54 58 0 
C 56 58 0 
C 58 58 0 
C 60 58 0 
C 62 58 0 
C 64 58 0 
C 66 58 0 
C 68 58 0 
C 70 58 0 
C 72 58 0 
C 74 58 0 
C 76 58 0 
C 78 58 0 
C 80 58 0 
C 82 58 0 
C 84 58 0 
C 86 58 0 
C 88 58 0 
C 90 58 0 
C 92 58 0 
C 94 58 0 
C 96 58 0 
C 98 58 0 
C 100 58 0 
C 0 60 0 
C 2 60 0 
C 4 60 0 
C 6 60 0 
C 8 60 0 
C 10 60 0 
C 12 60 0 
C 14 60 0 
C 16 60 0 
C 18 60 0 
C 20 60 0 
C 22 60 0 
C 24 60 0 
C 26 60 0 
C 28 60 0 
C 30 60 0 
C 32 60 0 
C 34 60 0 
C 36 60 0 
C 38 60 0 
C 40 60 0 
C 42 60 0 
C 44 60 0 
C 46 60 0 
C 48 60 0 
C 50 60 0 
C 52 60 0 
C 54 60 0 
C 56 60 0 
C 58 60 0 
C 60 60 0 
C 62 60 0 
C 64 60 0 
C 66 60 0 
C 68 60 0 
C 70 60 0 
C 72 60 0 
C 74 60 0 
C 76 60 0 
C 78 60 0 
C 80 60 0 
C 82 60 0 
C 84 60 0 
C 86 60 0 
C 88 60 0 
C 90 60 0 
C 92 60 0 
C 94 60 0 
C 96 60 0 
C 98 60 0 
C 100 60 0 
C 0 62 0 
C 2 62 0 
C 4 62 0 
C 6 62 0 
C 8 62 0 
C 10 62 0 
C 12 62 0 
C 14 62 0 
C 16 62 0 
C 18 62 0 
C 20 62 0 
C 22 62 0 
C 24 62 0 
C 26 62 0 
C 28 62 0 
C 30 62 0 
C 32 62 0 
C 34 62 0 
C 36 62 0 
C 38 62 0 
C 40 62 0 
C 42 62 0 
C 44 62 0 
C 46 62 0 
C 48 62 0 
C 50 62 0 
C 52 62 0 
C 54 62 0 
C 56 62 0 
C 58 62 0 
C 60 62 0 
C 62 62 0 
C 64 62 0 
C 66 62 0 
C 68 62 0 
C 70 62 0 
C 72 62 0 
C 74 62 0 
C 76 62 0 
C 78 62 0 
C 80 62 0 
C 82 62 0 
C 84 62 0 
C 86 62 0 
C 88 62 0 
C 90 62 0 
C 92 62 0 
C 94 62 0 
C 96 62 0 
C 98 62 0 
C 100 62 0 
C 0 64 0 
C 2 64 0 
C 4 64 0 
C 6 64 0 
C 8 64 0 
C 10 64 0 
C 12 64 0 
C 14 64 0 
C 16 64 0 
C 18 64 0 
C 20 64 0 
C 22 64 0 
C 24 64 0 
C 26 64 0 
C 28 64 0 
C 30 64 0 
C 32 64 0 
C 34 64 0 
C 36 64 0 
C 38 64 0 
C 40 64 0 
C 42 64 0 
C 44 64 0 
C 46 64 0 
C 48 64 0 
C 50 64 0 
C 52 64 0 
C 54 64 0 
C 56 64 0 
C 58 64 0 
C 60 64 0 
C 62 64 0 
C 64 64 0 
C 66 64 0 
C 68 64 0 
C 70 64 0 
C 72 64 0 
C 74 64 0 
C 76 64 0 
C 78 64 0 
C 80 64 0 
C 82 64 0 
C 84 64 0 
C 86 64 0 
C 88 64 0 
C 90 64 0 
C 92 64 0 
C 94 64 0 
C 96 64 0 
C 98 64 0 
C 100 64 0 
C 0 66 0 
C 2 66 0 
C 4 66 0 
C 6 66 0 
C 8 66 0 
C 10 66 0 
C 12 66 0 
C 14 66 0 
C 16 66 0 
C 18 66 0 
C 20 66 0 
C 22 66 0 
C 24 66 0 
C 26 66 0 
C 28 66 0 
C 30 66 0 
C 32 66 0 
C 34 66 0 
C 36 66 0 
C 38 66 0 
C 40 66 0 
C 42 66 0 
C 44 66 0 
C 46 66 0 
C 48 66 0 
C 50 66 0 
C 52 66 0 
C 54 66 0 
C 56 66 0 
C 58 66 0 
C 60 66 0 
C 62 66 0 
C 64 66 0 
C 66 66 0 
C 68 66 0 
C 70 66 0 
C 72 66 0 
C 74 66 0 
C 76 66 0 
C 78 66 0 
C 80 66 0 
C 82 66 0 
C 84 66 0 
C 86 66 0 
C 88 66 0 
C 90 66 0 
C 92 66 0 
C 94 66 0 
C 96 66 0 
C 98 66 0 
C 100 66 0 
C 0 68 0 
C 2 68 0 
C 4 68 0 
C 6 68 0 
C 8 68 0 
C 10 68 0 
C 12 68 0 
C 14 68 0 
C 16 68 0 
C 18 68 0 
C 20 68 0 
C 22 68 0 
C 24 68 0 
C 26 68 0 
C 28 68 0 
C 30 68 0 
C 32 68 0 
C 34 68 0 
C 36 68 0 
C 38 68 0 
C 40 68 0 
C 42 68 0 
C 44 68 0 
C 46 68 0 
C 48 68 0 
C 50 68 0 
C 52 68 0 
C 54 68 0 
C 56 68 0 
C 58 68 0 
C 60 68 0 
C 62 68 0 
C 64 68 0 
C 66 68 0 
C 68 68 0 
C 70 68 0 
C 72 68 0 
C 74 68 0 
C 76 68 0 
C 78 68 0 
C 80 68 0 
C 82 68 0 
C 84 68 0 
C 86 68 0 
C 88 68 0 
C 90 68 0 
C 92 68 0 
C 94 68 0 
C 96 68 0 
C 98 68 0 
C 100 68 0 
C 0 70 0 
C 2 70 0 
C 4 70 0 
C 6 70 0 
C 8 70 0 
C 10 70 0 
C 12 70 0 
C 14 70 0 
C 16 70 0 
C 18 70 0 
C 20 70 0 
C 22 70 0 
C 24 70 0 
C 26 70 0 
C 28 70 0 
C 30 70 0 
C 32 70 0 
C 34 70 0 
C 36 70 0 
C 38 70 0 
C 40 70 0 
C 42 70 0 
C 44 70 0 
C 46 70 0 
C 48 70 0 
C 50 70 0 
C 52 70 0 
C 54 70 0 
C 56 70 0 
C 58 70 0 
C 60 70 0 
C 62 70 0 
C 64 70 0 
C 66 70 0 
C 68 70 0 
C 70 70 0 
C 72 70 0 
C 74 70 0 
C 76 70 0 
C 78 70 0 
C 80 70 0 
C 82 70 0 
C 84 70 0 
C 86 70 0 
C 88 70 0 
C 90 70 0 
C 92 70 0 
C 94 70 0 
C 96 70 0 
C 98 70 0 
C 100 70 0 
C 0 72 0 
C 2 72 0 
C 4 72 0 
C 6 72 0 
C 8 72 0 
C 10 72 0 
C 12 72 0 
C 14 72 0 
C 16 72 0 
C 18 72 0 
C 20 72 0 
C 22 72 0 
C 24 72 0 
C 26 72 0 
C 28 72 0 
C 30 72 0 
C 32 72 0 
C 34 72 0 
C 36 72 0 
C 38 72 0 
C 40 72 0 
C 42 72 0 
C 44 72 0 
C 46 72 0 
C 48 72 0 
C 50 72 0 
C 52 72 0 
C 54 72 0 
C 56 72 0 
C 58 72 0 
C 60 72 0 
C 62 72 0 
C 64 72 0 
C 66 72 0 
C 68 72 0 
C 70 72 0 
C 72 72 0 
C 74 72 0 
C 76 72 0 
C 78 72 0 
C 80 72 0 
C 82 72 0 
C 84 72 0 
C 86 72 0 
C 88 72 0 
C 90 72 0 
C 92 72 0 
C 94 72 0 
C 96 72 0 
C 98 72 0 
C 100 72 0 
C 0 74 0 
C 2 74 0 
C 4 74 0 
C 6 74 0 
C 8 74 0 
C 10 74 0 
C 12 74 0 
C 14 74 0 
C 16 74 0 
C 18 74 0 
C 20 74 0 
C 22 74 0 
C 24 74 0 
C 26 74 0 
C 28 74 0 
C 30 74 0 
C 32 74 0 
C 34 74 0 
C 36 74 0 
C 38 74 0 
C 40 74 0 
C 42 74 0 
C 44 74 0 
C 46 74 0 
C 48 74 0 
C 50 74 0 
C 52 74 0 
C 54 74 0 
C 56 74 0 
C 58 74 0 
C 60 74 0 
C 62 74 0 
C 64 74 0 
C 66 74 0 
C 68 74 0 
C 70 74 0 
C 72 74 0 
C 74 74 0 
C 76 74 0 
C 78 74 0 
C 80 74 0 
C 82 74 0 
C 84 74 0 
C 86 74 0 
C 88 74 0 
C 90 74 0 
C 92 74 0 
C 94 74 0 
C 96 74 0 
C 98 74 0 
C 100 74 0 
C 0 76 0 
C 2 76 0 
C 4 76 0 
C 6 76 0 
C 8 76 0 
C 10 76 0 
C 12 76 0 
C 14 76 0 
C 16 76 0 
C 18 76 0 
C 20 76 0 
C 22 76 0 
C 24 76 0 
C 26 76 0 
C 28 76 0 
C 30 76 0 
C 32 76 0 
C 34 76 0 
C 36 76 0 
C 38 76 0 
C 40 76 0 
C 42 76 0 
C 44 76 0 
C 46 76 0 
C 48 76 0 
C 50 76 0 
C 52 76 0 
C 54 76 0 
C 56 76 0 
C 58 76 0 
C 60 76 0 
C 62 76 0 
C 64 76 0 
C 66 76 0 
C 68 76 0 
C 70 76 0 
C 72 76 0 
C 74 76 0 
C 76 76 0 
C 78 76 0 
C 80 76 0 
C 82 76 0 
C 84 76 0 
C 86 76 0 
C 88 76 0 
C 90 76 0 
C 92 76 0 
C 94 76 0 
C 96 76 0 
C 98 76 0 
C 100 76 0 
C 0 78 0 
C 2 78 0 
C 4 78 0 
C 6 78 0 
C 8 78 0 
C 10 78 0 
C 12 78 0 
C 14 78 0 
C 16 78 0 
C 18 78 0 
C 20 78 0 
C 22 78 0 
C 24 78 0 
C 26 78 0 
C 28 78 0 
C 30 78 0 
C 32 78 0 
C 34 78 0 
C 36 78 0 
C 38 78 0 
C 40 78 0 
C 42 78 0 
C 44 78 0 
C 46 78 0 
C 48 78 0 
C 50 78 0 
C 52 78 0 
C 54 78 0 
C 56 78 0 
C 58 78 0 
C 60 78 0 
C 62 78 0 
C 64 78 0 
C 66 78 0 
C 68 78 0 
C 70 78 0 
C 72 78 0 
C 74 78 0 
C 76 78 0 
C 78 78 0 
C 80 78 0 
C 82 78 0 
C 84 78 0 
C 86 78 0 
C 88 78 0 
C 90 78 0 
C 92 78 0 
C 94 78 0 
C 96 78 0 
C 98 78 0 
C 100 78 0 
C 0 80 0 
C 2 80 0 
C 4 80 0 
C 6 80 0 
C 8 80 0 
C 10 80 0 
C 12 80 0 
C 14 80 0 
C 16 80 0 
C 18 80 0 
C 20 80 0 
C 22 80 0 
C 24 80 0 
C 26 80 0 
C 28 80 0 
C 30 80 0 
C 32 80 0 
C 34 80 0 
C 36 80 0 
C 38 80 0 
C 40 80 0 
C 42 80 0 
C 44 80 0 
C 46 80 0 
C 48 80 0 
C 50 80 0 
C 52 80 0 
C 54 80 0 
C 56 80 0 
C 58 80 0 
C 60 80 0 
C 62 80 0 
C 64 80 0 
C 66 80 0 
C 68 80 0 
C 70 80 0 
C 72 80 0 
C 74 80 0 
C 76 80 0 
C 78 80 0 
C 80 80 0 
C 82 80 0 
C 84 80 0 
C 86 80 0 
C 88 80 0 
C 90 80 0 
C 92 80 0 
C 94 80 0 
C 96 80 0 
C 98 80 0 
C 100 80 0 
C 0 82 0 
C 2 82 0 
C 4 82 0 
C 6 82 0 
C 8 82 0 
C 10 82 0 
C 12 82 0 
C 14 82 0 
C 16 82 0 
C 18 82 0 
C 20 82 0 
C 22 82 0 
C 24 82 0 
C 26 82 0 
C 28 82 0 
C 30 82 0 
C 32 82 0 
C 34 82 0 
C 36 82 0 
C 38 82 0 
C 40 82 0 
C 42 82 0 
C 44 82 0 
C 46 82 0 
C 48 82 0 
C 50 82 0 
C 52 82 0 
C 54 82 0 
C 56 82 0 
C 58 82 0 
C 60 82 0 
C 62 82 0 
C 64 82 0 
C 66 82 0 
C 68 82 0 
C 70 82 0 
C 72 82 0 
C 74 82 0 
C 76 82 0 
C 78 82 0 
C 80 82 0 
C 82 82 0 
C 84 82 0 
C 86 82 0 
C 88 82 0 
C 90 82 0 
C 92 82 0 
C 94 82 0 
C 96 82 0 
C 98 82 0 
C 100 82 0 
C 0 84 0 
C 2 84 0 
C 4 84 0 
C 6 84 0 
C 8 84 0 
C 10 84 0 
C 12 84 0 
C 14 84 0 
C 16 84 0 
C 18 84 0 
C 20 84 0 
C 22 84 0 
C 24 84 0 
C 26 84 0 
C 28 84 0 
C 30 84 0 
C 32 84 0 
C 34 84 0 
C 36 84 0 
C 38 84 0 
C 40 84 0 
C 42 84 0 
C 44 84 0 
C 46 84 0 
C 48 84 0 
C 50 84 0 
C 52 84 0 
C 54 84 0 
C 56 84 0 
C 58 84 0 
C 60 84 0 
C 62 84 0 
C 64 84 0 
C 66 84 0 
C 68 84 0 
C 70 84 0 
C 72 84 0 
C 74 84 0 
C 76 84 0 
C 78 84 0 
C 80 84 0 
C 82 84 0 
C 84 84 0 
C 86 84 0 
C 88 84 0 
C 90 84 0 
C 92 84 0 
C 94 84 0 
C 96 84 0 
C 98 84 0 
C 100 84 0 
C 0 86 0 
C 2 86 0 
C 4 86 0 
C 6 86 0 
C 8 86 0 
C 10 86 0 
C 12 86 0 
C 14 86 0 
C 16 86 0 
C 18 86 0 
C 20 86 0 
C 22 86 0 
C 24 86 0 
C 26 86 0 
C 28 86 0 
C 30 86 0 
C 32 86 0 
C 34 86 0 
C 36 86 0 
C 38 86 0 
C 40 86 0 
C 42 86 0 
C 44 86 0 
C 46 86 0 
C 48 86 0 
C 50 86 0 
C 52 86 0 
C 54 86 0 
C 56 86 0 
C 58 86 0 
C 60 86 0 
C 62 86 0 
C 64 86 0 
C 66 86 0 
C 68 86 0 
C 70 86 0 
C 72 86 0 
C 74 86 0 
C 76 86 0 
C 78 86 0 
C 80 86 0 
C 82 86 0 
C 84 86 0 
C 86 86 0 
C 88 86 0 
C 90 86 0 
C 92 86 0 
C 94 86 0 
C 96 86 0 
C 98 86 0 
C 100 86 0 
C 0 88 0 
C 2 88 0 
C 4 88 0 
C 6 88 0 
C 8 88 0 
C 10 88 0 
C 12 88 0 
C 14 88 0 
C 16 88 0 
C 18 88 0 
C 20 88 0 
C 22 88 0 
C 24 88 0 
C 26 88 0 
C 28 88 0 
C 30 88 0 
C 32 88 0 
C 34 88 0 
C 36 88 0 
C 38 88 0 
C 40 88 0 
C 42 88 0 
C 44 88 0 
C 46 88 0 
C 48 88 0 
C 50 88 0 
C 52 88 0 
C 54 88 0 
C 56 88 0 
C 58 88 0 
C 60 88 0 
C 62 88 0 
C 64 88 0 
C 66 88 0 
C 68 88 0 
C 70 88 0 
C 72 88 0 
C 74 88 0 
C 76 88 0 
C 78 88 0 
C 80 88 0 
C 82 88 0 
C 84 88 0 
C 86 88 0 
C 88 88 0 
C 90 88 0 
C 92 88 0 
C 94 88 0 
C 96 88 0 
C 98 88 0 
C 100 88 0 
C 0 90 0 
C 2 90 0 
C 4 90 0 
C 6 90 0 
C 8 90 0 
C 10 90 0 
C 12 90 0 
C 14 90 0 
C 16 90 0 
C 18 90 0 
C 20 90 0 
C 22 90 0 
C 24 90 0 
C 26 90 0 
C 28 90 0 
C 30 90 0 
C 32 90 0 
C 34 90 0 
C 36 90 0 
C 38 90 0 
C 40 90 0 
C 42 90 0 
C 44 90 0 
C 46 90 0 
C 48 90 0 
C 50 90 0 
C 52 90 0 
C 54 90 0 
C 56 90 0 
C 58 90 0 
C 60 90 0 
C 62 90 0 
C 64 90 0 
C 66 90 0 
C 68 90 0 
C 70 90 0 
C 72 90 0 
C 74 90 0 
C 76 90 0 
C 78 90 0 
C 80 90 0 
C 82 90 0 
C 84 90 0 
C 86 90 0 
C 88 90 0 
C 90 90 0 
C 92 90 0 
C 94 90 0 
C 96 90 0 
C 98 90 0 
C 100 90 0 
C 0 92 0 
C 2 92 0 
C 4 92 0 
C 6 92 0 
C 8 92 0 
C 10 92 0 
C 12 92 0 
C 14 92 0 
C 16 92 0 
C 18 92 0 
C 20 92 0 
C 22 92 0 
C 24 92 0 
C 26 92 0 
C 28 92 0 
C 30 92 0 
C 32 92 0 
C 34 92 0 
C 36 92 0 
C 38 92 0 
C 40 92 0 
C 42 92 0 
C 44 92 0 
C 46 92 0 
C 48 92 0 
C 50 92 0 
C 52 92 0 
C 54 92 0 
C 56 92 0 
C 58 92 0 
C 60 92 0 
C 62 92 0 
C 64 92 0 
C 66 92 0 
C 68 92 0 
C 70 92 0 
C 72 92 0 
C 74 92 0 
C 76 92 0 
C 78 92 0 
C 80 92 0 
C 82 92 0 
C 84 92 0 
C 86 92 0 
C 88 92 0 
C 90 92 0 
C 92 92 0 
C 94 92 0 
C 96 92 0 
C 98 92 0 
C 100 92 0 
C 0 94 0 
C 2 94 0 
C 4 94 0 
C 6 94 0 
C 8 94 0 
C 10 94 0 
C 12 94 0 
C 14 94 0 
C 16 94 0 
C 18 94 0 
C 20 94 0 
C 22 94 0 
C 24 94 0 
C 26 94 0 
C 28 94 0 
C 30 94 0 
C 32 94 0 
C 34 94 0 
C 36 94 0 
C 38 94 0 
C 40 94 0 
C 42 94 0 
C 44 94 0 
C 46 94 0 
C 48 94 0 
C 50 94 0 
C 52 94 0 
C 54 94 0 
C 56 94 0 
C 58 94 0 
C 60 94 0 
C 62 94 0 
C 64 94 0 
C 66 94 0 
C 68 94 0 
C 70 94 0 
C 72 94 0 
C 74 94 0 
C 76 94 0 
C 78 94 0 
C 80 94 0 
C 82 94 0 
C 84 94 0 
C 86 94 0 
C 88 94 0 
C 90 94 0 
C 92 94 0 
C 94 94 0 
C 96 94 0 
C 98 94 0 
C 100 94 0 
C 0 96 0 
C 2 96 0 
C 4 96 0 
C 6 96 0 
C 8 96 0 
C 10 96 0 
C 12 96 0 
C 14 96 0 
C 16 96 0 
C 18 96 0 
C 20 96 0 
C 22 96 0 
C 24 96 0 
C 26 96 0 
C 28 96 0 
C 30 96 0 
C 32 96 0 
C 34 96 0 
C 36 96 0 
C 38 96 0 
C 40 96 0 
C 42 96 0 
C 44 96 0 
C 46 96 0 
C 48 96 0 
C 50 96 0 
C 52 96 0 
C 54 96 0 
C 56 96 0 
C 58 96 0 
C 60 96 0 
C 62 96 0 
C 64 96 0 
C 66 96 0 
C 68 96 0 
C 70 96 0 
C 72 96 0 
C 74 96 0 
C 76 96 0 
C 78 96 0 
C 80 96 0 
C 82 96 0 
C 84 96 0 
C 86 96 0 
C 88 96 0 
C 90 96 0 
C 92 96 0 
C 94 96 0 
C 96 96 0 
C 98 96 0 
C 100 96 0 
C 0 98 0 
C 2 98 0 
C 4 98 0 
C 6 98 0 
C 8 98 0 
C 10 98 0 
C 12 98 0 
C 14 98 0 
C 16 98 0 
C 18 98 0 
C 20 98 0 
C 22 98 0 
C 24 98 0 
C 26 98 0 
C 28 98 0 
C 30 98 0 
C 32 98 0 
C 34 98 0 
C 36 98 0 
C 38 98 0 
C 40 98 0 
C 42 98 0 
C 44 98 0 
C 46 98 0 
C 48 98 0 
C 50 98 0 
C 52 98 0 
C 54 98 0 
C 56 98 0 
C 58 98 0 
C 60 98 0 
C 62 98 0 
C 64 98 0 
C 66 98 0 
C 68 98 0 
C 70 98 0 
C 72 98 0 
C 74 98 0 
C 76 98 0 
C 78 98 0 
C 80 98 0 
C 82 98 0 
C 84 98 0 
C 86 98 0 
C 88 98 0 
C 90 98 0 
C 92 98 0 
C 94 98 0 
C 96 98 0 
C 98 98 0 
C 100 98 0 
C 0 100 0 
C 2 100 0 
C 4 100 0 
C 6 100 0 
C 8 100 0 
C 10 100 0 
C 12 100 0 
C 14 100 0 
C 16 100 0 
C 18 100 0 
C 20 100 0 
C 22 100 0 
C 24 100 0 
C 26 100 0 
C 28 100 0 
C 30 100 0 
C 32 100 0 
C 34 100 0 
C 36 100 0 
C 38 100 0 
C 40 100 0 
C 42 100 0 
C 44 100 0 
C 46 100 0 
C 48 100 0 
C 50 100 0 
C 52 100 0 
C 54 100 0 
C 56 100 0 
C 58 100 0 
C 60 100 0 
C 62 100 0 
C 64 100 0 
C 66 100 0 
C 68 100 0 
C 70 100 0 
C 72 100 0 
C 74 100 0 
C 76 100 0 
C 78 100 0 
C 80 100 0 
C 82 100 0 
C 84 100 0 
C 86 100 0 
C 88 100 0 
C 90 100 0 
C 92 100 0 
C 94 100 0 
C 96 100 0 
C 98 100 0 
C 100 100 0 
O 16 19 0 
O 79 66 0 
O 95 53 0 
O 95 45 0 
O 52 59 0 
O 74 85 0 
O 3 98 0 
O 89 89 0 
O 45 62 0 
O 13 27 0 
O 0 65 0 
O 71 76 0 
O 43 62 0 
O 61 28 0 
O 41 30 0 
O 29 98 0 
O 3 91 0 
O 70 99 0 
O 5 61 0 
O 41 61 0 
O 43 24 0 
O 6 23 0 
O 55 90 0 
O 75 8 0 
O 91 12 0 
O 29 76 0 
O 66 91 0 
O 68 65 0 
O 98 27 0 
O 48 75 0 
O 96 85 0 
O 61 42 0 
O 89 87 0 
O 87 19 0 
O 9 61 0 
O 76 3 0 
O 79 15 0 
O 36 13 0 
O 30 77 0 
O 57 70 0 
O 32 61 0 
O 13 48 0 
O 96 71 0 
O 3 34 0 
O 45 88 0 
O 10 41 0 
O 77 64 0 
O 82 83 0 
O 95 80 0 
O 36 87 0 
O 21 78 0 
O 12 11 0 
O 87 80 0 
O 3 6 0 
O 45 8 0 
O 21 67 0 
O 3 32 0 
O 1 97 0 
O 12 67 0 
O 30 1 0 
O 99 93 0 
O 87 12 0 
O 75 49 0 
O 41 32 0 
O 22 85 0 
O 93 55 0 
3154
Atoms. Timestep: 3
N 89 19 0 
N 24 55 0 
N 15 68 0 
N 53 94 0 
N 35 18 0 
N 63 24 0 
N 85 65 0 
N 5 53 0 
N 13 51 0 
N 53 29 0 
N 16 5 0 
N 63 29 0 
N 62 9 0 
N 79 84 0 
N 55 86 0 
N 52 61 0 
N 37 75 0 
N 5 91 0 
N 3 11 0 
N 87 24 0 
N 13 37 0 
N 75 11 0 
N 20 27 0 
N 51 75 0 
N 63 97 0 
N 13 91 0 
N 90 9 0 
N 61 99 0 
N 2 39 0 
N 33 51 0 
N 75 29 0 
N 63 18 0 
N 25 65 0 
N 98 45 0 
N 28 19 0 
N 81 51 0 
N 95 70 0 
N 67 4 0 
N 65 87 0 
N 97 5 0 
N 47 11 0 
N 28 97 0 
N 91 27 0 
N 31 62 0 
N 55 43 0 
N 62 21 0 
N 57 77 0 
N 51 39 0 
N 94 79 0 
N 30 13 0 
N 59 23 0 
N 39 39 0 
N 9 21 0 
N 23 30 0 
N 96 73 0 
N 15 79 0 
N 53 67 0 
N 87 7 0 
N 3 22 0 
N 71 71 0 
N 97 61 0 
N 70 97 0 
N 8 35 0 
N 75 85 0 
N 69 11 0 
N 5 58 0 
N 75 63 0 
N 87 31 0 
N 43 21 0 
N 63 31 0 
N 43 22 0 
N 5 95 0 
N 2 45 0 
N 17 77 0 
N 41 83 0 
N 33 25 0 
N 55 88 0 
N 7 35 0 
N 27 51 0 
N 73 9 0 
N 61 44 0 
N 95 21 0 
N 77 93 0 
N 92 43 0 
N 1 35 0 
N 7 23 0 
N 35 67 0 
N 3 77 0 
N 20 29 0 
N 82 83 0 
N 63 78 0 
N 96 95 0 
N 18 19 0 
N 91 59 0 
N 91 8 0 
N 70 3 0 
N 69 53 0 
N 97 13 0 
N 65 65 0 
N 13 31 0 
N 45 62 0 
N 61 95 0 
N 47 39 0 
N 91 13 0 
N 92 97 0 
N 55 90 0 
N 68 63 0 
N 69 49 0 
N 29 92 0 
N 21 76 0 
N 27 44 0 
N 75 64 0 
N 18 77 0 
N 85 13 0 
N 45 66 0 
N 48 47 0 
N 14 55 0 
N 1 73 0 
N 67 93 0 
N 22 97 0 
N 33 30 0 
N 57 81 0 
N 47 25 0 
N 57 59 0 
N 14 27 0 
N 75 7 0 
N 5 73 0 
N 3 10 0 
N 31 14 0 
N 95 84 0 
N 2 85 0 
N 69 42 0 
N 13 42 0 
N 68 97 0 
N 19 11 0 
N 15 77 0 
N 33 55 0 
N 84 43 0 
N 95 43 0 
N 86 19 0 
N 11 43 0 
N 73 76 0 
N 76 1 0 
N 57 7 0 
N 82 87 0 
N 50 91 0 
N 97 51 0 
N 43 59 0 
N 97 80 0 
N 62 91 0 
N 95 41 0 
N 91 71 0 
N 26 35 0 
N 8 97 0 
N 49 71 0 
N 19 79 0 
N 98 83 0 
N 3 67 0 
N 5 3 0 
N 14 41 0 
N 91 39 0 
N 41 57 0 
N 91 40 0 
N 19 4 0 
N 35 88 0 
N 35 77 0 
N 71 12 0 
N 91 89 0 
N 98 23 0 
N 48 71 0 
N 7 97 0 
N 77 33 0 
N 23 39 0 
N 19 17 0 
N 69 27 0 
N 43 88 0 
N 92 61 0 
N 53 1 0 
N 81 79 0 
N 81 84 0 
N 71 32 0 
N 17 7 0 
N 85 55 0 
N 47 57 0 
N 1 69 0 
N 5 63 0 
N 98 53 0 
N 67 77 0 
N 92 71 0 
N 21 17 0 
N 19 75 0 
N 2 93 0 
N 67 64 0 
N 19 85 0 
N 57 67 0 
N 97 24 0 
N 67 75 0 
N 96 23 0 
N 47 37 0 
N 97 32 0 
N 77 4 0 
N 61 90 0 
N 65 30 0 
N 47 95 0 
N 61 7 0 
N 33 65 0 
N 67 29 0 
N 61 41 0 
N 93 85 0 
N 93 56 0 
N 27 61 0 
N 26 67 0 
N 17 6 0 
N 97 25 0 
N 29 20 0 
N 12 73 0 
N 62 69 0 
N 57 65 0 
N 89 83 0 
N 25 85 0 
N 1 55 0 
N 88 25 0 
N 99 68 0 
N 61 29 0 
N 24 45 0 
N 98 81 0 
N 75 37 0 
N 91 53 0 
N 79 25 0 
N 97 71 0 
N 87 81 0 
N 57 47 0 
N 43 23 0 
N 88 77 0 
N 67 55 0 
N 81 55 0 
N 25 33 0 
N 70 81 0 
N 3 39 0 
N 27 12 0 
N 75 57 0 
N 19 68 0 
N 94 51 0 
N 9 23 0 
N 53 49 0 
N 21 3 0 
N 31 13 0 
N 21 67 0 
N 17 67 0 
N 13 14 0 
N 81 91 0 
N 51 60 0 
N 41 87 0 
N 23 25 0 
N 15 33 0 
N 16 27 0 
N 80 45 0 
N 59 39 0 
N 53 26 0 
N 17 81 0 
N 15 65 0 
N 3 33 0 
N 97 45 0 
N 13 28 0 
N 41 75 0 
N 97 91 0 
N 55 41 0 
N 75 45 0 
N 87 75 0 
N 58 45 0 
N 91 99 0 
N 19 9 0 
N 37 89 0 
N 11 3 0 
N 41 48 0 
N 57 57 0 
N 5 25 0 
N 30 39 0 
N 52 65 0 
N 4 33 0 
N 57 70 0 
N 17 15 0 
N 35 75 0 
N 71 22 0 
N 28 77 0 
N 63 19 0 
N 87 87 0 
N 43 43 0 
N 91 12 0 
N 91 4 0 
N 50 5 0 
N 39 23 0 
N 59 87 0 
N 63 8 0 
N 45 3 0 
N 29 77 0 
N 41 43 0 
N 19 67 0 
N 18 43 0 
N 91 45 0 
N 77 91 0 
N 3 57 0 
N 26 85 0 
N 15 97 0 
N 51 56 0 
N 58 9 0 
N 69 76 0 
N 6 47 0 
N 71 3 0 
N 22 89 0 
N 95 71 0 
N 35 53 0 
N 41 98 0 
N 11 34 0 
N 33 98 0 
N 34 77 0 
N 27 7 0 
N 68 39 0 
N 3 6 0 
N 49 19 0 
N 71 75 0 
N 4 13 0 
N 92 47 0 
N 25 69 0 
N 37 10 0 
N 67 2 0 
N 64 23 0 
N 95 1 0 
N 54 87 0 
N 13 43 0 
N 49 36 0 
N 87 2 0 
N 93 43 0 
N 67 19 0 
N 91 51 0 
N 43 31 0 
N 17 98 0 
N 9 95 0 
N 79 2 0 
N 81 63 0 
N 37 32 0 
N 27 37 0 
N 55 2 0 
N 81 40 0 
N 11 17 0 
N 15 95 0 
N 92 3 0 
N 51 91 0 
N 79 89 0 
N 57 85 0 
N 77 25 0 
N 67 81 0 
N 13 52 0 
N 97 59 0 
N 17 19 0 
N 48 27 0 
N 49 38 0 
N 36 1 0 
N 27 94 0 
N 45 56 0 
N 80 19 0 
N 63 34 0 
N 40 75 0 
N 39 33 0 
N 31 37 0 
N 1 39 0 
N 75 15 0 
N 51 43 0 
N 93 42 0 
N 99 44 0 
N 27 79 0 
N 67 8 0 
N 36 79 0 
N 63 25 0 
N 29 67 0 
N 43 8 0 
N 55 50 0 
N 93 13 0 
N 57 29 0 
N 75 91 0 
N 29 3 0 
N 5 88 0 
N 43 9 0 
N 32 77 0 
N 31 64 0 
N 55 51 0 
N 65 50 0 
N 35 24 0 
N 83 43 0 
N 13 30 0 
N 85 97 0 
N 95 74 0 
N 53 93 0 
N 71 27 0 
N 97 47 0 
N 3 32 0 
N 55 3 0 
N 60 27 0 
N 81 83 0 
N 57 76 0 
N 81 85 0 
N 3 65 0 
N 3 47 0 
N 32 61 0 
N 19 81 0 
N 79 35 0 
N 33 64 0 
N 79 71 0 
N 88 45 0 
N 47 35 0 
N 72 7 0 
N 59 5 0 
N 91 7 0 
N 10 41 0 
N 93 8 0 
N 56 47 0 
N 14 53 0 
N 27 34 0 
N 71 47 0 
N 92 41 0 
N 93 77 0 
N 91 32 0 
N 15 85 0 
N 51 63 0 
N 93 69 0 
N 79 13 0 
N 41 49 0 
N 15 61 0 
N 78 23 0 
N 7 22 0 
N 23 82 0 
N 34 23 0 
N 79 15 0 
N 32 65 0 
N 67 51 0 
N 93 55 0 
N 85 45 0 
N 1 7 0 
N 56 87 0 
N 82 65 0 
N 63 3 0 
N 11 61 0 
N 31 3 0 
N 18 71 0 
N 20 41 0 
N 22 27 0 
N 71 78 0 
N 73 82 0 
N 23 64 0 
N 20 67 0 
N 63 76 0 
N 94 77 0 
N 98 29 0 
N 68 17 0 
N 69 31 0 
N 66 31 0 
N 39 58 0 
N 95 63 0 
N 77 66 0 
N 3 4 0 
N 36 83 0 
N 63 33 0 
N 15 30 0 
N 20 87 0 
N 29 63 0 
N 12 11 0 
N 3 27 0 
N 84 65 0 
N 57 75 0 
N 19 69 0 
N 45 83 0 
N 9 11 0 
N 13 3 0 
N 37 13 0 
N 87 21 0 
N 43 49 0 
N 1 65 0 
N 35 87 0 
N 39 65 0 
N 36 11 0 
N 53 59 0 
N 93 39 0 
N 91 97 0 
N 65 29 0 
N 56 41 0 
N 79 21 0 
N 21 92 0 
N 98 25 0 
N 75 23 0 
N 87 14 0 
N 38 85 0 
N 51 19 0 
N 39 15 0 
N 31 29 0 
N 36 77 0 
N 51 40 0 
N 3 61 0 
N 72 15 0 
N 33 74 0 
N 95 68 0 
C 0 0 0 
C 2 0 0 
C 4 0 0 
C 6 0 0 
C 8 0 0 
C 10 0 0 
C 12 0 0 
C 14 0 0 
C 16 0 0 
C 18 0 0 
C 20 0 0 
C 22 0 0 
C 24 0 0 
C 26 0 0 
C 28 0 0 
C 30 0 0 
C 32 0 0 
C 34 0 0 
C 36 0 0 
C 38 0 0 
C 40 0 0 
C 42 0 0 
C 44 0 0 
C 46 0 0 
C 48 0 0 
C 50 0 0 
C 52 0 0 
C 54 0 0 
C 56 0 0 
C 58 0 0 
C 60 0 0 
C 62 0 0 
C 64 0 0 
C 66 0 0 
C 68 0 0 
C 70 0 0 
C 72 0 0 
C 74 0 0 
C 76 0 0 
C 78 0 0 
C 80 0 0 
C 82 0 0 
C 84 0 0 
C 86 0 0 
C 88 0 0 
C 90 0 0 
C 92 0 0 
C 94 0 0 
C 96 0 0 
C 98 0 0 
C 100 0 0 
C 0 2 0 
C 2 2 0 
C 4 2 0 
C 6 2 0 
C 8 2 0 
C 10 2 0 
C 12 2 0 
C 14 2 0 
C 16 2 0 
C 18 2 0 
C 20 2 0 
C 22 2 0 
C 24 2 0 
C 26 2 0 
C 28 2 0 
C 30 2 0 
C 32 2 0 
C 34 2 0 
C 36 2 0 
C 38 2 0 
C 40 2 0 
C 42 2 0 
C 44 2 0 
C 46 2 0 
C 48 2 0 
C 50 2 0 
C 52 2 0 
C 54 2 0 
C 56 2 0 
C 58 2 0 
C 60 2 0 
C 62 2 0 
C 64 2 0 
C 66 2 0 
C 68 2 0 
C 70 2 0 
C 72 2 0 
C 74 2 0 
C 76 2 0 
C 78 2 0 
C 80 2 0 
C 82 2 0 
C 84 2 0 
C 86 2 0 
C 88 2 0 
C 90 2 0 
C 92 2 0 
C 94 2 0 
C 96 2 0 
C 98 2 0 
C 100 2 0 
C 0 4 0 
C 2 4 0 
C 4 4 0 
C 6 4 0 
C 8 4 0 
C 10 4 0 
C 12 4 0 
C 14 4 0 
C 16 4 0 
C 18 4 0 
C 20 4 0 
C 22 4 0 
C 24 4 0 
C 26 4 0 
C 28 4 0 
C 30 4 0 
C 32 4 0 
C 34 4 0 
C 36 4 0 
C 38 4 0 
C 40 4 0 
C 42 4 0 
C 44 4 0 
C 46 4 0 
C 48 4 0 
C 50 4 0 
C 52 4 0 
C 54 4 0 
C 56 4 0 
C 58 4 0 
C 60 4 0 
C 62 4 0 
C 64 4 0 
C 66 4 0 
C 68 4 0 
C 70 4 0 
C 72 4 0 
C 74 4 0 
C 76 4 0 
C 78 4 0 
C 80 4 0 
C 82 4 0 
C 84 4 0 
C 86 4 0 
C 88 4 0 
C 90 4 0 
C 92 4 0 
C 94 4 0 
C 96 4 0 
C 98 4 0 
C 100 4 0 
C 0 6 0 
C 2 6 0 
C 4 6 0 
C 6 6 0 
C 8 6 0 
C 10 6 0 
C 12 6 0 
C 14 6 0 
C 16 6 0 
C 18 6 0 
C 20 6 0 
C 22 6 0 
C 24 6 0 
C 26 6 0 
C 28 6 0 
C 30 6 0 
C 32 6 0 
C 34 6 0 
C 36 6 0 
C 38 6 0 
C 40 6 0 
C 42 6 0 
C 44 6 0 
C 46 6 0 
C 48 6 0 
C 50 6 0 
C 52 6 0 
C 54 6 0 
C 56 6 0 
C 58 6 0 
C 60 6 0 
C 62 6 0 
C 64 6 0 
C 66 6 0 
C 68 6 0 
C 70 6 0 
C 72 6 0 
C 74 6 0 
C 76 6 0 
C 78 6 0 
C 80 6 0 
C 82 6 0 
C 84 6 0 
C 86 6 0 
C 88 6 0 
C 90 6 0 
C 92 6 0 
C 94 6 0 
C 96 6 0 
C 98 6 0 
C 100 6 0 
C 0 8 0 
C 2 8 0 
C 4 8 0 
C 6 8 0 
C 8 8 0 
C 10 8 0 
C 12 8 0 
C 14 8 0 
C 16 8 0 
C 18 8 0 
C 20 8 0 
C 22 8 0 
C 24 8 0 
C 26 8 0 
C 28 8 0 
C 30 8 0 
C 32 8 0 
C 34 8 0 
C 36 8 0 
C 38 8 0 
C 40 8 0 
C 42 8 0 
C 44 8 0 
C 46 8 0 
C 48 8 0 
C 50 8 0 
C 52 8 0 
C 54 8 0 
C 56 8 0 
C 58 8 0 
C 60 8 0 
C 62 8 0 
C 64 8 0 
C 66 8 0 
C 68 8 0 
C 70 8 0 
C 72 8 0 
C 74 8 0 
C 76 8 0 
C 78 8 0 
C 80 8 0 
C 82 8 0 
C 84 8 0 
C 86 8 0 
C 88 8 0 
C 90 8 0 
C 92 8 0 
C 94 8 0 
C 96 8 0 
C 98 8 0 
C 100 8 0 
C 0 10 0 
C 2 10 0 
C 4 10 0 
C 6 10 0 
C 8 10 0 
C 10 10 0 
C 12 10 0 
C 14 10 0 
C 16 10 0 
C 18 10 0 
C 20 10 0 
C 22 10 0 
C 24 10 0 
C 26 10 0 
C 28 10 0 
C 30 10 0 
C 32 10 0 
C 34 10 0 
C 36 10 0 
C 38 10 0 
C 40 10 0 
C 42 10 0 
C 44 10 0 
C 46 10 0 
C 48 10 0 
C 50 10 0 
C 52 10 0 
C 54 10 0 
C 56 10 0 
C 58 10 0 
C 60 10 0 
C 62 10 0 
C 64 10 0 
C 66 10 0 
C 68 10 0 
C 70 10 0 
C 72 10 0 
C 74 10 0 
C 76 10 0 
C 78 10 0 
C 80 10 0 
C 82 10 0 
C 84 10 0 
C 86 10 0 
C 88 10 0 
C 90 10 0 
C 92 10 0 
C 94 10 0 
C 96 10 0 
C 98 10 0 
C 100 10 0 
C 0 12 0 
C 2 12 0 
C 4 12 0 
C 6 12 0 
C 8 12 0 
C 10 12 0 
C 12 12 0 
C 14 12 0 
C 16 12 0 
C 18 12 0 
C 20 12 0 
C 22 12 0 
C 24 12 0 
C 26 12 0 
C 28 12 0 
C 30 12 0 
C 32 12 0 
C 34 12 0 
C 36 12 0 
C 38 12 0 
C 40 12 0 
C 42 12 0 
C 44 12 0 
C 46 12 0 
C 48 12 0 
C 50 12 0 
C 52 12 0 
C 54 12 0 
C 56 12 0 
C 58 12 0 
C 60 12 0 
C 62 12 0 
C 64 12 0 
C 66 12 0 
C 68 12 0 
C 70 12 0 
C 72 12 0 
C 74 12 0 
C 76 12 0 
C 78 12 0 
C 80 12 0 
C 82 12 0 
C 84 12 0 
C 86 12 0 
C 88 12 0 
C 90 12 0 
C 92 12 0 
C 94 12 0 
C 96 12 0 
C 98 12 0 
C 100 12 0 
C 0 14 0 
C 2 14 0 
C 4 14 0 
C 6 14 0 
C 8 14 0 
C 10 14 0 
C 12 14 0 
C 14 14 0 
C 16 14 0 
C 18 14 0 
C 20 14 0 
C 22 14 0 
C 24 14 0 
C 26 14 0 
C 28 14 0 
C 30 14 0 
C 32 14 0 
C 34 14 0 
C 36 14 0 
C 38 14 0 
C 40 14 0 
C 42 14 0 
C 44 14 0 
C 46 14 0 
C 48 14 0 
C 50 14 0 
C 52 14 0 
C 54 14 0 
C 56 14 0 
C 58 14 0 
C 60 14 0 
C 62 14 0 
C 64 14 0 
C 66 14 0 
C 68 14 0 
C 70 14 0 
C 72 14 0 
C 74 14 0 
C 76 14 0 
C 78 14 0 
C 80 14 0 
C 82 14 0 
C 84 14 0 
C 86 14 0 
C 88 14 0 
C 90 14 0 
C 92 14 0 
C 94 14 0 
C 96 14 0 
C 98 14 0 
C 100 14 0 
C 0 16 0 
C 2 16 0 
C 4 16 0 
C 6 16 0 
C 8 16 0 
C 10 16 0 
C 12 16 0 
C 14 16 0 
C 16 16 0 
C 18 16 0 
C 20 16 0 
C 22 16 0 
C 24 16 0 
C 26 16 0 
C 28 16 0 
C 30 16 0 
C 32 16 0 
C 34 16 0 
C 36 16 0 
C 38 16 0 
C 40 16 0 
C 42 16 0 
C 44 16 0 
C 46 16 0 
C 48 16 0 
C 50 16 0 
C 52 16 0 
C 54 16 0 
C 56 16 0 
C 58 16 0 
C 60 16 0 
C 62 16 0 
C 64 16 0 
C 66 16 0 
C 68 16 0 
C 70 16 0 
C 72 16 0 
C 74 16 0 
C 76 16 0 
C 78 16 0 
C 80 16 0 
C 82 16 0 
C 84 16 0 
C 86 16 0 
C 88 16 0 
C 90 16 0 
C 92 16 0 
C 94 16 0 
C 96 16 0 
C 98 16 0 
C 100 16 0 
C 0 18 0 
C 2 18 0 
C 4 18 0 
C 6 18 0 
C 8 18 0 
C 10 18 0 
C 12 18 0 
C 14 18 0 
C 16 18 0 
C 18 18 0 
C 20 18 0 
C 22 18 0 
C 24 18 0 
C 26 18 0 
C 28 18 0 
C 30 18 0 
C 32 18 0 
C 34 18 0 
C 36 18 0 
C 38 18 0 
C 40 18 0 
C 42 18 0 
C 44 18 0 
C 46 18 0 
C 48 18 0 
C 50 18 0 
C 52 18 0 
C 54 18 0 
C 56 18 0 
C 58 18 0 
C 60 18 0 
C 62 18 0 
C 64 18 0 
C 66 18 0 
C 68 18 0 
C 70 18 0 
C 72 18 0 
C 74 18 0 
C 76 18 0 
C 78 18 0 
C 80 18 0 
C 82 18 0 
C 84 18 0 
C 86 18 0 
C 88 18 0 
C 90 18 0 
C 92 18 0 
C 94 18 0 
C 96 18 0 
C 98 18 0 
C 100 18 0 
C 0 20 0 
C 2 20 0 
C 4 20 0 
C 6 20 0 
C 8 20 0 
C 10 20 0 
C 12 20 0 
C 14 20 0 
C 16 20 0 
C 18 20 0 
C 20 20 0 
C 22 20 0 
C 24 20 0 
C 26 20 0 
C 28 20 0 
C 30 20 0 
C 32 20 0 
C 34 20 0 
C 36 20 0 
C 38 20 0 
C 40 20 0 
C 42 20 0 
C 44 20 0 
C 46 20 0 
C 48 20 0 
C 50 20 0 
C 52 20 0 
C 54 20 0 
C 56 20 0 
C 58 20 0 
C 60 20 0 
C 62 20 0 
C 64 20 0 
C 66 20 0 
C 68 20 0 
C 70 20 0 
C 72 20 0 
C 74 20 0 
C 76 20 0 
C 78 20 0 
C 80 20 0 
C 82 20 0 
C 84 20 0 
C 86 20 0 
C 88 20 0 
C 90 20 0 
C 92 20 0 
C 94 20 0 
C 96 20 0 
C 98 20 0 
C 100 20 0 
C 0 22 0 
C 2 22 0 
C 4 22 0 
C 6 22 0 
C 8 22 0 
C 10 22 0 
C 12 22 0 
C 14 22 0 
C 16 22 0 
C 18 22 0 
C 20 22 0 
C 22 22 0 
C 24 22 0 
C 26 22 0 
C 28 22 0 
C 30 22 0 
C 32 22 0 
C 34 22 0 
C 36 22 0 
C 38 22 0 
C 40 22 0 
C 42 22 0 
C 44 22 0 
C 46 22 0 
C 48 22 0 
C 50 22 0 
C 52 22 0 
C 54 22 0 
C 56 22 0 
C 58 22 0 
C 60 22 0 
C 62 22 0 
C 64 22 0 
C 66 22 0 
C 68 22 0 
C 70 22 0 
C 72 22 0 
C 74 22 0 
C 76 22 0 
C 78 22 0 
C 80 22 0 
C 82 22 0 
C 84 22 0 
C 86 22 0 
C 88 22 0 
C 90 22 0 
C 92 22 0 
C 94 22 0 
C 96 22 0 
C 98 22 0 
C 100 22 0 
C 0 24 0 
C 2 24 0 
C 4 24 0 
C 6 24 0 
C 8 24 0 
C 10 24 0 
C 12 24 0 
C 14 24 0 
C 16 24 0 
C 18 24 0 
C 20 24 0 
C 22 24 0 
C 24 24 0 
C 26 24 0 
C 28 24 0 
C 30 24 0 
C 32 24 0 
C 34 24 0 
C 36 24 0 
C 38 24 0 
C 40 24 0 
C 42 24 0 
C 44 24 0 
C 46 24 0 
C 48 24 0 
C 50 24 0 
C 52 24 0 
C 54 24 0 
C 56 24 0 
C 58 24 0 
C 60 24 0 
C 62 24 0 
C 64 24 0 
C 66 24 0 
C 68 24 0 
C 70 24 0 
C 72 24 0 
C 74 24 0 
C 76 24 0 
C 78 24 0 
C 80 24 0 
C 82 24 0 
C 84 24 0 
C 86 24 0 
C 88 24 0 
C 90 24 0 
C 92 24 0 
C 94 24 0 
C 96 24 0 
C 98 24 0 
C 100 24 0 
C 0 26 0 
C 2 26 0 
C 4 26 0 
C 6 26 0 
C 8 26 0 
C 10 26 0 
C 12 26 0 
C 14 26 0 
C 16 26 0 
C 18 26 0 
C 20 26 0 
C 22 26 0 
C 24 26 0 
C 26 26 0 
C 28 26 0 
C 30 26 0 
C 32 26 0 
C 34 26 0 
C 36 26 0 
C 38 26 0 
C 40 26 0 
C 42 26 0 
C 44 26 0 
C 46 26 0 
C 48 26 0 
C 50 26 0 
C 52 26 0 
C 54 26 0 
C 56 26 0 
C 58 26 0 
C 60 26 0 
C 62 26 0 
C 64 26 0 
C 66 26 0 
C 68 26 0 
C 70 26 0 
C 72 26 0 
C 74 26 0 
C 76 26 0 
C 78 26 0 
C 80 26 0 
C 82 26 0 
C 84 26 0 
C 86 26 0 
C 88 26 0 
C 90 26 0 
C 92 26 0 
C 94 26 0 
C 96 26 0 
C 98 26 0 
C 100 26 0 
C 0 28 0 
C 2 28 0 
C 4 28 0 
C 6 28 0 
C 8 28 0 
C 10 28 0 
C 12 28 0 
C 14 28 0 
C 16 28 0 
C 18 28 0 
C 20 28 0 
C 22 28 0 
C 24 28 0 
C 26 28 0 
C 28 28 0 
C 30 28 0 
C 32 28 0 
C 34 28 0 
C 36 28 0 
C 38 28 0 
C 40 28 0 
C 42 28 0 
C 44 28 0 
C 46 28 0 
C 48 28 0 
C 50 28 0 
C 52 28 0 
C 54 28 0 
C 56 28 0 
C 58 28 0 
C 60 28 0 
C 62 28 0 
C 64 28 0 
C 66 28 0 
C 68 28 0 
C 70 28 0 
C 72 28 0 
C 74 28 0 
C 76 28 0 
C 78 28 0 
C 80 28 0 
C 82 28 0 
C 84 28 0 
C 86 28 0 
C 88 28 0 
C 90 28 0 
C 92 28 0 
C 94 28 0 
C 96 28 0 
C 98 28 0 
C 100 28 0 
C 0 30 0 
C 2 30 0 
C 4 30 0 
C 6 30 0 
C 8 30 0 
C 10 30 0 
C 12 30 0 
C 14 30 0 
C 16 30 0 
C 18 30 0 
C 20 30 0 
C 22 30 0 
C 24 30 0 
C 26 30 0 
C 28 30 0 
C 30 30 0 
C 32 30 0 
C 34 30 0 
C 36 30 0 
C 38 30 0 
C 40 30 0 
C 42 30 0 
C 44 30 0 
C 46 30 0 
C 48 30 0 
C 50 30 0 
C 52 30 0 
C 54 30 0 
C 56 30 0 
C 58 30 0 
C 60 30 0 
C 62 30 0 
C 64 30 0 
C 66 30 0 
C 68 30 0 
C 70 30 0 
C 72 30 0 
C 74 30 0 
C 76 30 0 
C 78 30 0 
C 80 30 0 
C 82 30 0 
C 84 30 0 
C 86 30 0 
C 88 30 0 
C 90 30 0 
C 92 30 0 
C 94 30 0 
C 96 30 0 
C 98 30 0 
C 100 30 0 
C 0 32 0 
C 2 32 0 
C 4 32 0 
C 6 32 0 
C 8 32 0 
C 10 32 0 
C 12 32 0 
C 14 32 0 
C 16 32 0 
C 18 32 0 
C 20 32 0 
C 22 32 0 
C 24 32 0 
C 26 32 0 
C 28 32 0 
C 30 32 0 
C 32 32 0 
C 34 32 0 
C 36 32 0 
C 38 32 0 
C 40 32 0 
C 42 32 0 
C 44 32 0 
C 46 32 0 
C 48 32 0 
C 50 32 0 
C 52 32 0 
C 54 32 0 
C 56 32 0 
C 58 32 0 
C 60 32 0 
C 62 32 0 
C 64 32 0 
C 66 32 0 
C 68 32 0 
C 70 32 0 
C 72 32 0 
C 74 32 0 
C 76 32 0 
C 78 32 0 
C 80 32 0 
C 82 32 0 
C 84 32 0 
C 86 32 0 
C 88 32 0 
C 90 32 0 
C 92 32 0 
C 94 32 0 
C 96 32 0 
C 98 32 0 
C 100 32 0 
C 0 34 0 
C 2 34 0 
C 4 34 0 
C 6 34 0 
C 8 34 0 
C 10 34 0 
C 12 34 0 
C 14 34 0 
C 16 34 0 
C 18 34 0 
C 20 34 0 
C 22 34 0 
C 24 34 0 
C 26 34 0 
C 28 34 0 
C 30 34 0 
C 32 34 0 
C 34 34 0 
C 36 34 0 
C 38 34 0 
C 40 34 0 
C 42 34 0 
C 44 34 0 
C 46 34 0 
C 48 34 0 
C 50 34 0 
C 52 34 0 
C 54 34 0 
C 56 34 0 
C 58 34 0 
C 60 34 0 
C 62 34 0 
C 64 34 0 
C 66 34 0 
C 68 34 0 
C 70 34 0 
C 72 34 0 
C 74 34 0 
C 76 34 0 
C 78 34 0 
C 80 34 0 
C 82 34 0 
C 84 34 0 
C 86 34 0 
C 88 34 0 
C 90 34 0 
C 92 34 0 
C 94 34 0 
C 96 34 0 
C 98 34 0 
C 100 34 0 
C 0 36 0 
C 2 36 0 
C 4 36 0 
C 6 36 0 
C 8 36 0 
C 10 36 0 
C 12 36 0 
C 14 36 0 
C 16 36 0 
C 18 36 0 
C 20 36 0 
C 22 36 0 
C 24 36 0 
C 26 36 0 
C 28 36 0 
C 30 36 0 
C 32 36 0 
C 34 36 0 
C 36 36 0 
C 38 36 0 
C 40 36 0 
C 42 36 0 
C 44 36 0 
C 46 36 0 
C 48 36 0 
C 50 36 0 
C 52 36 0 
C 54 36 0 
C 56 36 0 
C 58 36 0 
C 60 36 0 
C 62 36 0 
C 64 36 0 
C 66 36 0 
C 68 36 0 
C 70 36 0 
C 72 36 0 
C 74 36 0 
C 76 36 0 
C 78 36 0 
C 80 36 0 
C 82 36 0 
C 84 36 0 
C 86 36 0 
C 88 36 0 
C 90 36 0 
C 92 36 0 
C 94 36 0 
C 96 36 0 
C 98 36 0 
C 100 36 0 
C 0 38 0 
C 2 38 0 
C 4 38 0 
C 6 38 0 
C 8 38 0 
C 10 38 0 
C 12 38 0 
C 14 38 0 
C 16 38 0 
C 18 38 0 
C 20 38 0 
C 22 38 0 
C 24 38 0 
C 26 38 0 
C 28 38 0 
C 30 38 0 
C 32 38 0 
C 34 38 0 
C 36 38 0 
C 38 38 0 
C 40 38 0 
C 42 38 0 
C 44 38 0 
C 46 38 0 
C 48 38 0 
C 50 38 0 
C 52 38 0 
C 54 38 0 
C 56 38 0 
C 58 38 0 
C 60 38 0 
C 62 38 0 
C 64 38 0 
C 66 38 0 
C 68 38 0 
C 70 38 0 
C 72 38 0 
C 74 38 0 
C 76 38 0 
C 78 38 0 
C 80 38 0 
C 82 38 0 
C 84 38 0 
C 86 38 0 
C 88 38 0 
C 90 38 0 
C 92 38 0 
C 94 38 0 
C 96 38 0 
C 98 38 0 
C 100 38 0 
C 0 40 0 
C 2 40 0 
C 4 40 0 
C 6 40 0 
C 8 40 0 
C 10 40 0 
C 12 40 0 
C 14 40 0 
C 16 40 0 
C 18 40 0 
C 20 40 0 
C 22 40 0 
C 24 40 0 
C 26 40 0 
C 28 40 0 
C 30 40 0 
C 32 40 0 
C 34 40 0 
C 36 40 0 
C 38 40 0 
C 40 40 0 
C 42 40 0 
C 44 40 0 
C 46 40 0 
C 48 40 0 
C 50 40 0 
C 52 40 0 
C 54 40 0 
C 56 40 0 
C 58 40 0 
C 60 40 0 
C 62 40 0 
C 64 40 0 
C 66 40 0 
C 68 40 0 
C 70 40 0 
C 72 40 0 
C 74 40 0 
C 76 40 0 
C 78 40 0 
C 80 40 0 
C 82 40 0 
C 84 40 0 
C 86 40 0 
C 88 40 0 
C 90 40 0 
C 92 40 0 
C 94 40 0 
C 96 40 0 
C 98 40 0 
C 100 40 0 
C 0 42 0 
C 2 42 0 
C 4 42 0 
C 6 42 0 
C 8 42 0 
C 10 42 0 
C 12 42 0 
C 14 42 0 
C 16 42 0 
C 18 42 0 
C 20 42 0 
C 22 42 0 
C 24 42 0 
C 26 42 0 
C 28 42 0 
C 30 42 0 
C 32 42 0 
C 34 42 0 
C 36 42 0 
C 38 42 0 
C 40 42 0 
C 42 42 0 
C 44 42 0 
C 46 42 0 
C 48 42 0 
C 50 42 0 
C 52 42 0 
C 54 42 0 
C 56 42 0 
C 58 42 0 
C 60 42 0 
C 62 42 0 
C 64 42 0 
C 66 42 0 
C 68 42 0 
C 70 42 0 
C 72 42 0 
C 74 42 0 
C 76 42 0 
C 78 42 0 
C 80 42 0 
C 82 42 0 
C 84 42 0 
C 86 42 0 
C 88 42 0 
C 90 42 0 
C 92 42 0 
C 94 42 0 
C 96 42 0 
C 98 42 0 
C 100 42 0 
C 0 44 0 
C 2 44 0 
C 4 44 0 
C 6 44 0 
C 8 44 0 
C 10 44 0 
C 12 44 0 
C 14 44 0 
C 16 44 0 
C 18 44 0 
C 20 44 0 
C 22 44 0 
C 24 44 0 
C 26 44 0 
C 28 44 0 
C 30 44 0 
C 32 44 0 
C 34 44 0 
C 36 44 0 
C 38 44 0 
C 40 44 0 
C 42 44 0 
C 44 44 0 
C 46 44 0 
C 48 44 0 
C 50 44 0 
C 52 44 0 
C 54 44 0 
C 56 44 0 
C 58 44 0 
C 60 44 0 
C 62 44 0 
C 64 44 0 
C 66 44 0 
C 68 44 0 
C 70 44 0 
C 72 44 0 
C 74 44 0 
C 76 44 0 
C 78 44 0 
C 80 44 0 
C 82 44 0 
C 84 44 0 
C 86 44 0 
C 88 44 0 
C 90 44 0 
C 92 44 0 
C 94 44 0 
C 96 44 0 
C 98 44 0 
C 100 44 0 
C 0 46 0 
C 2 46 0 
C 4 46 0 
C 6 46 0 
C 8 46 0 
C 10 46 0 
C 12 46 0 
C 14 46 0 
C 16 46 0 
C 18 46 0 
C 20 46 0 
C 22 46 0 
C 24 46 0 
C 26 46 0 
C 28 46 0 
C 30 46 0 
C 32 46 0 
C 34 46 0 
C 36 46 0 
C 38 46 0 
C 40 46 0 
C 42 46 0 
C 44 46 0 
C 46 46 0 
C 48 46 0 
C 50 46 0 
C 52 46 0 
C 54 46 0 
C 56 46 0 
C 58 46 0 
C 60 46 0 
C 62 46 0 
C 64 46 0 
C 66 46 0 
C 68 46 0 
C 70 46 0 
C 72 46 0 
C 74 46 0 
C 76 46 0 
C 78 46 0 
C 80 46 0 
C 82 46 0 
C 84 46 0 
C 86 46 0 
C 88 46 0 
C 90 46 0 
C 92 46 0 
C 94 46 0 
C 96 46 0 
C 98 46 0 
C 100 46 0 
C 0 48 0 
C 2 48 0 
C 4 48 0 
C 6 48 0 
C 8 48 0 
C 10 48 0 
C 12 48 0 
C 14 48 0 
C 16 48 0 
C 18 48 0 
C 20 48 0 
C 22 48 0 
C 24 48 0 
C 26 48 0 
C 28 48 0 
C 30 48 0 
C 32 48 0 
C 34 48 0 
C 36 48 0 
C 38 48 0 
C 40 48 0 
C 42 48 0 
C 44 48 0 
C 46 48 0 
C 48 48 0 
C 50 48 0 
C 52 48 0 
C 54 48 0 
C 56 48 0 
C 58 48 0 
C 60 48 0 
C 62 48 0 
C 64 48 0 
C 66 48 0 
C 68 48 0 
C 70 48 0 
C 72 48 0 
C 74 48 0 
C 76 48 0 
C 78 48 0 
C 80 48 0 
C 82 48 0 
C 84 48 0 
C 86 48 0 
C 88 48 0 
C 90 48 0 
C 92 48 0 
C 94 48 0 
C 96 48 0 
C 98 48 0 
C 100 48 0 
C 0 50 0 
C 2 50 0 
C 4 50 0 
C 6 50 0 
C 8 50 0 
C 10 50 0 
C 12 50 0 
C 14 50 0 
C 16 50 0 
C 18 50 0 
C 20 50 0 
C 22 50 0 
C 24 50 0 
C 26 50 0 
C 28 50 0 
C 30 50 0 
C 32 50 0 
C 34 50 0 
C 36 50 0 
C 38 50 0 
C 40 50 0 
C 42 50 0 
C 44 50 0 
C 46 50 0 
C 48 50 0 
C 50 50 0 
C 52 50 0 
C 54 50 0 
C 56 50 0 
C 58 50 0 
C 60 50 0 
C 62 50 0 
C 64 50 0 
C 66 50 0 
C 68 50 0 
C 70 50 0 
C 72 50 0 
C 74 50 0 
C 76 50 0 
C 78 50 0 
C 80 50 0 
C 82 50 0 
C 84 50 0 
C 86 50 0 
C 88 50 0 
C 90 50 0 
C 92 50 0 
C 94 50 0 
C 96 50 0 
C 98 50 0 
C 100 50 0 
C 0 52 0 
C 2 52 0 
C 4 52 0 
C 6 52 0 
C 8 52 0 
C 10 52 0 
C 12 52 0 
C 14 52 0 
C 16 52 0 
C 18 52 0 
C 20 52 0 
C 22 52 0 
C 24 52 0 
C 26 52 0 
C 28 52 0 
C 30 52 0 
C 32 52 0 
C 34 52 0 
C 36 52 0 
C 38 52 0 
C 40 52 0 
C 42 52 0 
C 44 52 0 
C 46 52 0 
C 48 52 0 
C 50 52 0 
C 52 52 0 
C 54 52 0 
C 56 52 0 
C 58 52 0 
C 60 52 0 
C 62 52 0 
C 64 52 0 
C 66 52 0 
C 68 52 0 
C 70 52 0 
C 72 52 0 
C 74 52 0 
C 76 52 0 
C 78 52 0 
C 80 52 0 
C 82 52 0 
C 84 52 0 
C 86 52 0 
C 88 52 0 
C 90 52 0 
C 92 52 0 
C 94 52 0 
C 96 52 0 
C 98 52 0 
C 100 52 0 
C 0 54 0 
C 2 54 0 
C 4 54 0 
C 6 54 0 
C 8 54 0 
C 10 54 0 
C 12 54 0 
C 14 54 0 
C 16 54 0 
C 18 54 0 
C 20 54 0 
C 22 54 0 
C 24 54 0 
C 26 54 0 
C 28 54 0 
C 30 54 0 
C 32 54 0 
C 34 54 0 
C 36 54 0 
C 38 54 0 
C 40 54 0 
C 42 54 0 
C 44 54 0 
C 46 54 0 
C 48 54 0 
C 50 54 0 
C 52 54 0 
C 54 54 0 
C 56 54 0 
C 58 54 0 
C 60 54 0 
C 62 54 0 
C 64 54 0 
C 66 54 0 
C 68 54 0 
C 70 54 0 
C 72 54 0 
C 74 54 0 
C 76 54 0 
C 78 54 0 
C 80 54 0 
C 82 54 0 
C 84 54 0 
C 86 54 0 
C 88 54 0 
C 90 54 0 
C 92 54 0 
C 94 54 0 
C 96 54 0 
C 98 54 0 
C 100 54 0 
C 0 56 0 
C 2 56 0 
C 4 56 0 
C 6 56 0 
C 8 56 0 
C 10 56 0 
C 12 56 0 
C 14 56 0 
C 16 56 0 
C 18 56 0 
C 20 56 0 
C 22 56 0 
C 24 56 0 
C 26 56 0 
C 28 56 0 
C 30 56 0 
C 32 56 0 
C 34 56 0 
C 36 56 0 
C 38 56 0 
C 40 56 0 
C 42 56 0 
C 44 56 0 
C 46 56 0 
C 48 56 0 
C 50 56 0 
C 52 56 0 
C 54 56 0 
C 56 56 0 
C 58 56 0 
C 60 56 0 
C 62 56 0 
C 64 56 0 
C 66 56 0 
C 68 56 0 
C 70 56 0 
C 72 56 0 
C 74 56 0 
C 76 56 0 
C 78 56 0 
C 80 56 0 
C 82 56 0 
C 84 56 0 
C 86 56 0 
C 88 56 0 
C 90 56 0 
C 92 56 0 
C 94 56 0 
C 96 56 0 
C 98 56 0 
C 100 56 0 
C 0 58 0 
C 2 58 0 
C 4 58 0 
C 6 58 0 
C 8 58 0 
C 10 58 0 
C 12 58 0 
C 14 58 0 
C 16 58 0 
C 18 58 0 
C 20 58 0 
C 22 58 0 
C 24 58 0 
C 26 58 0 
C 28 58 0 
C 30 58 0 
C 32 58 0 
C 34 58 0 
C 36 58 0 
C 38 58 0 
C 40 58 0 
C 42 58 0 
C 44 58 0 
C 46 58 0 
C 48 58 0 
C 50 58 0 
C 52 58 0 
C 54 58 0 
C 56 58 0 
C 58 58 0 
C 60 58 0 
C 62 58 0 
C 64 58 0 
C 66 58 0 
C 68 58 0 
C 70 58 0 
C 72 58 0 
C 74 58 0 
C 76 58 0 
C 78 58 0 
C 80 58 0 
C 82 58 0 
C 84 58 0 
C 86 58 0 
C 88 58 0 
C 90 58 0 
C 92 58 0 
C 94 58 0 
C 96 58 0 
C 98 58 0 
C 100 58 0 
C 0 60 0 
C 2 60 0 
C 4 60 0 
C 6 60 0 
C 8 60 0 
C 10 60 0 
C 12 60 0 
C 14 60 0 
C 16 60 0 
C 18 60 0 
C 20 60 0 
C 22 60 0 
C 24 60 0 
C 26 60 0 
C 28 60 0 
C 30 60 0 
C 32 60 0 
C 34 60 0 
C 36 60 0 
C 38 60 0 
C 40 60 0 
C 42 60 0 
C 44 60 0 
C 46 60 0 
C 48 60 0 
C 50 60 0 
C 52 60 0 
C 54 60 0 
C 56 60 0 
C 58 60 0 
C 60 60 0 
C 62 60 0 
C 64 60 0 
C 66 60 0 
C 68 60 0 
C 70 60 0 
C 72 60 0 
C 74 60 0 
C 76 60 0 
C 78 60 0 
C 80 60 0 
C 82 60 0 
C 84 60 0 
C 86 60 0 
C 88 60 0 
C 90 60 0 
C 92 60 0 
C 94 60 0 
C 96 60 0 
C 98 60 0 
C 100 60 0 
C 0 62 0 
C 2 62 0 
C 4 62 0 
C 6 62 0 
C 8 62 0 
C 10 62 0 
C 12 62 0 
C 14 62 0 
C 16 62 0 
C 18 62 0 
C 20 62 0 
C 22 62 0 
C 24 62 0 
C 26 62 0 
C 28 62 0 
C 30 62 0 
C 32 62 0 
C 34 62 0 
C 36 62 0 
C 38 62 0 
C 40 62 0 
C 42 62 0 
C 44 62 0 
C 46 62 0 
C 48 62 0 
C 50 62 0 
C 52 62 0 
C 54 62 0 
C 56 62 0 
C 58 62 0 
C 60 62 0 
C 62 62 0 
C 64 62 0 
C 66 62 0 
C 68 62 0 
C 70 62 0 
C 72 62 0 
C 74 62 0 
C 76 62 0 
C 78 62 0 
C 80 62 0 
C 82 62 0 
C 84 62 0 
C 86 62 0 
C 88 62 0 
C 90 62 0 
C 92 62 0 
C 94 62 0 
C 96 62 0 
C 98 62 0 
C 100 62 0 
C 0 64 0 
C 2 64 0 
C 4 64 0 
C 6 64 0 
C 8 64 0 
C 10 64 0 
C 12 64 0 
C 14 64 0 
C 16 64 0 
C 18 64 0 
C 20 64 0 
C 22 64 0 
C 24 64 0 
C 26 64 0 
C 28 64 0 
C 30 64 0 
C 32 64 0 
C 34 64 0 
C 36 64 0 
C 38 64 0 
C 40 64 0 
C 42 64 0 
C 44 64 0 
C 46 64 0 
C 48 64 0 
C 50 64 0 
C 52 64 0 
C 54 64 0 
C 56 64 0 
C 58 64 0 
C 60 64 0 
C 62 64 0 
C 64 64 0 
C 66 64 0 
C 68 64 0 
C 70 64 0 
C 72 64 0 
C 74 64 0 
C 76 64 0 
C 78 64 0 
C 80 64 0 
C 82 64 0 
C 84 64 0 
C 86 64 0 
C 88 64 0 
C 90 64 0 
C 92 64 0 
C 94 64 0 
C 96 64 0 
C 98 64 0 
C 100 64 0 
C 0 66 0 
C 2 66 0 
C 4 66 0 
C 6 66 0 
C 8 66 0 
C 10 66 0 
C 12 66 0 
C 14 66 0 
C 16 66 0 
C 18 66 0 
C 20 66 0 
C 22 66 0 
C 24 66 0 
C 26 66 0 
C 28 66 0 
C 30 66 0 
C 32 66 0 
C 34 66 0 
C 36 66 0 
C 38 66 0 
C 40 66 0 
C 42 66 0 
C 44 66 0 
C 46 66 0 
C 48 66 0 
C 50 66 0 
C 52 66 0 
C 54 66 0 
C 56 66 0 
C 58 66 0 
C 60 66 0 
C 62 66 0 
C 64 66 0 
C 66 66 0 
C 68 66 0 
C 70 66 0 
C 72 66 0 
C 74 66 0 
C 76 66 0 
C 78 66 0 
C 80 66 0 
C 82 66 0 
C 84 66 0 
C 86 66 0 
C 88 66 0 
C 90 66 0 
C 92 66 0 
C 94 66 0 
C 96 66 0 
C 98 66 0 
C 100 66 0 
C 0 68 0 
C 2 68 0 
C 4 68 0 
C 6 68 0 
C 8 68 0 
C 10 68 0 
C 12 68 0 
C 14 68 0 
C 16 68 0 
C 18 68 0 
C 20 68 0 
C 22 68 0 
C 24 68 0 
C 26 68 0 
C 28 68 0 
C 30 68 0 
C 32 68 0 
C 34 68 0 
C 36 68 0 
C 38 68 0 
C 40 68 0 
C 42 68 0 
C 44 68 0 
C 46 68 0 
C 48 68 0 
C 50 68 0 
C 52 68 0 
C 54 68 0 
C 56 68 0 
C 58 68 0 
C 60 68 0 
C 62 68 0 
C 64 68 0 
C 66 68 0 
C 68 68 0 
C 70 68 0 
C 72 68 0 
C 74 68 0 
C 76 68 0 
C 78 68 0 
C 80 68 0 
C 82 68 0 
C 84 68 0 
C 86 68 0 
C 88 68 0 
C 90 68 0 
C 92 68 0 
C 94 68 0 
C 96 68 0 
C 98 68 0 
C 100 68 0 
C 0 70 0 
C 2 70 0 
C 4 70 0 
C 6 70 0 
C 8 70 0 
C 10 70 0 
C 12 70 0 
C 14 70 0 
C 16 70 0 
C 18 70 0 
C 20 70 0 
C 22 70 0 
C 24 70 0 
C 26 70 0 
C 28 70 0 
C 30 70 0 
C 32 70 0 
C 34 70 0 
C 36 70 0 
C 38 70 0 
C 40 70 0 
C 42 70 0 
C 44 70 0 
C 46 70 0 
C 48 70 0 
C 50 70 0 
C 52 70 0 
C 54 70 0 
C 56 70 0 
C 58 70 0 
C 60 70 0 
C 62 70 0 
C 64 70 0 
C 66 70 0 
C 68 70 0 
C 70 70 0 
C 72 70 0 
C 74 70 0 
C 76 70 0 
C 78 70 0 
C 80 70 0 
C 82 70 0 
C 84 70 0 
C 86 70 0 
C 88 70 0 
C 90 70 0 
C 92 70 0 
C 94 70 0 
C 96 70 0 
C 98 70 0 
C 100 70 0 
C 0 72 0 
C 2 72 0 
C 4 72 0 
C 6 72 0 
C 8 72 0 
C 10 72 0 
C 12 72 0 
C 14 72 0 
C 16 72 0 
C 18 72 0 
C 20 72 0 
C 22 72 0 
C 24 72 0 
C 26 72 0 
C 28 72 0 
C 30 72 0 
C 32 72 0 
C 34 72 0 
C 36 72 0 
C 38 72 0 
C 40 72 0 
C 42 72 0 
C 44 72 0 
C 46 72 0 
C 48 72 0 
C 50 72 0 
C 52 72 0 
C 54 72 0 
C 56 72 0 
C 58 72 0 
C 60 72 0 
C 62 72 0 
C 64 72 0 
C 66 72 0 
C 68 72 0 
C 70 72 0 
C 72 72 0 
C 74 72 0 
C 76 72 0 
C 78 72 0 
C 80 72 0 
C 82 72 0 
C 84 72 0 
C 86 72 0 
C 88 72 0 
C 90 72 0 
C 92 72 0 
C 94 72 0 
C 96 72 0 
C 98 72 0 
C 100 72 0 
C 0 74 0 
C 2 74 0 
C 4 74 0 
C 6 74 0 
C 8 74 0 
C 10 74 0 
C 12 74 0 
C 14 74 0 
C 16 74 0 
C 18 74 0 
C 20 74 0 
C 22 74 0 
C 24 74 0 
C 26 74 0 
C 28 74 0 
C 30 74 0 
C 32 74 0 
C 34 74 0 
C 36 74 0 
C 38 74 0 
C 40 74 0 
C 42 74 0 
C 44 74 0 
C 46 74 0 
C 48 74 0 
C 50 74 0 
C 52 74 0 
C 54 74 0 
C 56 74 0 
C 58 74 0 
C 60 74 0 
C 62 74 0 
C 64 74 0 
C 66 74 0 
C 68 74 0 
C 70 74 0 
C 72 74 0 
C 74 74 0 
C 76 74 0 
C 78 74 0 
C 80 74 0 
C 82 74 0 
C 84 74 0 
C 86 74 0 
C 88 74 0 
C 90 74 0 
C 92 74 0 
C 94 74 0 
C 96 74 0 
C 98 74 0 
C 100 74 0 
C 0 76 0 
C 2 76 0 
C 4 76 0 
C 6 76 0 
C 8 76 0 
C 10 76 0 
C 12 76 0 
C 14 76 0 
C 16 76 0 
C 18 76 0 
C 20 76 0 
C 22 76 0 
C 24 76 0 
C 26 76 0 
C 28 76 0 
C 30 76 0 
C 32 76 0 
C 34 76 0 
C 36 76 0 
C 38 76 0 
C 40 76 0 
C 42 76 0 
C 44 76 0 
C 46 76 0 
C 48 76 0 
C 50 76 0 
C 52 76 0 
C 54 76 0 
C 56 76 0 
C 58 76 0 
C 60 76 0 
C 62 76 0 
C 64 76 0 
C 66 76 0 
C 68 76 0 
C 70 76 0 
C 72 76 0 
C 74 76 0 
C 76 76 0 
C 78 76 0 
C 80 76 0 
C 82 76 0 
C 84 76 0 
C 86 76 0 
C 88 76 0 
C 90 76 0 
C 92 76 0 
C 94 76 0 
C 96 76 0 
C 98 76 0 
C 100 76 0 
C 0 78 0 
C 2 78 0 
C 4 78 0 
C 6 78 0 
C 8 78 0 
C 10 78 0 
C 12 78 0 
C 14 78 0 
C 16 78 0 
C 18 78 0 
C 20 78 0 
C 22 78 0 
C 24 78 0 
C 26 78 0 
C 28 78 0 
C 30 78 0 
C 32 78 0 
C 34 78 0 
C 36 78 0 
C 38 78 0 
C 40 78 0 
C 42 78 0 
C 44 78 0 
C 46 78 0 
C 48 78 0 
C 50 78 0 
C 52 78 0 
C 54 78 0 
C 56 78 0 
C 58 78 0 
C 60 78 0 
C 62 78 0 
C 64 78 0 
C 66 78 0 
C 68 78 0 
C 70 78 0 
C 72 78 0 
C 74 78 0 
C 76 78 0 
C 78 78 0 
C 80 78 0 
C 82 78 0 
C 84 78 0 
C 86 78 0 
C 88 78 0 
C 90 78 0 
C 92 78 0 
C 94 78 0 
C 96 78 0 
C 98 78 0 
C 100 78 0 
C 0 80 0 
C 2 80 0 
C 4 80 0 
C 6 80 0 
C 8 80 0 
C 10 80 0 
C 12 80 0 
C 14 80 0 
C 16 80 0 
C 18 80 0 
C 20 80 0 
C 22 80 0 
C 24 80 0 
C 26 80 0 
C 28 80 0 
C 30 80 0 
C 32 80 0 
C 34 80 0 
C 36 80 0 
C 38 80 0 
C 40 80 0 
C 42 80 0 
C 44 80 0 
C 46 80 0 
C 48 80 0 
C 50 80 0 
C 52 80 0 
C 54 80 0 
C 56 80 0 
C 58 80 0 
C 60 80 0 
C 62 80 0 
C 64 80 0 
C 66 80 0 
C 68 80 0 
C 70 80 0 
C 72 80 0 
C 74 80 0 
C 76 80 0 
C 78 80 0 
C 80 80 0 
C 82 80 0 
C 84 80 0 
C 86 80 0 
C 88 80 0 
C 90 80 0 
C 92 80 0 
C 94 80 0 
C 96 80 0 
C 98 80 0 
C 100 80 0 
C 0 82 0 
C 2 82 0 
C 4 82 0 
C 6 82 0 
C 8 82 0 
C 10 82 0 
C 12 82 0 
C 14 82 0 
C 16 82 0 
C 18 82 0 
C 20 82 0 
C 22 82 0 
C 24 82 0 
C 26 82 0 
C 28 82 0 
C 30 82 0 
C 32 82 0 
C 34 82 0 
C 36 82 0 
C 38 82 0 
C 40 82 0 
C 42 82 0 
C 44 82 0 
C 46 82 0 
C 48 82 0 
C 50 82 0 
C 52 82 0 
C 54 82 0 
C 56 82 0 
C 58 82 0 
C 60 82 0 
C 62 82 0 
C 64 82 0 
C 66 82 0 
C 68 82 0 
C 70 82 0 
C 72 82 0 
C 74 82 0 
C 76 82 0 
C 78 82 0 
C 80 82 0 
C 82 82 0 
C 84 82 0 
C 86 82 0 
C 88 82 0 
C 90 82 0 
C 92 82 0 
C 94 82 0 
C 96 82 0 
C 98 82 0 
C 100 82 0 
C 0 84 0 
C 2 84 0 
C 4 84 0 
C 6 84 0 
C 8 84 0 
C 10 84 0 
C 12 84 0 
C 14 84 0 
C 16 84 0 
C 18 84 0 
C 20 84 0 
C 22 84 0 
C 24 84 0 
C 26 84 0 
C 28 84 0 
C 30 84 0 
C 32 84 0 
C 34 84 0 
C 36 84 0 
C 38 84 0 
C 40 84 0 
C 42 84 0 
C 44 84 0 
C 46 84 0 
C 48 84 0 
C 50 84 0 
C 52 84 0 
C 54 84 0 
C 56 84 0 
C 58 84 0 
C 60 84 0 
C 62 84 0 
C 64 84 0 
C 66 84 0 
C 68 84 0 
C 70 84 0 
C 72 84 0 
C 74 84 0 
C 76 84 0 
C 78 84 0 
C 80 84 0 
C 82 84 0 
C 84 84 0 
C 86 84 0 
C 88 84 0 
C 90 84 0 
C 92 84 0 
C 94 84 0 
C 96 84 0 
C 98 84 0 
C 100 84 0 
C 0 86 0 
C 2 86 0 
C 4 86 0 
C 6 86 0 
C 8 86 0 
C 10 86 0 
C 12 86 0 
C 14 86 0 
C 16 86 0 
C 18 86 0 
C 20 86 0 
C 22 86 0 
C 24 86 0 
C 26 86 0 
C 28 86 0 
C 30 86 0 
C 32 86 0 
C 34 86 0 
C 36 86 0 
C 38 86 0 
C 40 86 0 
C 42 86 0 
C 44 86 0 
C 46 86 0 
C 48 86 0 
C 50 86 0 
C 52 86 0 
C 54 86 0 
C 56 86 0 
C 58 86 0 
C 60 86 0 
C 62 86 0 
C 64 86 0 
C 66 86 0 
C 68 86 0 
C 70 86 0 
C 72 86 0 
C 74 86 0 
C 76 86 0 
C 78 86 0 
C 80 86 0 
C 82 86 0 
C 84 86 0 
C 86 86 0 
C 88 86 0 
C 90 86 0 
C 92 86 0 
C 94 86 0 
C 96 86 0 
C 98 86 0 
C 100 86 0 
C 0 88 0 
C 2 88 0 
C 4 88 0 
C 6 88 0 
C 8 88 0 
C 10 88 0 
C 12 88 0 
C 14 88 0 
C 16 88 0 
C 18 88 0 
C 20 88 0 
C 22 88 0 
C 24 88 0 
C 26 88 0 
C 28 88 0 
C 30 88 0 
C 32 88 0 
C 34 88 0 
C 36 88 0 
C 38 88 0 
C 40 88 0 
C 42 88 0 
C 44 88 0 
C 46 88 0 
C 48 88 0 
C 50 88 0 
C 52 88 0 
C 54 88 0 
C 56 88 0 
C 58 88 0 
C 60 88 0 
C 62 88 0 
C 64 88 0 
C 66 88 0 
C 68 88 0 
C 70 88 0 
C 72 88 0 
C 74 88 0 
C 76 88 0 
C 78 88 0 
C 80 88 0 
C 82 88 0 
C 84 88 0 
C 86 88 0 
C 88 88 0 
C 90 88 0 
C 92 88 0 
C 94 88 0 
C 96 88 0 
C 98 88 0 
C 100 88 0 
C 0 90 0 
C 2 90 0 
C 4 90 0 
C 6 90 0 
C 8 90 0 
C 10 90 0 
C 12 90 0 
C 14 90 0 
C 16 90 0 
C 18 90 0 
C 20 90 0 
C 22 90 0 
C 24 90 0 
C 26 90 0 
C 28 90 0 
C 30 90 0 
C 32 90 0 
C 34 90 0 
C 36 90 0 
C 38 90 0 
C 40 90 0 
C 42 90 0 
C 44 90 0 
C 46 90 0 
C 48 90 0 
C 50 90 0 
C 52 90 0 
C 54 90 0 
C 56 90 0 
C 58 90 0 
C 60 90 0 
C 62 90 0 
C 64 90 0 
C 66 90 0 
C 68 90 0 
C 70 90 0 
C 72 90 0 
C 74 90 0 
C 76 90 0 
C 78 90 0 
C 80 90 0 
C 82 90 0 
C 84 90 0 
C 86 90 0 
C 88 90 0 
C 90 90 0 
C 92 90 0 
C 94 90 0 
C 96 90 0 
C 98 90 0 
C 100 90 0 
C 0 92 0 
C 2 92 0 
C 4 92 0 
C 6 92 0 
C 8 92 0 
C 10 92 0 
C 12 92 0 
C 14 92 0 
C 16 92 0 
C 18 92 0 
C 20 92 0 
C 22 92 0 
C 24 92 0 
C 26 92 0 
C 28 92 0 
C 30 92 0 
C 32 92 0 
C 34 92 0 
C 36 92 0 
C 38 92 0 
C 40 92 0 
C 42 92 0 
C 44 92 0 
C 46 92 0 
C 48 92 0 
C 50 92 0 
C 52 92 0 
C 54 92 0 
C 56 92 0 
C 58 92 0 
C 60 92 0 
C 62 92 0 
C 64 92 0 
C 66 92 0 
C 68 92 0 
C 70 92 0 
C 72 92 0 
C 74 92 0 
C 76 92 0 
C 78 92 0 
C 80 92 0 
C 82 92 0 
C 84 92 0 
C 86 92 0 
C 88 92 0 
C 90 92 0 
C 92 92 0 
C 94 92 0 
C 96 92 0 
C 98 92 0 
C 100 92 0 
C 0 94 0 
C 2 94 0 
C 4 94 0 
C 6 94 0 
C 8 94 0 
C 10 94 0 
C 12 94 0 
C 14 94 0 
C 16 94 0 
C 18 94 0 
C 20 94 0 
C 22 94 0 
C 24 94 0 
C 26 94 0 
C 28 94 0 
C 30 94 0 
C 32 94 0 
C 34 94 0 
C 36 94 0 
C 38 94 0 
C 40 94 0 
C 42 94 0 
C 44 94 0 
C 46 94 0 
C 48 94 0 
C 50 94 0 
C 52 94 0 
C 54 94 0 
C 56 94 0 
C 58 94 0 
C 60 94 0 
C 62 94 0 
C 64 94 0 
C 66 94 0 
C 68 94 0 
C 70 94 0 
C 72 94 0 
C 74 94 0 
C 76 94 0 
C 78 94 0 
C 80 94 0 
C 82 94 0 
C 84 94 0 
C 86 94 0 
C 88 94 0 
C 90 94 0 
C 92 94 0 
C 94 94 0 
C 96 94 0 
C 98 94 0 
C 100 94 0 
C 0 96 0 
C 2 96 0 
C 4 96 0 
C 6 96 0 
C 8 96 0 
C 10 96 0 
C 12 96 0 
C 14 96 0 
C 16 96 0 
C 18 96 0 
C 20 96 0 
C 22 96 0 
C 24 96 0 
C 26 96 0 
C 28 96 0 
C 30 96 0 
C 32 96 0 
C 34 96 0 
C 36 96 0 
C 38 96 0 
C 40 96 0 
C 42 96 0 
C 44 96 0 
C 46 96 0 
C 48 96 0 
C 50 96 0 
C 52 96 0 
C 54 96 0 
C 56 96 0 
C 58 96 0 
C 60 96 0 
C 62 96 0 
C 64 96 0 
C 66 96 0 
C 68 96 0 
C 70 96 0 
C 72 96 0 
C 74 96 0 
C 76 96 0 
C 78 96 0 
C 80 96 0 
C 82 96 0 
C 84 96 0 
C 86 96 0 
C 88 96 0 
C 90 96 0 
C 92 96 0 
C 94 96 0 
C 96 96 0 
C 98 96 0 
C 100 96 0 
C 0 98 0 
C 2 98 0 
C 4 98 0 
C 6 98 0 
C 8 98 0 
C 10 98 0 
C 12 98 0 
C 14 98 0 
C 16 98 0 
C 18 98 0 
C 20 98 0 
C 22 98 0 
C 24 98 0 
C 26 98 0 
C 28 98 0 
C 30 98 0 
C 32 98 0 
C 34 98 0 
C 36 98 0 
C 38 98 0 
C 40 98 0 
C 42 98 0 
C 44 98 0 
C 46 98 0 
C 48 98 0 
C 50 98 0 
C 52 98 0 
C 54 98 0 
C 56 98 0 
C 58 98 0 
C 60 98 0 
C 62 98 0 
C 64 98 0 
C 66 98 0 
C 68 98 0 
C 70 98 0 
C 72 98 0 
C 74 98 0 
C 76 98 0 
C 78 98 0 
C 80 98 0 
C 82 98 0 
C 84 98 0 
C 86 98 0 
C 88 98 0 
C 90 98 0 
C 92 98 0 
C 94 98 0 
C 96 98 0 
C 98 98 0 
C 100 98 0 
C 0 100 0 
C 2 100 0 
C 4 100 0 
C 6 100 0 
C 8 100 0 
C 10 100 0 
C 12 100 0 
C 14 100 0 
C 16 100 0 
C 18 100 0 
C 20 100 0 
C 22 100 0 
C 24 100 0 
C 26 100 0 
C 28 100 0 
C 30 100 0 
C 32 100 0 
C 34 100 0 
C 36 100 0 
C 38 100 0 
C 40 100 0 
C 42 100 0 
C 44 100 0 
C 46 100 0 
C 48 100 0 
C 50 100 0 
C 52 100 0 
C 54 100 0 
C 56 100 0 
C 58 100 0 
C 60 100 0 
C 62 100 0 
C 64 100 0 
C 66 100 0 
C 68 100 0 
C 70 100 0 
C 72 100 0 
C 74 100 0 
C 76 100 0 
C 78 100 0 
C 80 100 0 
C 82 100 0 
C 84 100 0 
C 86 100 0 
C 88 100 0 
C 90 100 0 
C 92 100 0 
C 94 100 0 
C 96 100 0 
C 98 100 0 
C 100 100 0 
O 15 19 0 
O 79 67 0 
O 95 52 0 
O 95 44 0 
O 52 59 0 
O 74 85 0 
O 3 99 0 
O 89 90 0 
O 12 27 0 
O 99 65 0 
O 71 77 0 
O 43 63 0 
O 61 28 0 
O 41 29 0 
O 29 99 0 
O 2 91 0 
O 71 99 0 
O 5 60 0 
O 41 60 0 
O 43 25 0 
O 5 23 0 
O 75 8 0 
O 29 76 0 
O 67 91 0 
O 69 65 0 
O 99 27 0 
O 47 75 0 
O 97 85 0 
O 61 43 0 
O 89 88 0 
O 88 19 0 
O 8 61 0 
O 77 3 0 
O 35 13 0 
O 31 77 0 
O 13 47 0 
O 96 71 0 
O 3 35 0 
O 45 89 0 
O 77 65 0 
O 95 81 0 
O 37 87 0 
O 21 77 0 
O 87 80 0 
O 45 7 0 
O 0 97 0 
O 11 67 0 
O 29 1 0 
O 99 94 0 
O 87 11 0 
O 75 50 0 
O 41 31 0 
O 23 85 0 
3139
Atoms. Timestep: 4
N 88 19 0 
N 23 55 0 
N 15 67 0 
N 53 93 0 
N 35 17 0 
N 63 25 0 
N 85 66 0 
N 5 54 0 
N 13 50 0 
N 52 29 0 
N 15 5 0 
N 62 29 0 
N 63 9 0 
N 79 85 0 
N 55 86 0 
N 51 61 0 
N 38 75 0 
N 4 91 0 
N 3 12 0 
N 87 23 0 
N 13 38 0 
N 76 11 0 
N 19 27 0 
N 50 75 0 
N 63 98 0 
N 12 91 0 
N 89 9 0 
N 62 99 0 
N 3 39 0 
N 34 51 0 
N 75 30 0 
N 63 19 0 
N 24 65 0 
N 97 45 0 
N 27 19 0 
N 80 51 0 
N 95 70 0 
N 67 5 0 
N 65 88 0 
N 96 5 0 
N 46 11 0 
N 29 97 0 
N 92 27 0 
N 31 61 0 
N 55 42 0 
N 61 21 0 
N 56 77 0 
N 51 38 0 
N 93 79 0 
N 30 13 0 
N 59 24 0 
N 40 39 0 
N 8 21 0 
N 23 29 0 
N 95 73 0 
N 15 80 0 
N 53 66 0 
N 87 8 0 
N 3 23 0 
N 71 70 0 
N 98 61 0 
N 71 97 0 
N 7 35 0 
N 74 85 0 
N 69 12 0 
N 5 59 0 
N 76 63 0 
N 87 30 0 
N 43 22 0 
N 62 31 0 
N 43 23 0 
N 5 96 0 
N 3 45 0 
N 18 77 0 
N 40 83 0 
N 34 25 0 
N 55 88 0 
N 6 35 0 
N 27 50 0 
N 72 9 0 
N 61 43 0 
N 95 20 0 
N 76 93 0 
N 93 43 0 
N 2 35 0 
N 6 23 0 
N 35 66 0 
N 4 77 0 
N 19 29 0 
N 82 83 0 
N 63 79 0 
N 97 95 0 
N 17 19 0 
N 91 58 0 
N 91 9 0 
N 71 3 0 
N 69 52 0 
N 96 13 0 
N 66 65 0 
N 12 31 0 
N 45 63 0 
N 61 94 0 
N 46 39 0 
N 90 13 0 
N 91 97 0 
N 55 89 0 
N 69 63 0 
N 69 50 0 
N 29 93 0 
N 21 77 0 
N 27 45 0 
N 75 65 0 
N 19 77 0 
N 85 12 0 
N 45 65 0 
N 49 47 0 
N 13 55 0 
N 1 74 0 
N 67 92 0 
N 23 97 0 
N 33 29 0 
N 56 81 0 
N 46 25 0 
N 56 59 0 
N 14 27 0 
N 75 8 0 
N 4 73 0 
N 3 9 0 
N 31 13 0 
N 95 85 0 
N 3 85 0 
N 69 43 0 
N 13 43 0 
N 69 97 0 
N 18 11 0 
N 16 77 0 
N 33 56 0 
N 83 43 0 
N 95 44 0 
N 87 19 0 
N 12 43 0 
N 73 77 0 
N 75 1 0 
N 56 7 0 
N 83 87 0 
N 49 91 0 
N 96 51 0 
N 42 59 0 
N 97 79 0 
N 63 91 0 
N 95 42 0 
N 92 71 0 
N 27 35 0 
N 7 97 0 
N 48 71 0 
N 20 79 0 
N 97 83 0 
N 4 67 0 
N 4 3 0 
N 13 41 0 
N 91 40 0 
N 41 58 0 
N 91 41 0 
N 19 3 0 
N 35 87 0 
N 35 78 0 
N 71 11 0 
N 91 90 0 
N 99 23 0 
N 47 71 0 
N 7 98 0 
N 76 33 0 
N 23 40 0 
N 18 17 0 
N 69 28 0 
N 43 89 0 
N 93 61 0 
N 53 2 0 
N 80 79 0 
N 81 83 0 
N 71 33 0 
N 17 8 0 
N 85 54 0 
N 46 57 0 
N 1 68 0 
N 5 62 0 
N 97 53 0 
N 67 78 0 
N 93 71 0 
N 20 17 0 
N 20 75 0 
N 2 93 0 
N 67 65 0 
N 20 85 0 
N 58 67 0 
N 97 25 0 
N 67 74 0 
N 97 23 0 
N 47 36 0 
N 97 31 0 
N 77 3 0 
N 61 91 0 
N 65 30 0 
N 47 94 0 
N 61 8 0 
N 34 65 0 
N 66 29 0 
N 61 42 0 
N 94 85 0 
N 93 57 0 
N 27 60 0 
N 25 67 0 
N 17 6 0 
N 98 25 0 
N 29 19 0 
N 11 73 0 
N 63 69 0 
N 58 65 0 
N 89 84 0 
N 24 85 0 
N 2 55 0 
N 88 25 0 
N 99 67 0 
N 61 28 0 
N 23 45 0 
N 97 81 0 
N 75 38 0 
N 92 53 0 
N 78 25 0 
N 97 70 0 
N 87 80 0 
N 58 47 0 
N 43 24 0 
N 87 77 0 
N 68 55 0 
N 80 55 0 
N 26 33 0 
N 71 81 0 
N 3 38 0 
N 27 13 0 
N 75 56 0 
N 19 67 0 
N 95 51 0 
N 8 23 0 
N 54 49 0 
N 21 2 0 
N 32 13 0 
N 21 68 0 
N 16 67 0 
N 13 15 0 
N 81 90 0 
N 51 60 0 
N 40 87 0 
N 22 25 0 
N 14 33 0 
N 15 27 0 
N 79 45 0 
N 59 40 0 
N 53 27 0 
N 18 81 0 
N 14 65 0 
N 3 34 0 
N 97 46 0 
N 13 27 0 
N 42 75 0 
N 96 91 0 
N 56 41 0 
N 75 46 0 
N 87 76 0 
N 59 45 0 
N 90 99 0 
N 18 9 0 
N 37 88 0 
N 11 4 0 
N 41 49 0 
N 58 57 0 
N 5 24 0 
N 31 39 0 
N 51 65 0 
N 4 33 0 
N 57 71 0 
N 17 16 0 
N 36 75 0 
N 71 23 0 
N 27 77 0 
N 63 20 0 
N 88 87 0 
N 43 42 0 
N 91 11 0 
N 91 5 0 
N 49 5 0 
N 39 22 0 
N 60 87 0 
N 63 8 0 
N 45 4 0 
N 29 76 0 
N 41 42 0 
N 18 67 0 
N 17 43 0 
N 91 44 0 
N 77 90 0 
N 4 57 0 
N 26 85 0 
N 15 98 0 
N 51 57 0 
N 57 9 0 
N 69 75 0 
N 7 47 0 
N 71 4 0 
N 23 89 0 
N 96 71 0 
N 36 53 0 
N 41 99 0 
N 11 33 0 
N 33 99 0 
N 33 77 0 
N 28 7 0 
N 67 39 0 
N 3 7 0 
N 49 20 0 
N 70 75 0 
N 3 13 0 
N 93 47 0 
N 25 70 0 
N 37 11 0 
N 67 3 0 
N 63 23 0 
N 95 2 0 
N 53 87 0 
N 13 44 0 
N 49 35 0 
N 87 3 0 
N 93 44 0 
N 66 19 0 
N 91 52 0 
N 42 31 0 
N 17 99 0 
N 8 95 0 
N 79 3 0 
N 81 64 0 
N 37 33 0 
N 28 37 0 
N 55 3 0 
N 81 41 0 
N 11 18 0 
N 14 95 0 
N 91 3 0 
N 51 90 0 
N 79 88 0 
N 57 86 0 
N 77 24 0 
N 67 82 0 
N 13 52 0 
N 97 60 0 
N 16 19 0 
N 47 27 0 
N 49 37 0 
N 35 1 0 
N 27 95 0 
N 45 57 0 
N 79 19 0 
N 63 33 0 
N 40 75 0 
N 39 32 0 
N 32 37 0 
N 1 38 0 
N 75 14 0 
N 52 43 0 
N 93 42 0 
N 99 43 0 
N 28 79 0 
N 67 8 0 
N 37 79 0 
N 63 26 0 
N 29 68 0 
N 43 7 0 
N 55 49 0 
N 93 12 0 
N 57 28 0 
N 75 90 0 
N 29 2 0 
N 5 89 0 
N 44 9 0 
N 31 77 0 
N 31 63 0 
N 56 51 0 
N 65 50 0 
N 35 25 0 
N 83 44 0 
N 13 29 0 
N 85 96 0 
N 95 75 0 
N 53 92 0 
N 70 27 0 
N 96 47 0 
N 3 32 0 
N 54 3 0 
N 61 27 0 
N 80 83 0 
N 57 75 0 
N 80 85 0 
N 4 65 0 
N 4 47 0 
N 33 61 0 
N 20 81 0 
N 79 36 0 
N 33 63 0 
N 79 70 0 
N 89 45 0 
N 47 34 0 
N 73 7 0 
N 59 6 0 
N 90 7 0 
N 11 41 0 
N 93 9 0 
N 56 47 0 
N 13 53 0 
N 27 33 0 
N 71 48 0 
N 93 41 0 
N 94 77 0 
N 91 31 0 
N 16 85 0 
N 50 63 0 
N 94 69 0 
N 79 12 0 
N 41 50 0 
N 14 61 0 
N 79 23 0 
N 7 22 0 
N 23 83 0 
N 35 23 0 
N 79 14 0 
N 32 65 0 
N 68 51 0 
N 93 54 0 
N 85 44 0 
N 1 8 0 
N 55 87 0 
N 81 65 0 
N 63 4 0 
N 10 61 0 
N 31 2 0 
N 19 71 0 
N 19 41 0 
N 21 27 0 
N 71 77 0 
N 73 83 0 
N 23 65 0 
N 20 67 0 
N 63 77 0 
N 95 77 0 
N 99 29 0 
N 69 17 0 
N 68 31 0 
N 65 31 0 
N 39 59 0 
N 95 64 0 
N 77 65 0 
N 3 5 0 
N 37 83 0 
N 62 33 0 
N 15 29 0 
N 21 87 0 
N 29 64 0 
N 13 11 0 
N 4 27 0 
N 83 65 0 
N 56 75 0 
N 20 69 0 
N 45 84 0 
N 9 12 0 
N 12 3 0 
N 36 13 0 
N 87 20 0 
N 42 49 0 
N 2 65 0 
N 36 87 0 
N 40 65 0 
N 35 11 0 
N 52 59 0 
N 94 39 0 
N 90 97 0 
N 65 28 0 
N 57 41 0 
N 79 20 0 
N 21 91 0 
N 99 25 0 
N 75 22 0 
N 87 13 0 
N 37 85 0 
N 51 20 0 
N 39 14 0 
N 32 29 0 
N 36 77 0 
N 51 41 0 
N 4 61 0 
N 73 15 0 
N 33 75 0 
N 95 69 0 
C 0 0 0 
C 2 0 0 
C 4 0 0 
C 6 0 0 
C 8 0 0 
C 10 0 0 
C 12 0 0 
C 14 0 0 
C 16 0 0 
C 18 0 0 
C 20 0 0 
C 22 0 0 
C 24 0 0 
C 26 0 0 
C 28 0 0 
C 30 0 0 
C 32 0 0 
C 34 0 0 
C 36 0 0 
C 38 0 0 
C 40 0 0 
C 42 0 0 
C 44 0 0 
C 46 0 0 
C 48 0 0 
C 50 0 0 
C 52 0 0 
C 54 0 0 
C 56 0 0 
C 58 0 0 
C 60 0 0 
C 62 0 0 
C 64 0 0 
C 66 0 0 
C 68 0 0 
C 70 0 0 
C 72 0 0 
C 74 0 0 
C 76 0 0 
C 78 0 0 
C 80 0 0 
C 82 0 0 
C 84 0 0 
C 86 0 0 
C 88 0 0 
C 90 0 0 
C 92 0 0 
C 94 0 0 
C 96 0 0 
C 98 0 0 
C 100 0 0 
C 0 2 0 
C 2 2 0 
C 4 2 0 
C 6 2 0 
C 8 2 0 
C 10 2 0 
C 12 2 0 
C 14 2 0 
C 16 2 0 
C 18 2 0 
C 20 2 0 
C 22 2 0 
C 24 2 0 
C 26 2 0 
C 28 2 0 
C 30 2 0 
C 32 2 0 
C 34 2 0 
C 36 2 0 
C 38 2 0 
C 40 2 0 
C 42 2 0 
C 44 2 0 
C 46 2 0 
C 48 2 0 
C 50 2 0 
C 52 2 0 
C 54 2 0 
C 56 2 0 
C 58 2 0 
C 60 2 0 
C 62 2 0 
C 64 2 0 
C 66 2 0 
C 68 2 0 
C 70 2 0 
C 72 2 0 
C 74 2 0 
C 76 2 0 
C 78 2 0 
C 80 2 0 
C 82 2 0 
C 84 2 0 
C 86 2 0 
C 88 2 0 
C 90 2 0 
C 92 2 0 
C 94 2 0 
C 96 2 0 
C 98 2 0 
C 100 2 0 
C 0 4 0 
C 2 4 0 
C 4 4 0 
C 6 4 0 
C 8 4 0 
C 10 4 0 
C 12 4 0 
C 14 4 0 
C 16 4 0 
C 18 4 0 
C 20 4 0 
C 22 4 0 
C 24 4 0 
C 26 4 0 
C 28 4 0 
C 30 4 0 
C 32 4 0 
C 34 4 0 
C 36 4 0 
C 38 4 0 
C 40 4 0 
C 42 4 0 
C 44 4 0 
C 46 4 0 
C 48 4 0 
C 50 4 0 
C 52 4 0 
C 54 4 0 
C 56 4 0 
C 58 4 0 
C 60 4 0 
C 62 4 0 
C 64 4 0 
C 66 4 0 
C 68 4 0 
C 70 4 0 
C 72 4 0 
C 74 4 0 
C 76 4 0 
C 78 4 0 
C 80 4 0 
C 82 4 0 
C 84 4 0 
C 86 4 0 
C 88 4 0 
C 90 4 0 
C 92 4 0 
C 94 4 0 
C 96 4 0 
C 98 4 0 
C 100 4 0 
C 0 6 0 
C 2 6 0 
C 4 6 0 
C 6 6 0 
C 8 6 0 
C 10 6 0 
C 12 6 0 
C 14 6 0 
C 16 6 0 
C 18 6 0 
C 20 6 0 
C 22 6 0 
C 24 6 0 
C 26 6 0 
C 28 6 0 
C 30 6 0 
C 32 6 0 
C 34 6 0 
C 36 6 0 
C 38 6 0 
C 40 6 0 
C 42 6 0 
C 44 6 0 
C 46 6 0 
C 48 6 0 
C 50 6 0 
C 52 6 0 
C 54 6 0 
C 56 6 0 
C 58 6 0 
C 60 6 0 
C 62 6 0 
C 64 6 0 
C 66 6 0 
C 68 6 0 
C 70 6 0 
C 72 6 0 
C 74 6 0 
C 76 6 0 
C 78 6 0 
C 80 6 0 
C 82 6 0 
C 84 6 0 
C 86 6 0 
C 88 6 0 
C 90 6 0 
C 92 6 0 
C 94 6 0 
C 96 6 0 
C 98 6 0 
C 100 6 0 
C 0 8 0 
C 2 8 0 
C 4 8 0 
C 6 8 0 
C 8 8 0 
C 10 8 0 
C 12 8 0 
C 14 8 0 
C 16 8 0 
C 18 8 0 
C 20 8 0 
C 22 8 0 
C 24 8 0 
C 26 8 0 
C 28 8 0 
C 30 8 0 
C 32 8 0 
C 34 8 0 
C 36 8 0 
C 38 8 0 
C 40 8 0 
C 42 8 0 
C 44 8 0 
C 46 8 0 
C 48 8 0 
C 50 8 0 
C 52 8 0 
C 54 8 0 
C 56 8 0 
C 58 8 0 
C 60 8 0 
C 62 8 0 
C 64 8 0 
C 66 8 0 
C 68 8 0 
C 70 8 0 
C 72 8 0 
C 74 8 0 
C 76 8 0 
C 78 8 0 
C 80 8 0 
C 82 8 0 
C 84 8 0 
C 86 8 0 
C 88 8 0 
C 90 8 0 
C 92 8 0 
C 94 8 0 
C 96 8 0 
C 98 8 0 
C 100 8 0 
C 0 10 0 
C 2 10 0 
C 4 10 0 
C 6 10 0 
C 8 10 0 
C 10 10 0 
C 12 10 0 
C 14 10 0 
C 16 10 0 
C 18 10 0 
C 20 10 0 
C 22 10 0 
C 24 10 0 
C 26 10 0 
C 28 10 0 
C 30 10 0 
C 32 10 0 
C 34 10 0 
C 36 10 0 
C 38 10 0 
C 40 10 0 
C 42 10 0 
C 44 10 0 
C 46 10 0 
C 48 10 0 
C 50 10 0 
C 52 10 0 
C 54 10 0 
C 56 10 0 
C 58 10 0 
C 60 10 0 
C 62 10 0 
C 64 10 0 
C 66 10 0 
C 68 10 0 
C 70 10 0 
C 72 10 0 
C 74 10 0 
C 76 10 0 
C 78 10 0 
C 80 10 0 
C 82 10 0 
C 84 10 0 
C 86 10 0 
C 88 10 0 
C 90 10 0 
C 92 10 0 
C 94 10 0 
C 96 10 0 
C 98 10 0 
C 100 10 0 
C 0 12 0 
C 2 12 0 
C 4 12 0 
C 6 12 0 
C 8 12 0 
C 10 12 0 
C 12 12 0 
C 14 12 0 
C 16 12 0 
C 18 12 0 
C 20 12 0 
C 22 12 0 
C 24 12 0 
C 26 12 0 
C 28 12 0 
C 30 12 0 
C 32 12 0 
C 34 12 0 
C 36 12 0 
C 38 12 0 
C 40 12 0 
C 42 12 0 
C 44 12 0 
C 46 12 0 
C 48 12 0 
C 50 12 0 
C 52 12 0 
C 54 12 0 
C 56 12 0 
C 58 12 0 
C 60 12 0 
C 62 12 0 
C 64 12 0 
C 66 12 0 
C 68 12 0 
C 70 12 0 
C 72 12 0 
C 74 12 0 
C 76 12 0 
C 78 12 0 
C 80 12 0 
C 82 12 0 
C 84 12 0 
C 86 12 0 
C 88 12 0 
C 90 12 0 
C 92 12 0 
C 94 12 0 
C 96 12 0 
C 98 12 0 
C 100 12 0 
C 0 14 0 
C 2 14 0 
C 4 14 0 
C 6 14 0 
C 8 14 0 
C 10 14 0 
C 12 14 0 
C 14 14 0 
C 16 14 0 
C 18 14 0 
C 20 14 0 
C 22 14 0 
C 24 14 0 
C 26 14 0 
C 28 14 0 
C 30 14 0 
C 32 14 0 
C 34 14 0 
C 36 14 0 
C 38 14 0 
C 40 14 0 
C 42 14 0 
C 44 14 0 
C 46 14 0 
C 48 14 0 
C 50 14 0 
C 52 14 0 
C 54 14 0 
C 56 14 0 
C 58 14 0 
C 60 14 0 
C 62 14 0 
C 64 14 0 
C 66 14 0 
C 68 14 0 
C 70 14 0 
C 72 14 0 
C 74 14 0 
C 76 14 0 
C 78 14 0 
C 80 14 0 
C 82 14 0 
C 84 14 0 
C 86 14 0 
C 88 14 0 
C 90 14 0 
C 92 14 0 
C 94 14 0 
C 96 14 0 
C 98 14 0 
C 100 14 0 
C 0 16 0 
C 2 16 0 
C 4 16 0 
C 6 16 0 
C 8 16 0 
C 10 16 0 
C 12 16 0 
C 14 16 0 
C 16 16 0 
C 18 16 0 
C 20 16 0 
C 22 16 0 
C 24 16 0 
C 26 16 0 
C 28 16 0 
C 30 16 0 
C 32 16 0 
C 34 16 0 
C 36 16 0 
C 38 16 0 
C 40 16 0 
C 42 16 0 
C 44 16 0 
C 46 16 0 
C 48 16 0 
C 50 16 0 
C 52 16 0 
C 54 16 0 
C 56 16 0 
C 58 16 0 
C 60 16 0 
C 62 16 0 
C 64 16 0 
C 66 16 0 
C 68 16 0 
C 70 16 0 
C 72 16 0 
C 74 16 0 
C 76 16 0 
C 78 16 0 
C 80 16 0 
C 82 16 0 
C 84 16 0 
C 86 16 0 
C 88 16 0 
C 90 16 0 
C 92 16 0 
C 94 16 0 
C 96 16 0 
C 98 16 0 
C 100 16 0 
C 0 18 0 
C 2 18 0 
C 4 18 0 
C 6 18 0 
C 8 18 0 
C 10 18 0 
C 12 18 0 
C 14 18 0 
C 16 18 0 
C 18 18 0 
C 20 18 0 
C 22 18 0 
C 24 18 0 
C 26 18 0 
C 28 18 0 
C 30 18 0 
C 32 18 0 
C 34 18 0 
C 36 18 0 
C 38 18 0 
C 40 18 0 
C 42 18 0 
C 44 18 0 
C 46 18 0 
C 48 18 0 
C 50 18 0 
C 52 18 0 
C 54 18 0 
C 56 18 0 
C 58 18 0 
C 60 18 0 
C 62 18 0 
C 64 18 0 
C 66 18 0 
C 68 18 0 
C 70 18 0 
C 72 18 0 
C 74 18 0 
C 76 18 0 
C 78 18 0 
C 80 18 0 
C 82 18 0 
C 84 18 0 
C 86 18 0 
C 88 18 0 
C 90 18 0 
C 92 18 0 
C 94 18 0 
C 96 18 0 
C 98 18 0 
C 100 18 0 
C 0 20 0 
C 2 20 0 
C 4 20 0 
C 6 20 0 
C 8 20 0 
C 10 20 0 
C 12 20 0 
C 14 20 0 
C 16 20 0 
C 18 20 0 
C 20 20 0 
C 22 20 0 
C 24 20 0 
C 26 20 0 
C 28 20 0 
C 30 20 0 
C 32 20 0 
C 34 20 0 
C 36 20 0 
C 38 20 0 
C 40 20 0 
C 42 20 0 
C 44 20 0 
C 46 20 0 
C 48 20 0 
C 50 20 0 
C 52 20 0 
C 54 20 0 
C 56 20 0 
C 58 20 0 
C 60 20 0 
C 62 20 0 
C 64 20 0 
C 66 20 0 
C 68 20 0 
C 70 20 0 
C 72 20 0 
C 74 20 0 
C 76 20 0 
C 78 20 0 
C 80 20 0 
C 82 20 0 
C 84 20 0 
C 86 20 0 
C 88 20 0 
C 90 20 0 
C 92 20 0 
C 94 20 0 
C 96 20 0 
C 98 20 0 
C 100 20 0 
C 0 22 0 
C 2 22 0 
C 4 22 0 
C 6 22 0 
C 8 22 0 
C 10 22 0 
C 12 22 0 
C 14 22 0 
C 16 22 0 
C 18 22 0 
C 20 22 0 
C 22 22 0 
C 24 22 0 
C 26 22 0 
C 28 22 0 
C 30 22 0 
C 32 22 0 
C 34 22 0 
C 36 22 0 
C 38 22 0 
C 40 22 0 
C 42 22 0 
C 44 22 0 
C 46 22 0 
C 48 22 0 
C 50 22 0 
C 52 22 0 
C 54 22 0 
C 56 22 0 
C 58 22 0 
C 60 22 0 
C 62 22 0 
C 64 22 0 
C 66 22 0 
C 68 22 0 
C 70 22 0 
C 72 22 0 
C 74 22 0 
C 76 22 0 
C 78 22 0 
C 80 22 0 
C 82 22 0 
C 84 22 0 
C 86 22 0 
C 88 22 0 
C 90 22 0 
C 92 22 0 
C 94 22 0 
C 96 22 0 
C 98 22 0 
C 100 22 0 
C 0 24 0 
C 2 24 0 
C 4 24 0 
C 6 24 0 
C 8 24 0 
C 10 24 0 
C 12 24 0 
C 14 24 0 
C 16 24 0 
C 18 24 0 
C 20 24 0 
C 22 24 0 
C 24 24 0 
C 26 24 0 
C 28 24 0 
C 30 24 0 
C 32 24 0 
C 34 24 0 
C 36 24 0 
C 38 24 0 
C 40 24 0 
C 42 24 0 
C 44 24 0 
C 46 24 0 
C 48 24 0 
C 50 24 0 
C 52 24 0 
C 54 24 0 
C 56 24 0 
C 58 24 0 
C 60 24 0 
C 62 24 0 
C 64 24 0 
C 66 24 0 
C 68 24 0 
C 70 24 0 
C 72 24 0 
C 74 24 0 
C 76 24 0 
C 78 24 0 
C 80 24 0 
C 82 24 0 
C 84 24 0 
C 86 24 0 
C 88 24 0 
C 90 24 0 
C 92 24 0 
C 94 24 0 
C 96 24 0 
C 98 24 0 
C 100 24 0 
C 0 26 0 
C 2 26 0 
C 4 26 0 
C 6 26 0 
C 8 26 0 
C 10 26 0 
C 12 26 0 
C 14 26 0 
C 16 26 0 
C 18 26 0 
C 20 26 0 
C 22 26 0 
C 24 26 0 
C 26 26 0 
C 28 26 0 
C 30 26 0 
C 32 26 0 
C 34 26 0 
C 36 26 0 
C 38 26 0 
C 40 26 0 
C 42 26 0 
C 44 26 0 
C 46 26 0 
C 48 26 0 
C 50 26 0 
C 52 26 0 
C 54 26 0 
C 56 26 0 
C 58 26 0 
C 60 26 0 
C 62 26 0 
C 64 26 0 
C 66 26 0 
C 68 26 0 
C 70 26 0 
C 72 26 0 
C 74 26 0 
C 76 26 0 
C 78 26 0 
C 80 26 0 
C 82 26 0 
C 84 26 0 
C 86 26 0 
C 88 26 0 
C 90 26 0 
C 92 26 0 
C 94 26 0 
C 96 26 0 
C 98 26 0 
C 100 26 0 
C 0 28 0 
C 2 28 0 
C 4 28 0 
C 6 28 0 
C 8 28 0 
C 10 28 0 
C 12 28 0 
C 14 28 0 
C 16 28 0 
C 18 28 0 
C 20 28 0 
C 22 28 0 
C 24 28 0 
C 26 28 0 
C 28 28 0 
C 30 28 0 
C 32 28 0 
C 34 28 0 
C 36 28 0 
C 38 28 0 
C 40 28 0 
C 42 28 0 
C 44 28 0 
C 46 28 0 
C 48 28 0 
C 50 28 0 
C 52 28 0 
C 54 28 0 
C 56 28 0 
C 58 28 0 
C 60 28 0 
C 62 28 0 
C 64 28 0 
C 66 28 0 
C 68 28 0 
C 70 28 0 
C 72 28 0 
C 74 28 0 
C 76 28 0 
C 78 28 0 
C 80 28 0 
C 82 28 0 
C 84 28 0 
C 86 28 0 
C 88 28 0 
C 90 28 0 
C 92 28 0 
C 94 28 0 
C 96 28 0 
C 98 28 0 
C 100 28 0 
C 0 30 0 
C 2 30 0 
C 4 30 0 
C 6 30 0 
C 8 30 0 
C 10 30 0 
C 12 30 0 
C 14 30 0 
C 16 30 0 
C 18 30 0 
C 20 30 0 
C 22 30 0 
C 24 30 0 
C 26 30 0 
C 28 30 0 
C 30 30 0 
C 32 30 0 
C 34 30 0 
C 36 30 0 
C 38 30 0 
C 40 30 0 
C 42 30 0 
C 44 30 0 
C 46 30 0 
C 48 30 0 
C 50 30 0 
C 52 30 0 
C 54 30 0 
C 56 30 0 
C 58 30 0 
C 60 30 0 
C 62 30 0 
C 64 30 0 
C 66 30 0 
C 68 30 0 
C 70 30 0 
C 72 30 0 
C 74 30 0 
C 76 30 0 
C 78 30 0 
C 80 30 0 
C 82 30 0 
C 84 30 0 
C 86 30 0 
C 88 30 0 
C 90 30 0 
C 92 30 0 
C 94 30 0 
C 96 30 0 
C 98 30 0 
C 100 30 0 
C 0 32 0 
C 2 32 0 
C 4 32 0 
C 6 32 0 
C 8 32 0 
C 10 32 0 
C 12 32 0 
C 14 32 0 
C 16 32 0 
C 18 32 0 
C 20 32 0 
C 22 32 0 
C 24 32 0 
C 26 32 0 
C 28 32 0 
C 30 32 0 
C 32 32 0 
C 34 32 0 
C 36 32 0 
C 38 32 0 
C 40 32 0 
C 42 32 0 
C 44 32 0 
C 46 32 0 
C 48 32 0 
C 50 32 0 
C 52 32 0 
C 54 32 0 
C 56 32 0 
C 58 32 0 
C 60 32 0 
C 62 32 0 
C 64 32 0 
C 66 32 0 
C 68 32 0 
C 70 32 0 
C 72 32 0 
C 74 32 0 
C 76 32 0 
C 78 32 0 
C 80 32 0 
C 82 32 0 
C 84 32 0 
C 86 32 0 
C 88 32 0 
C 90 32 0 
C 92 32 0 
C 94 32 0 
C 96 32 0 
C 98 32 0 
C 100 32 0 
C 0 34 0 
C 2 34 0 
C 4 34 0 
C 6 34 0 
C 8 34 0 
C 10 34 0 
C 12 34 0 
C 14 34 0 
C 16 34 0 
C 18 34 0 
C 20 34 0 
C 22 34 0 
C 24 34 0 
C 26 34 0 
C 28 34 0 
C 30 34 0 
C 32 34 0 
C 34 34 0 
C 36 34 0 
C 38 34 0 
C 40 34 0 
C 42 34 0 
C 44 34 0 
C 46 34 0 
C 48 34 0 
C 50 34 0 
C 52 34 0 
C 54 34 0 
C 56 34 0 
C 58 34 0 
C 60 34 0 
C 62 34 0 
C 64 34 0 
C 66 34 0 
C 68 34 0 
C 70 34 0 
C 72 34 0 
C 74 34 0 
C 76 34 0 
C 78 34 0 
C 80 34 0 
C 82 34 0 
C 84 34 0 
C 86 34 0 
C 88 34 0 
C 90 34 0 
C 92 34 0 
C 94 34 0 
C 96 34 0 
C 98 34 0 
C 100 34 0 
C 0 36 0 
C 2 36 0 
C 4 36 0 
C 6 36 0 
C 8 36 0 
C 10 36 0 
C 12 36 0 
C 14 36 0 
C 16 36 0 
C 18 36 0 
C 20 36 0 
C 22 36 0 
C 24 36 0 
C 26 36 0 
C 28 36 0 
C 30 36 0 
C 32 36 0 
C 34 36 0 
C 36 36 0 
C 38 36 0 
C 40 36 0 
C 42 36 0 
C 44 36 0 
C 46 36 0 
C 48 36 0 
C 50 36 0 
C 52 36 0 
C 54 36 0 
C 56 36 0 
C 58 36 0 
C 60 36 0 
C 62 36 0 
C 64 36 0 
C 66 36 0 
C 68 36 0 
C 70 36 0 
C 72 36 0 
C 74 36 0 
C 76 36 0 
C 78 36 0 
C 80 36 0 
C 82 36 0 
C 84 36 0 
C 86 36 0 
C 88 36 0 
C 90 36 0 
C 92 36 0 
C 94 36 0 
C 96 36 0 
C 98 36 0 
C 100 36 0 
C 0 38 0 
C 2 38 0 
C 4 38 0 
C 6 38 0 
C 8 38 0 
C 10 38 0 
C 12 38 0 
C 14 38 0 
C 16 38 0 
C 18 38 0 
C 20 38 0 
C 22 38 0 
C 24 38 0 
C 26 38 0 
C 28 38 0 
C 30 38 0 
C 32 38 0 
C 34 38 0 
C 36 38 0 
C 38 38 0 
C 40 38 0 
C 42 38 0 
C 44 38 0 
C 46 38 0 
C 48 38 0 
C 50 38 0 
C 52 38 0 
C 54 38 0 
C 56 38 0 
C 58 38 0 
C 60 38 0 
C 62 38 0 
C 64 38 0 
C 66 38 0 
C 68 38 0 
C 70 38 0 
C 72 38 0 
C 74 38 0 
C 76 38 0 
C 78 38 0 
C 80 38 0 
C 82 38 0 
C 84 38 0 
C 86 38 0 
C 88 38 0 
C 90 38 0 
C 92 38 0 
C 94 38 0 
C 96 38 0 
C 98 38 0 
C 100 38 0 
C 0 40 0 
C 2 40 0 
C 4 40 0 
C 6 40 0 
C 8 40 0 
C 10 40 0 
C 12 40 0 
C 14 40 0 
C 16 40 0 
C 18 40 0 
C 20 40 0 
C 22 40 0 
C 24 40 0 
C 26 40 0 
C 28 40 0 
C 30 40 0 
C 32 40 0 
C 34 40 0 
C 36 40 0 
C 38 40 0 
C 40 40 0 
C 42 40 0 
C 44 40 0 
C 46 40 0 
C 48 40 0 
C 50 40 0 
C 52 40 0 
C 54 40 0 
C 56 40 0 
C 58 40 0 
C 60 40 0 
C 62 40 0 
C 64 40 0 
C 66 40 0 
C 68 40 0 
C 70 40 0 
C 72 40 0 
C 74 40 0 
C 76 40 0 
C 78 40 0 
C 80 40 0 
C 82 40 0 
C 84 40 0 
C 86 40 0 
C 88 40 0 
C 90 40 0 
C 92 40 0 
C 94 40 0 
C 96 40 0 
C 98 40 0 
C 100 40 0 
C 0 42 0 
C 2 42 0 
C 4 42 0 
C 6 42 0 
C 8 42 0 
C 10 42 0 
C 12 42 0 
C 14 42 0 
C 16 42 0 
C 18 42 0 
C 20 42 0 
C 22 42 0 
C 24 42 0 
C 26 42 0 
C 28 42 0 
C 30 42 0 
C 32 42 0 
C 34 42 0 
C 36 42 0 
C 38 42 0 
C 40 42 0 
C 42 42 0 
C 44 42 0 
C 46 42 0 
C 48 42 0 
C 50 42 0 
C 52 42 0 
C 54 42 0 
C 56 42 0 
C 58 42 0 
C 60 42 0 
C 62 42 0 
C 64 42 0 
C 66 42 0 
C 68 42 0 
C 70 42 0 
C 72 42 0 
C 74 42 0 
C 76 42 0 
C 78 42 0 
C 80 42 0 
C 82 42 0 
C 84 42 0 
C 86 42 0 
C 88 42 0 
C 90 42 0 
C 92 42 0 
C 94 42 0 
C 96 42 0 
C 98 42 0 
C 100 42 0 
C 0 44 0 
C 2 44 0 
C 4 44 0 
C 6 44 0 
C 8 44 0 
C 10 44 0 
C 12 44 0 
C 14 44 0 
C 16 44 0 
C 18 44 0 
C 20 44 0 
C 22 44 0 
C 24 44 0 
C 26 44 0 
C 28 44 0 
C 30 44 0 
C 32 44 0 
C 34 44 0 
C 36 44 0 
C 38 44 0 
C 40 44 0 
C 42 44 0 
C 44 44 0 
C 46 44 0 
C 48 44 0 
C 50 44 0 
C 52 44 0 
C 54 44 0 
C 56 44 0 
C 58 44 0 
C 60 44 0 
C 62 44 0 
C 64 44 0 
C 66 44 0 
C 68 44 0 
C 70 44 0 
C 72 44 0 
C 74 44 0 
C 76 44 0 
C 78 44 0 
C 80 44 0 
C 82 44 0 
C 84 44 0 
C 86 44 0 
C 88 44 0 
C 90 44 0 
C 92 44 0 
C 94 44 0 
C 96 44 0 
C 98 44 0 
C 100 44 0 
C 0 46 0 
C 2 46 0 
C 4 46 0 
C 6 46 0 
C 8 46 0 
C 10 46 0 
C 12 46 0 
C 14 46 0 
C 16 46 0 
C 18 46 0 
C 20 46 0 
C 22 46 0 
C 24 46 0 
C 26 46 0 
C 28 46 0 
C 30 46 0 
C 32 46 0 
C 34 46 0 
C 36 46 0 
C 38 46 0 
C 40 46 0 
C 42 46 0 
C 44 46 0 
C 46 46 0 
C 48 46 0 
C 50 46 0 
C 52 46 0 
C 54 46 0 
C 56 46 0 
C 58 46 0 
C 60 46 0 
C 62 46 0 
C 64 46 0 
C 66 46 0 
C 68 46 0 
C 70 46 0 
C 72 46 0 
C 74 46 0 
C 76 46 0 
C 78 46 0 
C 80 46 0 
C 82 46 0 
C 84 46 0 
C 86 46 0 
C 88 46 0 
C 90 46 0 
C 92 46 0 
C 94 46 0 
C 96 46 0 
C 98 46 0 
C 100 46 0 
C 0 48 0 
C 2 48 0 
C 4 48 0 
C 6 48 0 
C 8 48 0 
C 10 48 0 
C 12 48 0 
C 14 48 0 
C 16 48 0 
C 18 48 0 
C 20 48 0 
C 22 48 0 
C 24 48 0 
C 26 48 0 
C 28 48 0 
C 30 48 0 
C 32 48 0 
C 34 48 0 
C 36 48 0 
C 38 48 0 
C 40 48 0 
C 42 48 0 
C 44 48 0 
C 46 48 0 
C 48 48 0 
C 50 48 0 
C 52 48 0 
C 54 48 0 
C 56 48 0 
C 58 48 0 
C 60 48 0 
C 62 48 0 
C 64 48 0 
C 66 48 0 
C 68 48 0 
C 70 48 0 
C 72 48 0 
C 74 48 0 
C 76 48 0 
C 78 48 0 
C 80 48 0 
C 82 48 0 
C 84 48 0 
C 86 48 0 
C 88 48 0 
C 90 48 0 
C 92 48 0 
C 94 48 0 
C 96 48 0 
C 98 48 0 
C 100 48 0 
C 0 50 0 
C 2 50 0 
C 4 50 0 
C 6 50 0 
C 8 50 0 
C 10 50 0 
C 12 50 0 
C 14 50 0 
C 16 50 0 
C 18 50 0 
C 20 50 0 
C 22 50 0 
C 24 50 0 
C 26 50 0 
C 28 50 0 
C 30 50 0 
C 32 50 0 
C 34 50 0 
C 36 50 0 
C 38 50 0 
C 40 50 0 
C 42 50 0 
C 44 50 0 
C 46 50 0 
C 48 50 0 
C 50 50 0 
C 52 50 0 
C 54 50 0 
C 56 50 0 
C 58 50 0 
C 60 50 0 
C 62 50 0 
C 64 50 0 
C 66 50 0 
C 68 50 0 
C 70 50 0 
C 72 50 0 
C 74 50 0 
C 76 50 0 
C 78 50 0 
C 80 50 0 
C 82 50 0 
C 84 50 0 
C 86 50 0 
C 88 50 0 
C 90 50 0 
C 92 50 0 
C 94 50 0 
C 96 50 0 
C 98 50 0 
C 100 50 0 
C 0 52 0 
C 2 52 0 
C 4 52 0 
C 6 52 0 
C 8 52 0 
C 10 52 0 
C 12 52 0 
C 14 52 0 
C 16 52 0 
C 18 52 0 
C 20 52 0 
C 22 52 0 
C 24 52 0 
C 26 52 0 
C 28 52 0 
C 30 52 0 
C 32 52 0 
C 34 52 0 
C 36 52 0 
C 38 52 0 
C 40 52 0 
C 42 52 0 
C 44 52 0 
C 46 52 0 
C 48 52 0 
C 50 52 0 
C 52 52 0 
C 54 52 0 
C 56 52 0 
C 58 52 0 
C 60 52 0 
C 62 52 0 
C 64 52 0 
C 66 52 0 
C 68 52 0 
C 70 52 0 
C 72 52 0 
C 74 52 0 
C 76 52 0 
C 78 52 0 
C 80 52 0 
C 82 52 0 
C 84 52 0 
C 86 52 0 
C 88 52 0 
C 90 52 0 
C 92 52 0 
C 94 52 0 
C 96 52 0 
C 98 52 0 
C 100 52 0 
C 0 54 0 
C 2 54 0 
C 4 54 0 
C 6 54 0 
C 8 54 0 
C 10 54 0 
C 12 54 0 
C 14 54 0 
C 16 54 0 
C 18 54 0 
C 20 54 0 
C 22 54 0 
C 24 54 0 
C 26 54 0 
C 28 54 0 
C 30 54 0 
C 32 54 0 
C 34 54 0 
C 36 54 0 
C 38 54 0 
C 40 54 0 
C 42 54 0 
C 44 54 0 
C 46 54 0 
C 48 54 0 
C 50 54 0 
C 52 54 0 
C 54 54 0 
C 56 54 0 
C 58 54 0 
C 60 54 0 
C 62 54 0 
C 64 54 0 
C 66 54 0 
C 68 54 0 
C 70 54 0 
C 72 54 0 
C 74 54 0 
C 76 54 0 
C 78 54 0 
C 80 54 0 
C 82 54 0 
C 84 54 0 
C 86 54 0 
C 88 54 0 
C 90 54 0 
C 92 54 0 
C 94 54 0 
C 96 54 0 
C 98 54 0 
C 100 54 0 
C 0 56 0 
C 2 56 0 
C 4 56 0 
C 6 56 0 
C 8 56 0 
C 10 56 0 
C 12 56 0 
C 14 56 0 
C 16 56 0 
C 18 56 0 
C 20 56 0 
C 22 56 0 
C 24 56 0 
C 26 56 0 
C 28 56 0 
C 30 56 0 
C 32 56 0 
C 34 56 0 
C 36 56 0 
C 38 56 0 
C 40 56 0 
C 42 56 0 
C 44 56 0 
C 46 56 0 
C 48 56 0 
C 50 56 0 
C 52 56 0 
C 54 56 0 
C 56 56 0 
C 58 56 0 
C 60 56 0 
C 62 56 0 
C 64 56 0 
C 66 56 0 
C 68 56 0 
C 70 56 0 
C 72 56 0 
C 74 56 0 
C 76 56 0 
C 78 56 0 
C 80 56 0 
C 82 56 0 
C 84 56 0 
C 86 56 0 
C 88 56 0 
C 90 56 0 
C 92 56 0 
C 94 56 0 
C 96 56 0 
C 98 56 0 
C 100 56 0 
C 0 58 0 
C 2 58 0 
C 4 58 0 
C 6 58 0 
C 8 58 0 
C 10 58 0 
C 12 58 0 
C 14 58 0 
C 16 58 0 
C 18 58 0 
C 20 58 0 
C 22 58 0 
C 24 58 0 
C 26 58 0 
C 28 58 0 
C 30 58 0 
C 32 58 0 
C 34 58 0 
C 36 58 0 
C 38 58 0 
C 40 58 0 
C 42 58 0 
C 44 58 0 
C 46 58 0 
C 48 58 0 
C 50 58 0 
C 52 58 0 
C 54 58 0 
C 56 58 0 
C 58 58 0 
C 60 58 0 
C 62 58 0 
C 64 58 0 
C 66 58 0 
C 68 58 0 
C 70 58 0 
C 72 58 0 
C 74 58 0 
C 76 58 0 
C 78 58 0 
C 80 58 0 
C 82 58 0 
C 84 58 0 
C 86 58 0 
C 88 58 0 
C 90 58 0 
C 92 58 0 
C 94 58 0 
C 96 58 0 
C 98 58 0 
C 100 58 0 
C 0 60 0 
C 2 60 0 
C 4 60 0 
C 6 60 0 
C 8 60 0 
C 10 60 0 
C 12 60 0 
C 14 60 0 
C 16 60 0 
C 18 60 0 
C 20 60 0 
C 22 60 0 
C 24 60 0 
C 26 60 0 
C 28 60 0 
C 30 60 0 
C 32 60 0 
C 34 60 0 
C 36 60 0 
C 38 60 0 
C 40 60 0 
C 42 60 0 
C 44 60 0 
C 46 60 0 
C 48 60 0 
C 50 60 0 
C 52 60 0 
C 54 60 0 
C 56 60 0 
C 58 60 0 
C 60 60 0 
C 62 60 0 
C 64 60 0 
C 66 60 0 
C 68 60 0 
C 70 60 0 
C 72 60 0 
C 74 60 0 
C 76 60 0 
C 78 60 0 
C 80 60 0 
C 82 60 0 
C 84 60 0 
C 86 60 0 
C 88 60 0 
C 90 60 0 
C 92 60 0 
C 94 60 0 
C 96 60 0 
C 98 60 0 
C 100 60 0 
C 0 62 0 
C 2 62 0 
C 4 62 0 
C 6 62 0 
C 8 62 0 
C 10 62 0 
C 12 62 0 
C 14 62 0 
C 16 62 0 
C 18 62 0 
C 20 62 0 
C 22 62 0 
C 24 62 0 
C 26 62 0 
C 28 62 0 
C 30 62 0 
C 32 62 0 
C 34 62 0 
C 36 62 0 
C 38 62 0 
C 40 62 0 
C 42 62 0 
C 44 62 0 
C 46 62 0 
C 48 62 0 
C 50 62 0 
C 52 62 0 
C 54 62 0 
C 56 62 0 
C 58 62 0 
C 60 62 0 
C 62 62 0 
C 64 62 0 
C 66 62 0 
C 68 62 0 
C 70 62 0 
C 72 62 0 
C 74 62 0 
C 76 62 0 
C 78 62 0 
C 80 62 0 
C 82 62 0 
C 84 62 0 
C 86 62 0 
C 88 62 0 
C 90 62 0 
C 92 62 0 
C 94 62 0 
C 96 62 0 
C 98 62 0 
C 100 62 0 
C 0 64 0 
C 2 64 0 
C 4 64 0 
C 6 64 0 
C 8 64 0 
C 10 64 0 
C 12 64 0 
C 14 64 0 
C 16 64 0 
C 18 64 0 
C 20 64 0 
C 22 64 0 
C 24 64 0 
C 26 64 0 
C 28 64 0 
C 30 64 0 
C 32 64 0 
C 34 64 0 
C 36 64 0 
C 38 64 0 
C 40 64 0 
C 42 64 0 
C 44 64 0 
C 46 64 0 
C 48 64 0 
C 50 64 0 
C 52 64 0 
C 54 64 0 
C 56 64 0 
C 58 64 0 
C 60 64 0 
C 62 64 0 
C 64 64 0 
C 66 64 0 
C 68 64 0 
C 70 64 0 
C 72 64 0 
C 74 64 0 
C 76 64 0 
C 78 64 0 
C 80 64 0 
C 82 64 0 
C 84 64 0 
C 86 64 0 
C 88 64 0 
C 90 64 0 
C 92 64 0 
C 94 64 0 
C 96 64 0 
C 98 64 0 
C 100 64 0 
C 0 66 0 
C 2 66 0 
C 4 66 0 
C 6 66 0 
C 8 66 0 
C 10 66 0 
C 12 66 0 
C 14 66 0 
C 16 66 0 
C 18 66 0 
C 20 66 0 
C 22 66 0 
C 24 66 0 
C 26 66 0 
C 28 66 0 
C 30 66 0 
C 32 66 0 
C 34 66 0 
C 36 66 0 
C 38 66 0 
C 40 66 0 
C 42 66 0 
C 44 66 0 
C 46 66 0 
C 48 66 0 
C 50 66 0 
C 52 66 0 
C 54 66 0 
C 56 66 0 
C 58 66 0 
C 60 66 0 
C 62 66 0 
C 64 66 0 
C 66 66 0 
C 68 66 0 
C 70 66 0 
C 72 66 0 
C 74 66 0 
C 76 66 0 
C 78 66 0 
C 80 66 0 
C 82 66 0 
C 84 66 0 
C 86 66 0 
C 88 66 0 
C 90 66 0 
C 92 66 0 
C 94 66 0 
C 96 66 0 
C 98 66 0 
C 100 66 0 
C 0 68 0 
C 2 68 0 
C 4 68 0 
C 6 68 0 
C 8 68 0 
C 10 68 0 
C 12 68 0 
C 14 68 0 
C 16 68 0 
C 18 68 0 
C 20 68 0 
C 22 68 0 
C 24 68 0 
C 26 68 0 
C 28 68 0 
C 30 68 0 
C 32 68 0 
C 34 68 0 
C 36 68 0 
C 38 68 0 
C 40 68 0 
C 42 68 0 
C 44 68 0 
C 46 68 0 
C 48 68 0 
C 50 68 0 
C 52 68 0 
C 54 68 0 
C 56 68 0 
C 58 68 0 
C 60 68 0 
C 62 68 0 
C 64 68 0 
C 66 68 0 
C 68 68 0 
C 70 68 0 
C 72 68 0 
C 74 68 0 
C 76 68 0 
C 78 68 0 
C 80 68 0 
C 82 68 0 
C 84 68 0 
C 86 68 0 
C 88 68 0 
C 90 68 0 
C 92 68 0 
C 94 68 0 
C 96 68 0 
C 98 68 0 
C 100 68 0 
C 0 70 0 
C 2 70 0 
C 4 70 0 
C 6 70 0 
C 8 70 0 
C 10 70 0 
C 12 70 0 
C 14 70 0 
C 16 70 0 
C 18 70 0 
C 20 70 0 
C 22 70 0 
C 24 70 0 
C 26 70 0 
C 28 70 0 
C 30 70 0 
C 32 70 0 
C 34 70 0 
C 36 70 0 
C 38 70 0 
C 40 70 0 
C 42 70 0 
C 44 70 0 
C 46 70 0 
C 48 70 0 
C 50 70 0 
C 52 70 0 
C 54 70 0 
C 56 70 0 
C 58 70 0 
C 60 70 0 
C 62 70 0 
C 64 70 0 
C 66 70 0 
C 68 70 0 
C 70 70 0 
C 72 70 0 
C 74 70 0 
C 76 70 0 
C 78 70 0 
C 80 70 0 
C 82 70 0 
C 84 70 0 
C 86 70 0 
C 88 70 0 
C 90 70 0 
C 92 70 0 
C 94 70 0 
C 96 70 0 
C 98 70 0 
C 100 70 0 
C 0 72 0 
C 2 72 0 
C 4 72 0 
C 6 72 0 
C 8 72 0 
C 10 72 0 
C 12 72 0 
C 14 72 0 
C 16 72 0 
C 18 72 0 
C 20 72 0 
C 22 72 0 
C 24 72 0 
C 26 72 0 
C 28 72 0 
C 30 72 0 
C 32 72 0 
C 34 72 0 
C 36 72 0 
C 38 72 0 
C 40 72 0 
C 42 72 0 
C 44 72 0 
C 46 72 0 
C 48 72 0 
C 50 72 0 
C 52 72 0 
C 54 72 0 
C 56 72 0 
C 58 72 0 
C 60 72 0 
C 62 72 0 
C 64 72 0 
C 66 72 0 
C 68 72 0 
C 70 72 0 
C 72 72 0 
C 74 72 0 
C 76 72 0 
C 78 72 0 
C 80 72 0 
C 82 72 0 
C 84 72 0 
C 86 72 0 
C 88 72 0 
C 90 72 0 
C 92 72 0 
C 94 72 0 
C 96 72 0 
C 98 72 0 
C 100 72 0 
C 0 74 0 
C 2 74 0 
C 4 74 0 
C 6 74 0 
C 8 74 0 
C 10 74 0 
C 12 74 0 
C 14 74 0 
C 16 74 0 
C 18 74 0 
C 20 74 0 
C 22 74 0 
C 24 74 0 
C 26 74 0 
C 28 74 0 
C 30 74 0 
C 32 74 0 
C 34 74 0 
C 36 74 0 
C 38 74 0 
C 40 74 0 
C 42 74 0 
C 44 74 0 
C 46 74 0 
C 48 74 0 
C 50 74 0 
C 52 74 0 
C 54 74 0 
C 56 74 0 
C 58 74 0 
C 60 74 0 
C 62 74 0 
C 64 74 0 
C 66 74 0 
C 68 74 0 
C 70 74 0 
C 72 74 0 
C 74 74 0 
C 76 74 0 
C 78 74 0 
C 80 74 0 
C 82 74 0 
C 84 74 0 
C 86 74 0 
C 88 74 0 
C 90 74 0 
C 92 74 0 
C 94 74 0 
C 96 74 0 
C 98 74 0 
C 100 74 0 
C 0 76 0 
C 2 76 0 
C 4 76 0 
C 6 76 0 
C 8 76 0 
C 10 76 0 
C 12 76 0 
C 14 76 0 
C 16 76 0 
C 18 76 0 
C 20 76 0 
C 22 76 0 
C 24 76 0 
C 26 76 0 
C 28 76 0 
C 30 76 0 
C 32 76 0 
C 34 76 0 
C 36 76 0 
C 38 76 0 
C 40 76 0 
C 42 76 0 
C 44 76 0 
C 46 76 0 
C 48 76 0 
C 50 76 0 
C 52 76 0 
C 54 76 0 
C 56 76 0 
C 58 76 0 
C 60 76 0 
C 62 76 0 
C 64 76 0 
C 66 76 0 
C 68 76 0 
C 70 76 0 
C 72 76 0 
C 74 76 0 
C 76 76 0 
C 78 76 0 
C 80 76 0 
C 82 76 0 
C 84 76 0 
C 86 76 0 
C 88 76 0 
C 90 76 0 
C 92 76 0 
C 94 76 0 
C 96 76 0 
C 98 76 0 
C 100 76 0 
C 0 78 0 
C 2 78 0 
C 4 78 0 
C 6 78 0 
C 8 78 0 
C 10 78 0 
C 12 78 0 
C 14 78 0 
C 16 78 0 
C 18 78 0 
C 20 78 0 
C 22 78 0 
C 24 78 0 
C 26 78 0 
C 28 78 0 
C 30 78 0 
C 32 78 0 
C 34 78 0 
C 36 78 0 
C 38 78 0 
C 40 78 0 
C 42 78 0 
C 44 78 0 
C 46 78 0 
C 48 78 0 
C 50 78 0 
C 52 78 0 
C 54 78 0 
C 56 78 0 
C 58 78 0 
C 60 78 0 
C 62 78 0 
C 64 78 0 
C 66 78 0 
C 68 78 0 
C 70 78 0 
C 72 78 0 
C 74 78 0 
C 76 78 0 
C 78 78 0 
C 80 78 0 
C 82 78 0 
C 84 78 0 
C 86 78 0 
C 88 78 0 
C 90 78 0 
C 92 78 0 
C 94 78 0 
C 96 78 0 
C 98 78 0 
C 100 78 0 
C 0 80 0 
C 2 80 0 
C 4 80 0 
C 6 80 0 
C 8 80 0 
C 10 80 0 
C 12 80 0 
C 14 80 0 
C 16 80 0 
C 18 80 0 
C 20 80 0 
C 22 80 0 
C 24 80 0 
C 26 80 0 
C 28 80 0 
C 30 80 0 
C 32 80 0 
C 34 80 0 
C 36 80 0 
C 38 80 0 
C 40 80 0 
C 42 80 0 
C 44 80 0 
C 46 80 0 
C 48 80 0 
C 50 80 0 
C 52 80 0 
C 54 80 0 
C 56 80 0 
C 58 80 0 
C 60 80 0 
C 62 80 0 
C 64 80 0 
C 66 80 0 
C 68 80 0 
C 70 80 0 
C 72 80 0 
C 74 80 0 
C 76 80 0 
C 78 80 0 
C 80 80 0 
C 82 80 0 
C 84 80 0 
C 86 80 0 
C 88 80 0 
C 90 80 0 
C 92 80 0 
C 94 80 0 
C 96 80 0 
C 98 80 0 
C 100 80 0 
C 0 82 0 
C 2 82 0 
C 4 82 0 
C 6 82 0 
C 8 82 0 
C 10 82 0 
C 12 82 0 
C 14 82 0 
C 16 82 0 
C 18 82 0 
C 20 82 0 
C 22 82 0 
C 24 82 0 
C 26 82 0 
C 28 82 0 
C 30 82 0 
C 32 82 0 
C 34 82 0 
C 36 82 0 
C 38 82 0 
C 40 82 0 
C 42 82 0 
C 44 82 0 
C 46 82 0 
C 48 82 0 
C 50 82 0 
C 52 82 0 
C 54 82 0 
C 56 82 0 
C 58 82 0 
C 60 82 0 
C 62 82 0 
C 64 82 0 
C 66 82 0 
C 68 82 0 
C 70 82 0 
C 72 82 0 
C 74 82 0 
C 76 82 0 
C 78 82 0 
C 80 82 0 
C 82 82 0 
C 84 82 0 
C 86 82 0 
C 88 82 0 
C 90 82 0 
C 92 82 0 
C 94 82 0 
C 96 82 0 
C 98 82 0 
C 100 82 0 
C 0 84 0 
C 2 84 0 
C 4 84 0 
C 6 84 0 
C 8 84 0 
C 10 84 0 
C 12 84 0 
C 14 84 0 
C 16 84 0 
C 18 84 0 
C 20 84 0 
C 22 84 0 
C 24 84 0 
C 26 84 0 
C 28 84 0 
C 30 84 0 
C 32 84 0 
C 34 84 0 
C 36 84 0 
C 38 84 0 
C 40 84 0 
C 42 84 0 
C 44 84 0 
C 46 84 0 
C 48 84 0 
C 50 84 0 
C 52 84 0 
C 54 84 0 
C 56 84 0 
C 58 84 0 
C 60 84 0 
C 62 84 0 
C 64 84 0 
C 66 84 0 
C 68 84 0 
C 70 84 0 
C 72 84 0 
C 74 84 0 
C 76 84 0 
C 78 84 0 
C 80 84 0 
C 82 84 0 
C 84 84 0 
C 86 84 0 
C 88 84 0 
C 90 84 0 
C 92 84 0 
C 94 84 0 
C 96 84 0 
C 98 84 0 
C 100 84 0 
C 0 86 0 
C 2 86 0 
C 4 86 0 
C 6 86 0 
C 8 86 0 
C 10 86 0 
C 12 86 0 
C 14 86 0 
C 16 86 0 
C 18 86 0 
C 20 86 0 
C 22 86 0 
C 24 86 0 
C 26 86 0 
C 28 86 0 
C 30 86 0 
C 32 86 0 
C 34 86 0 
C 36 86 0 
C 38 86 0 
C 40 86 0 
C 42 86 0 
C 44 86 0 
C 46 86 0 
C 48 86 0 
C 50 86 0 
C 52 86 0 
C 54 86 0 
C 56 86 0 
C 58 86 0 
C 60 86 0 
C 62 86 0 
C 64 86 0 
C 66 86 0 
C 68 86 0 
C 70 86 0 
C 72 86 0 
C 74 86 0 
C 76 86 0 
C 78 86 0 
C 80 86 0 
C 82 86 0 
C 84 86 0 
C 86 86 0 
C 88 86 0 
C 90 86 0 
C 92 86 0 
C 94 86 0 
C 96 86 0 
C 98 86 0 
C 100 86 0 
C 0 88 0 
C 2 88 0 
C 4 88 0 
C 6 88 0 
C 8 88 0 
C 10 88 0 
C 12 88 0 
C 14 88 0 
C 16 88 0 
C 18 88 0 
C 20 88 0 
C 22 88 0 
C 24 88 0 
C 26 88 0 
C 28 88 0 
C 30 88 0 
C 32 88 0 
C 34 88 0 
C 36 88 0 
C 38 88 0 
C 40 88 0 
C 42 88 0 
C 44 88 0 
C 46 88 0 
C 48 88 0 
C 50 88 0 
C 52 88 0 
C 54 88 0 
C 56 88 0 
C 58 88 0 
C 60 88 0 
C 62 88 0 
C 64 88 0 
C 66 88 0 
C 68 88 0 
C 70 88 0 
C 72 88 0 
C 74 88 0 
C 76 88 0 
C 78 88 0 
C 80 88 0 
C 82 88 0 
C 84 88 0 
C 86 88 0 
C 88 88 0 
C 90 88 0 
C 92 88 0 
C 94 88 0 
C 96 88 0 
C 98 88 0 
C 100 88 0 
C 0 90 0 
C 2 90 0 
C 4 90 0 
C 6 90 0 
C 8 90 0 
C 10 90 0 
C 12 90 0 
C 14 90 0 
C 16 90 0 
C 18 90 0 
C 20 90 0 
C 22 90 0 
C 24 90 0 
C 26 90 0 
C 28 90 0 
C 30 90 0 
C 32 90 0 
C 34 90 0 
C 36 90 0 
C 38 90 0 
C 40 90 0 
C 42 90 0 
C 44 90 0 
C 46 90 0 
C 48 90 0 
C 50 90 0 
C 52 90 0 
C 54 90 0 
C 56 90 0 
C 58 90 0 
C 60 90 0 
C 62 90 0 
C 64 90 0 
C 66 90 0 
C 68 90 0 
C 70 90 0 
C 72 90 0 
C 74 90 0 
C 76 90 0 
C 78 90 0 
C 80 90 0 
C 82 90 0 
C 84 90 0 
C 86 90 0 
C 88 90 0 
C 90 90 0 
C 92 90 0 
C 94 90 0 
C 96 90 0 
C 98 90 0 
C 100 90 0 
C 0 92 0 
C 2 92 0 
C 4 92 0 
C 6 92 0 
C 8 92 0 
C 10 92 0 
C 12 92 0 
C 14 92 0 
C 16 92 0 
C 18 92 0 
C 20 92 0 
C 22 92 0 
C 24 92 0 
C 26 92 0 
C 28 92 0 
C 30 92 0 
C 32 92 0 
C 34 92 0 
C 36 92 0 
C 38 92 0 
C 40 92 0 
C 42 92 0 
C 44 92 0 
C 46 92 0 
C 48 92 0 
C 50 92 0 
C 52 92 0 
C 54 92 0 
C 56 92 0 
C 58 92 0 
C 60 92 0 
C 62 92 0 
C 64 92 0 
C 66 92 0 
C 68 92 0 
C 70 92 0 
C 72 92 0 
C 74 92 0 
C 76 92 0 
C 78 92 0 
C 80 92 0 
C 82 92 0 
C 84 92 0 
C 86 92 0 
C 88 92 0 
C 90 92 0 
C 92 92 0 
C 94 92 0 
C 96 92 0 
C 98 92 0 
C 100 92 0 
C 0 94 0 
C 2 94 0 
C 4 94 0 
C 6 94 0 
C 8 94 0 
C 10 94 0 
C 12 94 0 
C 14 94 0 
C 16 94 0 
C 18 94 0 
C 20 94 0 
C 22 94 0 
C 24 94 0 
C 26 94 0 
C 28 94 0 
C 30 94 0 
C 32 94 0 
C 34 94 0 
C 36 94 0 
C 38 94 0 
C 40 94 0 
C 42 94 0 
C 44 94 0 
C 46 94 0 
C 48 94 0 
C 50 94 0 
C 52 94 0 
C 54 94 0 
C 56 94 0 
C 58 94 0 
C 60 94 0 
C 62 94 0 
C 64 94 0 
C 66 94 0 
C 68 94 0 
C 70 94 0 
C 72 94 0 
C 74 94 0 
C 76 94 0 
C 78 94 0 
C 80 94 0 
C 82 94 0 
C 84 94 0 
C 86 94 0 
C 88 94 0 
C 90 94 0 
C 92 94 0 
C 94 94 0 
C 96 94 0 
C 98 94 0 
C 100 94 0 
C 0 96 0 
C 2 96 0 
C 4 96 0 
C 6 96 0 
C 8 96 0 
C 10 96 0 
C 12 96 0 
C 14 96 0 
C 16 96 0 
C 18 96 0 
C 20 96 0 
C 22 96 0 
C 24 96 0 
C 26 96 0 
C 28 96 0 
C 30 96 0 
C 32 96 0 
C 34 96 0 
C 36 96 0 
C 38 96 0 
C 40 96 0 
C 42 96 0 
C 44 96 0 
C 46 96 0 
C 48 96 0 
C 50 96 0 
C 52 96 0 
C 54 96 0 
C 56 96 0 
C 58 96 0 
C 60 96 0 
C 62 96 0 
C 64 96 0 
C 66 96 0 
C 68 96 0 
C 70 96 0 
C 72 96 0 
C 74 96 0 
C 76 96 0 
C 78 96 0 
C 80 96 0 
C 82 96 0 
C 84 96 0 
C 86 96 0 
C 88 96 0 
C 90 96 0 
C 92 96 0 
C 94 96 0 
C 96 96 0 
C 98 96 0 
C 100 96 0 
C 0 98 0 
C 2 98 0 
C 4 98 0 
C 6 98 0 
C 8 98 0 
C 10 98 0 
C 12 98 0 
C 14 98 0 
C 16 98 0 
C 18 98 0 
C 20 98 0 
C 22 98 0 
C 24 98 0 
C 26 98 0 
C 28 98 0 
C 30 98 0 
C 32 98 0 
C 34 98 0 
C 36 98 0 
C 38 98 0 
C 40 98 0 
C 42 98 0 
C 44 98 0 
C 46 98 0 
C 48 98 0 
C 50 98 0 
C 52 98 0 
C 54 98 0 
C 56 98 0 
C 58 98 0 
C 60 98 0 
C 62 98 0 
C 64 98 0 
C 66 98 0 
C 68 98 0 
C 70 98 0 
C 72 98 0 
C 74 98 0 
C 76 98 0 
C 78 98 0 
C 80 98 0 
C 82 98 0 
C 84 98 0 
C 86 98 0 
C 88 98 0 
C 90 98 0 
C 92 98 0 
C 94 98 0 
C 96 98 0 
C 98 98 0 
C 100 98 0 
C 0 100 0 
C 2 100 0 
C 4 100 0 
C 6 100 0 
C 8 100 0 
C 10 100 0 
C 12 100 0 
C 14 100 0 
C 16 100 0 
C 18 100 0 
C 20 100 0 
C 22 100 0 
C 24 100 0 
C 26 100 0 
C 28 100 0 
C 30 100 0 
C 32 100 0 
C 34 100 0 
C 36 100 0 
C 38 100 0 
C 40 100 0 
C 42 100 0 
C 44 100 0 
C 46 100 0 
C 48 100 0 
C 50 100 0 
C 52 100 0 
C 54 100 0 
C 56 100 0 
C 58 100 0 
C 60 100 0 
C 62 100 0 
C 64 100 0 
C 66 100 0 
C 68 100 0 
C 70 100 0 
C 72 100 0 
C 74 100 0 
C 76 100 0 
C 78 100 0 
C 80 100 0 
C 82 100 0 
C 84 100 0 
C 86 100 0 
C 88 100 0 
C 90 100 0 
C 92 100 0 
C 94 100 0 
C 96 100 0 
C 98 100 0 
C 100 100 0 
O 15 18 0 
O 80 67 0 
O 95 52 0 
O 2 99 0 
O 89 91 0 
O 11 27 0 
O 99 64 0 
O 44 63 0 
O 41 28 0 
O 29 0 0 
O 1 91 0 
O 72 99 0 
O 5 61 0 
O 41 59 0 
O 42 25 0 
O 4 23 0 
O 68 91 0 
O 69 64 0 
O 0 27 0 
O 47 76 0 
O 98 85 0 
O 89 89 0 
O 7 61 0 
O 35 12 0 
O 12 47 0 
O 4 35 0 
O 45 88 0 
O 96 81 0 
O 38 87 0 
O 45 6 0 
O 99 97 0 
O 11 68 0 
O 30 1 0 
O 99 95 0 
O 88 11 0 
O 75 49 0 
O 40 31 0 
O 23 86 0 
3131
Atoms. Timestep: 5
N 88 19 0 
N 23 54 0 
N 15 68 0 
N 52 93 0 
N 35 18 0 
N 62 25 0 
N 85 67 0 
N 5 55 0 
N 13 49 0 
N 51 29 0 
N 15 6 0 
N 61 29 0 
N 63 10 0 
N 80 85 0 
N 55 87 0 
N 50 61 0 
N 39 75 0 
N 3 91 0 
N 3 13 0 
N 87 22 0 
N 13 39 0 
N 77 11 0 
N 18 27 0 
N 49 75 0 
N 63 98 0 
N 11 91 0 
N 89 10 0 
N 63 99 0 
N 3 38 0 
N 33 51 0 
N 75 31 0 
N 62 19 0 
N 23 65 0 
N 97 46 0 
N 27 18 0 
N 79 51 0 
N 95 70 0 
N 67 6 0 
N 65 89 0 
N 97 5 0 
N 45 11 0 
N 29 96 0 
N 91 27 0 
N 30 61 0 
N 55 42 0 
N 61 22 0 
N 55 77 0 
N 51 37 0 
N 94 79 0 
N 30 13 0 
N 59 25 0 
N 40 39 0 
N 9 21 0 
N 22 29 0 
N 96 73 0 
N 15 81 0 
N 53 67 0 
N 87 9 0 
N 4 23 0 
N 71 69 0 
N 99 61 0 
N 71 98 0 
N 6 35 0 
N 73 85 0 
N 69 13 0 
N 6 59 0 
N 77 63 0 
N 87 29 0 
N 43 21 0 
N 61 31 0 
N 43 24 0 
N 5 97 0 
N 3 46 0 
N 19 77 0 
N 39 83 0 
N 35 25 0 
N 55 88 0 
N 5 35 0 
N 27 49 0 
N 72 9 0 
N 62 43 0 
N 95 21 0 
N 75 93 0 
N 92 43 0 
N 2 35 0 
N 6 23 0 
N 35 67 0 
N 5 77 0 
N 19 28 0 
N 83 83 0 
N 63 80 0 
N 98 95 0 
N 16 19 0 
N 91 59 0 
N 90 9 0 
N 72 3 0 
N 69 52 0 
N 95 13 0 
N 67 65 0 
N 11 31 0 
N 44 63 0 
N 61 93 0 
N 45 39 0 
N 89 13 0 
N 91 96 0 
N 54 89 0 
N 69 64 0 
N 69 49 0 
N 29 92 0 
N 22 77 0 
N 27 46 0 
N 75 66 0 
N 19 78 0 
N 85 11 0 
N 45 64 0 
N 49 48 0 
N 12 55 0 
N 1 73 0 
N 67 91 0 
N 24 97 0 
N 33 28 0 
N 55 81 0 
N 45 25 0 
N 55 59 0 
N 13 27 0 
N 75 9 0 
N 5 73 0 
N 3 10 0 
N 31 12 0 
N 95 86 0 
N 4 85 0 
N 70 43 0 
N 13 44 0 
N 69 98 0 
N 17 11 0 
N 15 77 0 
N 33 57 0 
N 83 44 0 
N 95 43 0 
N 87 18 0 
N 12 43 0 
N 73 76 0 
N 75 2 0 
N 55 7 0 
N 84 87 0 
N 48 91 0 
N 97 51 0 
N 43 59 0 
N 98 79 0 
N 64 91 0 
N 95 41 0 
N 93 71 0 
N 27 34 0 
N 6 97 0 
N 47 71 0 
N 21 79 0 
N 98 83 0 
N 5 67 0 
N 3 3 0 
N 13 42 0 
N 91 39 0 
N 41 59 0 
N 90 41 0 
N 19 2 0 
N 36 87 0 
N 35 79 0 
N 72 11 0 
N 91 91 0 
N 98 23 0 
N 47 72 0 
N 7 99 0 
N 75 33 0 
N 23 41 0 
N 18 17 0 
N 69 29 0 
N 43 88 0 
N 94 61 0 
N 53 2 0 
N 80 79 0 
N 81 84 0 
N 70 33 0 
N 17 9 0 
N 85 55 0 
N 45 57 0 
N 1 67 0 
N 5 63 0 
N 98 53 0 
N 67 79 0 
N 93 70 0 
N 19 17 0 
N 21 75 0 
N 1 93 0 
N 67 64 0 
N 21 85 0 
N 59 67 0 
N 97 26 0 
N 67 73 0 
N 96 23 0 
N 47 35 0 
N 96 31 0 
N 77 4 0 
N 62 91 0 
N 65 30 0 
N 47 93 0 
N 61 7 0 
N 35 65 0 
N 65 29 0 
N 61 42 0 
N 94 85 0 
N 93 58 0 
N 27 59 0 
N 24 67 0 
N 17 7 0 
N 98 25 0 
N 29 18 0 
N 11 72 0 
N 63 68 0 
N 59 65 0 
N 89 85 0 
N 23 85 0 
N 3 55 0 
N 87 25 0 
N 99 66 0 
N 61 28 0 
N 22 45 0 
N 96 81 0 
N 75 39 0 
N 92 53 0 
N 77 25 0 
N 97 69 0 
N 87 81 0 
N 59 47 0 
N 43 25 0 
N 88 77 0 
N 69 55 0 
N 79 55 0 
N 27 33 0 
N 71 82 0 
N 3 37 0 
N 27 12 0 
N 75 55 0 
N 18 67 0 
N 95 52 0 
N 8 23 0 
N 55 49 0 
N 21 1 0 
N 32 13 0 
N 21 68 0 
N 16 67 0 
N 14 15 0 
N 81 91 0 
N 51 60 0 
N 39 87 0 
N 21 25 0 
N 13 33 0 
N 15 27 0 
N 78 45 0 
N 59 41 0 
N 53 28 0 
N 19 81 0 
N 13 65 0 
N 3 35 0 
N 97 47 0 
N 12 27 0 
N 43 75 0 
N 95 91 0 
N 55 41 0 
N 75 47 0 
N 87 76 0 
N 60 45 0 
N 89 99 0 
N 19 9 0 
N 37 88 0 
N 11 5 0 
N 41 50 0 
N 59 57 0 
N 5 23 0 
N 31 38 0 
N 51 64 0 
N 4 33 0 
N 57 72 0 
N 17 17 0 
N 37 75 0 
N 72 23 0 
N 27 78 0 
N 63 21 0 
N 89 87 0 
N 43 41 0 
N 90 11 0 
N 90 5 0 
N 49 6 0 
N 39 23 0 
N 61 87 0 
N 63 8 0 
N 45 5 0 
N 29 77 0 
N 41 41 0 
N 17 67 0 
N 17 44 0 
N 91 45 0 
N 77 91 0 
N 5 57 0 
N 25 85 0 
N 15 99 0 
N 51 58 0 
N 57 8 0 
N 69 74 0 
N 8 47 0 
N 71 5 0 
N 23 88 0 
N 97 71 0 
N 37 53 0 
N 41 0 0 
N 11 32 0 
N 33 98 0 
N 33 76 0 
N 29 7 0 
N 68 39 0 
N 3 8 0 
N 49 21 0 
N 71 75 0 
N 3 14 0 
N 93 48 0 
N 25 71 0 
N 38 11 0 
N 67 4 0 
N 63 24 0 
N 95 3 0 
N 52 87 0 
N 13 45 0 
N 48 35 0 
N 88 3 0 
N 93 45 0 
N 67 19 0 
N 91 52 0 
N 41 31 0 
N 17 98 0 
N 9 95 0 
N 78 3 0 
N 81 65 0 
N 38 33 0 
N 29 37 0 
N 55 4 0 
N 80 41 0 
N 11 18 0 
N 15 95 0 
N 90 3 0 
N 51 89 0 
N 79 89 0 
N 57 87 0 
N 77 23 0 
N 67 83 0 
N 13 51 0 
N 97 61 0 
N 15 19 0 
N 46 27 0 
N 49 36 0 
N 34 1 0 
N 28 95 0 
N 44 57 0 
N 80 19 0 
N 63 32 0 
N 41 75 0 
N 39 31 0 
N 33 37 0 
N 1 37 0 
N 75 13 0 
N 51 43 0 
N 93 42 0 
N 99 44 0 
N 27 79 0 
N 67 9 0 
N 38 79 0 
N 63 26 0 
N 29 68 0 
N 43 6 0 
N 56 49 0 
N 93 11 0 
N 57 28 0 
N 75 91 0 
N 29 3 0 
N 5 90 0 
N 45 9 0 
N 32 77 0 
N 32 63 0 
N 57 51 0 
N 65 49 0 
N 36 25 0 
N 83 45 0 
N 13 28 0 
N 85 95 0 
N 95 76 0 
N 53 91 0 
N 71 27 0 
N 95 47 0 
N 3 33 0 
N 53 3 0 
N 60 27 0 
N 80 83 0 
N 56 75 0 
N 81 85 0 
N 5 65 0 
N 5 47 0 
N 33 60 0 
N 21 81 0 
N 79 37 0 
N 34 63 0 
N 79 69 0 
N 90 45 0 
N 47 33 0 
N 72 7 0 
N 59 6 0 
N 89 7 0 
N 12 41 0 
N 92 9 0 
N 57 47 0 
N 12 53 0 
N 28 33 0 
N 71 49 0 
N 94 41 0 
N 95 77 0 
N 91 30 0 
N 17 85 0 
N 49 63 0 
N 95 69 0 
N 79 11 0 
N 41 51 0 
N 13 61 0 
N 79 22 0 
N 7 23 0 
N 23 84 0 
N 35 24 0 
N 79 15 0 
N 33 65 0 
N 69 51 0 
N 93 53 0 
N 85 45 0 
N 1 9 0 
N 54 87 0 
N 81 66 0 
N 63 5 0 
N 9 61 0 
N 31 1 0 
N 19 70 0 
N 19 42 0 
N 20 27 0 
N 71 76 0 
N 73 84 0 
N 22 65 0 
N 20 67 0 
N 62 77 0 
N 95 78 0 
N 98 29 0 
N 70 17 0 
N 69 31 0 
N 64 31 0 
N 40 59 0 
N 95 64 0 
N 77 66 0 
N 2 5 0 
N 38 83 0 
N 61 33 0 
N 14 29 0 
N 21 86 0 
N 29 63 0 
N 14 11 0 
N 4 27 0 
N 82 65 0 
N 55 75 0 
N 19 69 0 
N 45 85 0 
N 9 13 0 
N 11 3 0 
N 37 13 0 
N 87 20 0 
N 42 49 0 
N 3 65 0 
N 37 87 0 
N 41 65 0 
N 35 12 0 
N 51 59 0 
N 95 39 0 
N 89 97 0 
N 65 28 0 
N 58 41 0 
N 79 20 0 
N 21 90 0 
N 99 26 0 
N 75 21 0 
N 88 13 0 
N 38 85 0 
N 51 21 0 
N 39 13 0 
N 32 29 0 
N 37 77 0 
N 50 41 0 
N 5 61 0 
N 73 16 0 
N 34 75 0 
N 96 69 0 
C 0 0 0 
C 2 0 0 
C 4 0 0 
C 6 0 0 
C 8 0 0 
C 10 0 0 
C 12 0 0 
C 14 0 0 
C 16 0 0 
C 18 0 0 
C 20 0 0 
C 22 0 0 
C 24 0 0 
C 26 0 0 
C 28 0 0 
C 30 0 0 
C 32 0 0 
C 34 0 0 
C 36 0 0 
C 38 0 0 
C 40 0 0 
C 42 0 0 
C 44 0 0 
C 46 0 0 
C 48 0 0 
C 50 0 0 
C 52 0 0 
C 54 0 0 
C 56 0 0 
C 58 0 0 
C 60 0 0 
C 62 0 0 
C 64 0 0 
C 66 0 0 
C 68 0 0 
C 70 0 0 
C 72 0 0 
C 74 0 0 
C 76 0 0 
C 78 0 0 
C 80 0 0 
C 82 0 0 
C 84 0 0 
C 86 0 0 
C 88 0 0 
C 90 0 0 
C 92 0 0 
C 94 0 0 
C 96 0 0 
C 98 0 0 
C 100 0 0 
C 0 2 0 
C 2 2 0 
C 4 2 0 
C 6 2 0 
C 8 2 0 
C 10 2 0 
C 12 2 0 
C 14 2 0 
C 16 2 0 
C 18 2 0 
C 20 2 0 
C 22 2 0 
C 24 2 0 
C 26 2 0 
C 28 2 0 
C 30 2 0 
C 32 2 0 
C 34 2 0 
C 36 2 0 
C 38 2 0 
C 40 2 0 
C 42 2 0 
C 44 2 0 
C 46 2 0 
C 48 2 0 
C 50 2 0 
C 52 2 0 
C 54 2 0 
C 56 2 0 
C 58 2 0 
C 60 2 0 
C 62 2 0 
C 64 2 0 
C 66 2 0 
C 68 2 0 
C 70 2 0 
C 72 2 0 
C 74 2 0 
C 76 2 0 
C 78 2 0 
C 80 2 0 
C 82 2 0 
C 84 2 0 
C 86 2 0 
C 88 2 0 
C 90 2 0 
C 92 2 0 
C 94 2 0 
C 96 2 0 
C 98 2 0 
C 100 2 0 
C 0 4 0 
C 2 4 0 
C 4 4 0 
C 6 4 0 
C 8 4 0 
C 10 4 0 
C 12 4 0 
C 14 4 0 
C 16 4 0 
C 18 4 0 
C 20 4 0 
C 22 4 0 
C 24 4 0 
C 26 4 0 
C 28 4 0 
C 30 4 0 
C 32 4 0 
C 34 4 0 
C 36 4 0 
C 38 4 0 
C 40 4 0 
C 42 4 0 
C 44 4 0 
C 46 4 0 
C 48 4 0 
C 50 4 0 
C 52 4 0 
C 54 4 0 
C 56 4 0 
C 58 4 0 
C 60 4 0 
C 62 4 0 
C 64 4 0 
C 66 4 0 
C 68 4 0 
C 70 4 0 
C 72 4 0 
C 74 4 0 
C 76 4 0 
C 78 4 0 
C 80 4 0 
C 82 4 0 
C 84 4 0 
C 86 4 0 
C 88 4 0 
C 90 4 0 
C 92 4 0 
C 94 4 0 
C 96 4 0 
C 98 4 0 
C 100 4 0 
C 0 6 0 
C 2 6 0 
C 4 6 0 
C 6 6 0 
C 8 6 0 
C 10 6 0 
C 12 6 0 
C 14 6 0 
C 16 6 0 
C 18 6 0 
C 20 6 0 
C 22 6 0 
C 24 6 0 
C 26 6 0 
C 28 6 0 
C 30 6 0 
C 32 6 0 
C 34 6 0 
C 36 6 0 
C 38 6 0 
C 40 6 0 
C 42 6 0 
C 44 6 0 
C 46 6 0 
C 48 6 0 
C 50 6 0 
C 52 6 0 
C 54 6 0 
C 56 6 0 
C 58 6 0 
C 60 6 0 
C 62 6 0 
C 64 6 0 
C 66 6 0 
C 68 6 0 
C 70 6 0 
C 72 6 0 
C 74 6 0 
C 76 6 0 
C 78 6 0 
C 80 6 0 
C 82 6 0 
C 84 6 0 
C 86 6 0 
C 88 6 0 
C 90 6 0 
C 92 6 0 
C 94 6 0 
C 96 6 0 
C 98 6 0 
C 100 6 0 
C 0 8 0 
C 2 8 0 
C 4 8 0 
C 6 8 0 
C 8 8 0 
C 10 8 0 
C 12 8 0 
C 14 8 0 
C 16 8 0 
C 18 8 0 
C 20 8 0 
C 22 8 0 
C 24 8 0 
C 26 8 0 
C 28 8 0 
C 30 8 0 
C 32 8 0 
C 34 8 0 
C 36 8 0 
C 38 8 0 
C 40 8 0 
C 42 8 0 
C 44 8 0 
C 46 8 0 
C 48 8 0 
C 50 8 0 
C 52 8 0 
C 54 8 0 
C 56 8 0 
C 58 8 0 
C 60 8 0 
C 62 8 0 
C 64 8 0 
C 66 8 0 
C 68 8 0 
C 70 8 0 
C 72 8 0 
C 74 8 0 
C 76 8 0 
C 78 8 0 
C 80 8 0 
C 82 8 0 
C 84 8 0 
C 86 8 0 
C 88 8 0 
C 90 8 0 
C 92 8 0 
C 94 8 0 
C 96 8 0 
C 98 8 0 
C 100 8 0 
C 0 10 0 
C 2 10 0 
C 4 10 0 
C 6 10 0 
C 8 10 0 
C 10 10 0 
C 12 10 0 
C 14 10 0 
C 16 10 0 
C 18 10 0 
C 20 10 0 
C 22 10 0 
C 24 10 0 
C 26 10 0 
C 28 10 0 
C 30 10 0 
C 32 10 0 
C 34 10 0 
C 36 10 0 
C 38 10 0 
C 40 10 0 
C 42 10 0 
C 44 10 0 
C 46 10 0 
C 48 10 0 
C 50 10 0 
C 52 10 0 
C 54 10 0 
C 56 10 0 
C 58 10 0 
C 60 10 0 
C 62 10 0 
C 64 10 0 
C 66 10 0 
C 68 10 0 
C 70 10 0 
C 72 10 0 
C 74 10 0 
C 76 10 0 
C 78 10 0 
C 80 10 0 
C 82 10 0 
C 84 10 0 
C 86 10 0 
C 88 10 0 
C 90 10 0 
C 92 10 0 
C 94 10 0 
C 96 10 0 
C 98 10 0 
C 100 10 0 
C 0 12 0 
C 2 12 0 
C 4 12 0 
C 6 12 0 
C 8 12 0 
C 10 12 0 
C 12 12 0 
C 14 12 0 
C 16 12 0 
C 18 12 0 
C 20 12 0 
C 22 12 0 
C 24 12 0 
C 26 12 0 
C 28 12 0 
C 30 12 0 
C 32 12 0 
C 34 12 0 
C 36 12 0 
C 38 12 0 
C 40 12 0 
C 42 12 0 
C 44 12 0 
C 46 12 0 
C 48 12 0 
C 50 12 0 
C 52 12 0 
C 54 12 0 
C 56 12 0 
C 58 12 0 
C 60 12 0 
C 62 12 0 
C 64 12 0 
C 66 12 0 
C 68 12 0 
C 70 12 0 
C 72 12 0 
C 74 12 0 
C 76 12 0 
C 78 12 0 
C 80 12 0 
C 82 12 0 
C 84 12 0 
C 86 12 0 
C 88 12 0 
C 90 12 0 
C 92 12 0 
C 94 12 0 
C 96 12 0 
C 98 12 0 
C 100 12 0 
C 0 14 0 
C 2 14 0 
C 4 14 0 
C 6 14 0 
C 8 14 0 
C 10 14 0 
C 12 14 0 
C 14 14 0 
C 16 14 0 
C 18 14 0 
C 20 14 0 
C 22 14 0 
C 24 14 0 
C 26 14 0 
C 28 14 0 
C 30 14 0 
C 32 14 0 
C 34 14 0 
C 36 14 0 
C 38 14 0 
C 40 14 0 
C 42 14 0 
C 44 14 0 
C 46 14 0 
C 48 14 0 
C 50 14 0 
C 52 14 0 
C 54 14 0 
C 56 14 0 
C 58 14 0 
C 60 14 0 
C 62 14 0 
C 64 14 0 
C 66 14 0 
C 68 14 0 
C 70 14 0 
C 72 14 0 
C 74 14 0 
C 76 14 0 
C 78 14 0 
C 80 14 0 
C 82 14 0 
C 84 14 0 
C 86 14 0 
C 88 14 0 
C 90 14 0 
C 92 14 0 
C 94 14 0 
C 96 14 0 
C 98 14 0 
C 100 14 0 
C 0 16 0 
C 2 16 0 
C 4 16 0 
C 6 16 0 
C 8 16 0 
C 10 16 0 
C 12 16 0 
C 14 16 0 
C 16 16 0 
C 18 16 0 
C 20 16 0 
C 22 16 0 
C 24 16 0 
C 26 16 0 
C 28 16 0 
C 30 16 0 
C 32 16 0 
C 34 16 0 
C 36 16 0 
C 38 16 0 
C 40 16 0 
C 42 16 0 
C 44 16 0 
C 46 16 0 
C 48 16 0 
C 50 16 0 
C 52 16 0 
C 54 16 0 
C 56 16 0 
C 58 16 0 
C 60 16 0 
C 62 16 0 
C 64 16 0 
C 66 16 0 
C 68 16 0 
C 70 16 0 
C 72 16 0 
C 74 16 0 
C 76 16 0 
C 78 16 0 
C 80 16 0 
C 82 16 0 
C 84 16 0 
C 86 16 0 
C 88 16 0 
C 90 16 0 
C 92 16 0 
C 94 16 0 
C 96 16 0 
C 98 16 0 
C 100 16 0 
C 0 18 0 
C 2 18 0 
C 4 18 0 
C 6 18 0 
C 8 18 0 
C 10 18 0 
C 12 18 0 
C 14 18 0 
C 16 18 0 
C 18 18 0 
C 20 18 0 
C 22 18 0 
C 24 18 0 
C 26 18 0 
C 28 18 0 
C 30 18 0 
C 32 18 0 
C 34 18 0 
C 36 18 0 
C 38 18 0 
C 40 18 0 
C 42 18 0 
C 44 18 0 
C 46 18 0 
C 48 18 0 
C 50 18 0 
C 52 18 0 
C 54 18 0 
C 56 18 0 
C 58 18 0 
C 60 18 0 
C 62 18 0 
C 64 18 0 
C 66 18 0 
C 68 18 0 
C 70 18 0 
C 72 18 0 
C 74 18 0 
C 76 18 0 
C 78 18 0 
C 80 18 0 
C 82 18 0 
C 84 18 0 
C 86 18 0 
C 88 18 0 
C 90 18 0 
C 92 18 0 
C 94 18 0 
C 96 18 0 
C 98 18 0 
C 100 18 0 
C 0 20 0 
C 2 20 0 
C 4 20 0 
C 6 20 0 
C 8 20 0 
C 10 20 0 
C 12 20 0 
C 14 20 0 
C 16 20 0 
C 18 20 0 
C 20 20 0 
C 22 20 0 
C 24 20 0 
C 26 20 0 
C 28 20 0 
C 30 20 0 
C 32 20 0 
C 34 20 0 
C 36 20 0 
C 38 20 0 
C 40 20 0 
C 42 20 0 
C 44 20 0 
C 46 20 0 
C 48 20 0 
C 50 20 0 
C 52 20 0 
C 54 20 0 
C 56 20 0 
C 58 20 0 
C 60 20 0 
C 62 20 0 
C 64 20 0 
C 66 20 0 
C 68 20 0 
C 70 20 0 
C 72 20 0 
C 74 20 0 
C 76 20 0 
C 78 20 0 
C 80 20 0 
C 82 20 0 
C 84 20 0 
C 86 20 0 
C 88 20 0 
C 90 20 0 
C 92 20 0 
C 94 20 0 
C 96 20 0 
C 98 20 0 
C 100 20 0 
C 0 22 0 
C 2 22 0 
C 4 22 0 
C 6 22 0 
C 8 22 0 
C 10 22 0 
C 12 22 0 
C 14 22 0 
C 16 22 0 
C 18 22 0 
C 20 22 0 
C 22 22 0 
C 24 22 0 
C 26 22 0 
C 28 22 0 
C 30 22 0 
C 32 22 0 
C 34 22 0 
C 36 22 0 
C 38 22 0 
C 40 22 0 
C 42 22 0 
C 44 22 0 
C 46 22 0 
C 48 22 0 
C 50 22 0 
C 52 22 0 
C 54 22 0 
C 56 22 0 
C 58 22 0 
C 60 22 0 
C 62 22 0 
C 64 22 0 
C 66 22 0 
C 68 22 0 
C 70 22 0 
C 72 22 0 
C 74 22 0 
C 76 22 0 
C 78 22 0 
C 80 22 0 
C 82 22 0 
C 84 22 0 
C 86 22 0 
C 88 22 0 
C 90 22 0 
C 92 22 0 
C 94 22 0 
C 96 22 0 
C 98 22 0 
C 100 22 0 
C 0 24 0 
C 2 24 0 
C 4 24 0 
C 6 24 0 
C 8 24 0 
C 10 24 0 
C 12 24 0 
C 14 24 0 
C 16 24 0 
C 18 24 0 
C 20 24 0 
C 22 24 0 
C 24 24 0 
C 26 24 0 
C 28 24 0 
C 30 24 0 
C 32 24 0 
C 34 24 0 
C 36 24 0 
C 38 24 0 
C 40 24 0 
C 42 24 0 
C 44 24 0 
C 46 24 0 
C 48 24 0 
C 50 24 0 
C 52 24 0 
C 54 24 0 
C 56 24 0 
C 58 24 0 
C 60 24 0 
C 62 24 0 
C 64 24 0 
C 66 24 0 
C 68 24 0 
C 70 24 0 
C 72 24 0 
C 74 24 0 
C 76 24 0 
C 78 24 0 
C 80 24 0 
C 82 24 0 
C 84 24 0 
C 86 24 0 
C 88 24 0 
C 90 24 0 
C 92 24 0 
C 94 24 0 
C 96 24 0 
C 98 24 0 
C 100 24 0 
C 0 26 0 
C 2 26 0 
C 4 26 0 
C 6 26 0 
C 8 26 0 
C 10 26 0 
C 12 26 0 
C 14 26 0 
C 16 26 0 
C 18 26 0 
C 20 26 0 
C 22 26 0 
C 24 26 0 
C 26 26 0 
C 28 26 0 
C 30 26 0 
C 32 26 0 
C 34 26 0 
C 36 26 0 
C 38 26 0 
C 40 26 0 
C 42 26 0 
C 44 26 0 
C 46 26 0 
C 48 26 0 
C 50 26 0 
C 52 26 0 
C 54 26 0 
C 56 26 0 
C 58 26 0 
C 60 26 0 
C 62 26 0 
C 64 26 0 
C 66 26 0 
C 68 26 0 
C 70 26 0 
C 72 26 0 
C 74 26 0 
C 76 26 0 
C 78 26 0 
C 80 26 0 
C 82 26 0 
C 84 26 0 
C 86 26 0 
C 88 26 0 
C 90 26 0 
C 92 26 0 
C 94 26 0 
C 96 26 0 
C 98 26 0 
C 100 26 0 
C 0 28 0 
C 2 28 0 
C 4 28 0 
C 6 28 0 
C 8 28 0 
C 10 28 0 
C 12 28 0 
C 14 28 0 
C 16 28 0 
C 18 28 0 
C 20 28 0 
C 22 28 0 
C 24 28 0 
C 26 28 0 
C 28 28 0 
C 30 28 0 
C 32 28 0 
C 34 28 0 
C 36 28 0 
C 38 28 0 
C 40 28 0 
C 42 28 0 
C 44 28 0 
C 46 28 0 
C 48 28 0 
C 50 28 0 
C 52 28 0 
C 54 28 0 
C 56 28 0 
C 58 28 0 
C 60 28 0 
C 62 28 0 
C 64 28 0 
C 66 28 0 
C 68 28 0 
C 70 28 0 
C 72 28 0 
C 74 28 0 
C 76 28 0 
C 78 28 0 
C 80 28 0 
C 82 28 0 
C 84 28 0 
C 86 28 0 
C 88 28 0 
C 90 28 0 
C 92 28 0 
C 94 28 0 
C 96 28 0 
C 98 28 0 
C 100 28 0 
C 0 30 0 
C 2 30 0 
C 4 30 0 
C 6 30 0 
C 8 30 0 
C 10 30 0 
C 12 30 0 
C 14 30 0 
C 16 30 0 
C 18 30 0 
C 20 30 0 
C 22 30 0 
C 24 30 0 
C 26 30 0 
C 28 30 0 
C 30 30 0 
C 32 30 0 
C 34 30 0 
C 36 30 0 
C 38 30 0 
C 40 30 0 
C 42 30 0 
C 44 30 0 
C 46 30 0 
C 48 30 0 
C 50 30 0 
C 52 30 0 
C 54 30 0 
C 56 30 0 
C 58 30 0 
C 60 30 0 
C 62 30 0 
C 64 30 0 
C 66 30 0 
C 68 30 0 
C 70 30 0 
C 72 30 0 
C 74 30 0 
C 76 30 0 
C 78 30 0 
C 80 30 0 
C 82 30 0 
C 84 30 0 
C 86 30 0 
C 88 30 0 
C 90 30 0 
C 92 30 0 
C 94 30 0 
C 96 30 0 
C 98 30 0 
C 100 30 0 
C 0 32 0 
C 2 32 0 
C 4 32 0 
C 6 32 0 
C 8 32 0 
C 10 32 0 
C 12 32 0 
C 14 32 0 
C 16 32 0 
C 18 32 0 
C 20 32 0 
C 22 32 0 
C 24 32 0 
C 26 32 0 
C 28 32 0 
C 30 32 0 
C 32 32 0 
C 34 32 0 
C 36 32 0 
C 38 32 0 
C 40 32 0 
C 42 32 0 
C 44 32 0 
C 46 32 0 
C 48 32 0 
C 50 32 0 
C 52 32 0 
C 54 32 0 
C 56 32 0 
C 58 32 0 
C 60 32 0 
C 62 32 0 
C 64 32 0 
C 66 32 0 
C 68 32 0 
C 70 32 0 
C 72 32 0 
C 74 32 0 
C 76 32 0 
C 78 32 0 
C 80 32 0 
C 82 32 0 
C 84 32 0 
C 86 32 0 
C 88 32 0 
C 90 32 0 
C 92 32 0 
C 94 32 0 
C 96 32 0 
C 98 32 0 
C 100 32 0 
C 0 34 0 
C 2 34 0 
C 4 34 0 
C 6 34 0 
C 8 34 0 
C 10 34 0 
C 12 34 0 
C 14 34 0 
C 16 34 0 
C 18 34 0 
C 20 34 0 
C 22 34 0 
C 24 34 0 
C 26 34 0 
C 28 34 0 
C 30 34 0 
C 32 34 0 
C 34 34 0 
C 36 34 0 
C 38 34 0 
C 40 34 0 
C 42 34 0 
C 44 34 0 
C 46 34 0 
C 48 34 0 
C 50 34 0 
C 52 34 0 
C 54 34 0 
C 56 34 0 
C 58 34 0 
C 60 34 0 
C 62 34 0 
C 64 34 0 
C 66 34 0 
C 68 34 0 
C 70 34 0 
C 72 34 0 
C 74 34 0 
C 76 34 0 
C 78 34 0 
C 80 34 0 
C 82 34 0 
C 84 34 0 
C 86 34 0 
C 88 34 0 
C 90 34 0 
C 92 34 0 
C 94 34 0 
C 96 34 0 
C 98 34 0 
C 100 34 0 
C 0 36 0 
C 2 36 0 
C 4 36 0 
C 6 36 0 
C 8 36 0 
C 10 36 0 
C 12 36 0 
C 14 36 0 
C 16 36 0 
C 18 36 0 
C 20 36 0 
C 22 36 0 
C 24 36 0 
C 26 36 0 
C 28 36 0 
C 30 36 0 
C 32 36 0 
C 34 36 0 
C 36 36 0 
C 38 36 0 
C 40 36 0 
C 42 36 0 
C 44 36 0 
C 46 36 0 
C 48 36 0 
C 50 36 0 
C 52 36 0 
C 54 36 0 
C 56 36 0 
C 58 36 0 
C 60 36 0 
C 62 36 0 
C 64 36 0 
C 66 36 0 
C 68 36 0 
C 70 36 0 
C 72 36 0 
C 74 36 0 
C 76 36 0 
C 78 36 0 
C 80 36 0 
C 82 36 0 
C 84 36 0 
C 86 36 0 
C 88 36 0 
C 90 36 0 
C 92 36 0 
C 94 36 0 
C 96 36 0 
C 98 36 0 
C 100 36 0 
C 0 38 0 
C 2 38 0 
C 4 38 0 
C 6 38 0 
C 8 38 0 
C 10 38 0 
C 12 38 0 
C 14 38 0 
C 16 38 0 
C 18 38 0 
C 20 38 0 
C 22 38 0 
C 24 38 0 
C 26 38 0 
C 28 38 0 
C 30 38 0 
C 32 38 0 
C 34 38 0 
C 36 38 0 
C 38 38 0 
C 40 38 0 
C 42 38 0 
C 44 38 0 
C 46 38 0 
C 48 38 0 
C 50 38 0 
C 52 38 0 
C 54 38 0 
C 56 38 0 
C 58 38 0 
C 60 38 0 
C 62 38 0 
C 64 38 0 
C 66 38 0 
C 68 38 0 
C 70 38 0 
C 72 38 0 
C 74 38 0 
C 76 38 0 
C 78 38 0 
C 80 38 0 
C 82 38 0 
C 84 38 0 
C 86 38 0 
C 88 38 0 
C 90 38 0 
C 92 38 0 
C 94 38 0 
C 96 38 0 
C 98 38 0 
C 100 38 0 
C 0 40 0 
C 2 40 0 
C 4 40 0 
C 6 40 0 
C 8 40 0 
C 10 40 0 
C 12 40 0 
C 14 40 0 
C 16 40 0 
C 18 40 0 
C 20 40 0 
C 22 40 0 
C 24 40 0 
C 26 40 0 
C 28 40 0 
C 30 40 0 
C 32 40 0 
C 34 40 0 
C 36 40 0 
C 38 40 0 
C 40 40 0 
C 42 40 0 
C 44 40 0 
C 46 40 0 
C 48 40 0 
C 50 40 0 
C 52 40 0 
C 54 40 0 
C 56 40 0 
C 58 40 0 
C 60 40 0 
C 62 40 0 
C 64 40 0 
C 66 40 0 
C 68 40 0 
C 70 40 0 
C 72 40 0 
C 74 40 0 
C 76 40 0 
C 78 40 0 
C 80 40 0 
C 82 40 0 
C 84 40 0 
C 86 40 0 
C 88 40 0 
C 90 40 0 
C 92 40 0 
C 94 40 0 
C 96 40 0 
C 98 40 0 
C 100 40 0 
C 0 42 0 
C 2 42 0 
C 4 42 0 
C 6 42 0 
C 8 42 0 
C 10 42 0 
C 12 42 0 
C 14 42 0 
C 16 42 0 
C 18 42 0 
C 20 42 0 
C 22 42 0 
C 24 42 0 
C 26 42 0 
C 28 42 0 
C 30 42 0 
C 32 42 0 
C 34 42 0 
C 36 42 0 
C 38 42 0 
C 40 42 0 
C 42 42 0 
C 44 42 0 
C 46 42 0 
C 48 42 0 
C 50 42 0 
C 52 42 0 
C 54 42 0 
C 56 42 0 
C 58 42 0 
C 60 42 0 
C 62 42 0 
C 64 42 0 
C 66 42 0 
C 68 42 0 
C 70 42 0 
C 72 42 0 
C 74 42 0 
C 76 42 0 
C 78 42 0 
C 80 42 0 
C 82 42 0 
C 84 42 0 
C 86 42 0 
C 88 42 0 
C 90 42 0 
C 92 42 0 
C 94 42 0 
C 96 42 0 
C 98 42 0 
C 100 42 0 
C 0 44 0 
C 2 44 0 
C 4 44 0 
C 6 44 0 
C 8 44 0 
C 10 44 0 
C 12 44 0 
C 14 44 0 
C 16 44 0 
C 18 44 0 
C 20 44 0 
C 22 44 0 
C 24 44 0 
C 26 44 0 
C 28 44 0 
C 30 44 0 
C 32 44 0 
C 34 44 0 
C 36 44 0 
C 38 44 0 
C 40 44 0 
C 42 44 0 
C 44 44 0 
C 46 44 0 
C 48 44 0 
C 50 44 0 
C 52 44 0 
C 54 44 0 
C 56 44 0 
C 58 44 0 
C 60 44 0 
C 62 44 0 
C 64 44 0 
C 66 44 0 
C 68 44 0 
C 70 44 0 
C 72 44 0 
C 74 44 0 
C 76 44 0 
C 78 44 0 
C 80 44 0 
C 82 44 0 
C 84 44 0 
C 86 44 0 
C 88 44 0 
C 90 44 0 
C 92 44 0 
C 94 44 0 
C 96 44 0 
C 98 44 0 
C 100 44 0 
C 0 46 0 
C 2 46 0 
C 4 46 0 
C 6 46 0 
C 8 46 0 
C 10 46 0 
C 12 46 0 
C 14 46 0 
C 16 46 0 
C 18 46 0 
C 20 46 0 
C 22 46 0 
C 24 46 0 
C 26 46 0 
C 28 46 0 
C 30 46 0 
C 32 46 0 
C 34 46 0 
C 36 46 0 
C 38 46 0 
C 40 46 0 
C 42 46 0 
C 44 46 0 
C 46 46 0 
C 48 46 0 
C 50 46 0 
C 52 46 0 
C 54 46 0 
C 56 46 0 
C 58 46 0 
C 60 46 0 
C 62 46 0 
C 64 46 0 
C 66 46 0 
C 68 46 0 
C 70 46 0 
C 72 46 0 
C 74 46 0 
C 76 46 0 
C 78 46 0 
C 80 46 0 
C 82 46 0 
C 84 46 0 
C 86 46 0 
C 88 46 0 
C 90 46 0 
C 92 46 0 
C 94 46 0 
C 96 46 0 
C 98 46 0 
C 100 46 0 
C 0 48 0 
C 2 48 0 
C 4 48 0 
C 6 48 0 
C 8 48 0 
C 10 48 0 
C 12 48 0 
C 14 48 0 
C 16 48 0 
C 18 48 0 
C 20 48 0 
C 22 48 0 
C 24 48 0 
C 26 48 0 
C 28 48 0 
C 30 48 0 
C 32 48 0 
C 34 48 0 
C 36 48 0 
C 38 48 0 
C 40 48 0 
C 42 48 0 
C 44 48 0 
C 46 48 0 
C 48 48 0 
C 50 48 0 
C 52 48 0 
C 54 48 0 
C 56 48 0 
C 58 48 0 
C 60 48 0 
C 62 48 0 
C 64 48 0 
C 66 48 0 
C 68 48 0 
C 70 48 0 
C 72 48 0 
C 74 48 0 
C 76 48 0 
C 78 48 0 
C 80 48 0 
C 82 48 0 
C 84 48 0 
C 86 48 0 
C 88 48 0 
C 90 48 0 
C 92 48 0 
C 94 48 0 
C 96 48 0 
C 98 48 0 
C 100 48 0 
C 0 50 0 
C 2 50 0 
C 4 50 0 
C 6 50 0 
C 8 50 0 
C 10 50 0 
C 12 50 0 
C 14 50 0 
C 16 50 0 
C 18 50 0 
C 20 50 0 
C 22 50 0 
C 24 50 0 
C 26 50 0 
C 28 50 0 
C 30 50 0 
C 32 50 0 
C 34 50 0 
C 36 50 0 
C 38 50 0 
C 40 50 0 
C 42 50 0 
C 44 50 0 
C 46 50 0 
C 48 50 0 
C 50 50 0 
C 52 50 0 
C 54 50 0 
C 56 50 0 
C 58 50 0 
C 60 50 0 
C 62 50 0 
C 64 50 0 
C 66 50 0 
C 68 50 0 
C 70 50 0 
C 72 50 0 
C 74 50 0 
C 76 50 0 
C 78 50 0 
C 80 50 0 
C 82 50 0 
C 84 50 0 
C 86 50 0 
C 88 50 0 
C 90 50 0 
C 92 50 0 
C 94 50 0 
C 96 50 0 
C 98 50 0 
C 100 50 0 
C 0 52 0 
C 2 52 0 
C 4 52 0 
C 6 52 0 
C 8 52 0 
C 10 52 0 
C 12 52 0 
C 14 52 0 
C 16 52 0 
C 18 52 0 
C 20 52 0 
C 22 52 0 
C 24 52 0 
C 26 52 0 
C 28 52 0 
C 30 52 0 
C 32 52 0 
C 34 52 0 
C 36 52 0 
C 38 52 0 
C 40 52 0 
C 42 52 0 
C 44 52 0 
C 46 52 0 
C 48 52 0 
C 50 52 0 
C 52 52 0 
C 54 52 0 
C 56 52 0 
C 58 52 0 
C 60 52 0 
C 62 52 0 
C 64 52 0 
C 66 52 0 
C 68 52 0 
C 70 52 0 
C 72 52 0 
C 74 52 0 
C 76 52 0 
C 78 52 0 
C 80 52 0 
C 82 52 0 
C 84 52 0 
C 86 52 0 
C 88 52 0 
C 90 52 0 
C 92 52 0 
C 94 52 0 
C 96 52 0 
C 98 52 0 
C 100 52 0 
C 0 54 0 
C 2 54 0 
C 4 54 0 
C 6 54 0 
C 8 54 0 
C 10 54 0 
C 12 54 0 
C 14 54 0 
C 16 54 0 
C 18 54 0 
C 20 54 0 
C 22 54 0 
C 24 54 0 
C 26 54 0 
C 28 54 0 
C 30 54 0 
C 32 54 0 
C 34 54 0 
C 36 54 0 
C 38 54 0 
C 40 54 0 
C 42 54 0 
C 44 54 0 
C 46 54 0 
C 48 54 0 
C 50 54 0 
C 52 54 0 
C 54 54 0 
C 56 54 0 
C 58 54 0 
C 60 54 0 
C 62 54 0 
C 64 54 0 
C 66 54 0 
C 68 54 0 
C 70 54 0 
C 72 54 0 
C 74 54 0 
C 76 54 0 
C 78 54 0 
C 80 54 0 
C 82 54 0 
C 84 54 0 
C 86 54 0 
C 88 54 0 
C 90 54 0 
C 92 54 0 
C 94 54 0 
C 96 54 0 
C 98 54 0 
C 100 54 0 
C 0 56 0 
C 2 56 0 
C 4 56 0 
C 6 56 0 
C 8 56 0 
C 10 56 0 
C 12 56 0 
C 14 56 0 
C 16 56 0 
C 18 56 0 
C 20 56 0 
C 22 56 0 
C 24 56 0 
C 26 56 0 
C 28 56 0 
C 30 56 0 
C 32 56 0 
C 34 56 0 
C 36 56 0 
C 38 56 0 
C 40 56 0 
C 42 56 0 
C 44 56 0 
C 46 56 0 
C 48 56 0 
C 50 56 0 
C 52 56 0 
C 54 56 0 
C 56 56 0 
C 58 56 0 
C 60 56 0 
C 62 56 0 
C 64 56 0 
C 66 56 0 
C 68 56 0 
C 70 56 0 
C 72 56 0 
C 74 56 0 
C 76 56 0 
C 78 56 0 
C 80 56 0 
C 82 56 0 
C 84 56 0 
C 86 56 0 
C 88 56 0 
C 90 56 0 
C 92 56 0 
C 94 56 0 
C 96 56 0 
C 98 56 0 
C 100 56 0 
C 0 58 0 
C 2 58 0 
C 4 58 0 
C 6 58 0 
C 8 58 0 
C 10 58 0 
C 12 58 0 
C 14 58 0 
C 16 58 0 
C 18 58 0 
C 20 58 0 
C 22 58 0 
C 24 58 0 
C 26 58 0 
C 28 58 0 
C 30 58 0 
C 32 58 0 
C 34 58 0 
C 36 58 0 
C 38 58 0 
C 40 58 0 
C 42 58 0 
C 44 58 0 
C 46 58 0 
C 48 58 0 
C 50 58 0 
C 52 58 0 
C 54 58 0 
C 56 58 0 
C 58 58 0 
C 60 58 0 
C 62 58 0 
C 64 58 0 
C 66 58 0 
C 68 58 0 
C 70 58 0 
C 72 58 0 
C 74 58 0 
C 76 58 0 
C 78 58 0 
C 80 58 0 
C 82 58 0 
C 84 58 0 
C 86 58 0 
C 88 58 0 
C 90 58 0 
C 92 58 0 
C 94 58 0 
C 96 58 0 
C 98 58 0 
C 100 58 0 
C 0 60 0 
C 2 60 0 
C 4 60 0 
C 6 60 0 
C 8 60 0 
C 10 60 0 
C 12 60 0 
C 14 60 0 
C 16 60 0 
C 18 60 0 
C 20 60 0 
C 22 60 0 
C 24 60 0 
C 26 60 0 
C 28 60 0 
C 30 60 0 
C 32 60 0 
C 34 60 0 
C 36 60 0 
C 38 60 0 
C 40 60 0 
C 42 60 0 
C 44 60 0 
C 46 60 0 
C 48 60 0 
C 50 60 0 
C 52 60 0 
C 54 60 0 
C 56 60 0 
C 58 60 0 
C 60 60 0 
C 62 60 0 
C 64 60 0 
C 66 60 0 
C 68 60 0 
C 70 60 0 
C 72 60 0 
C 74 60 0 
C 76 60 0 
C 78 60 0 
C 80 60 0 
C 82 60 0 
C 84 60 0 
C 86 60 0 
C 88 60 0 
C 90 60 0 
C 92 60 0 
C 94 60 0 
C 96 60 0 
C 98 60 0 
C 100 60 0 
C 0 62 0 
C 2 62 0 
C 4 62 0 
C 6 62 0 
C 8 62 0 
C 10 62 0 
C 12 62 0 
C 14 62 0 
C 16 62 0 
C 18 62 0 
C 20 62 0 
C 22 62 0 
C 24 62 0 
C 26 62 0 
C 28 62 0 
C 30 62 0 
C 32 62 0 
C 34 62 0 
C 36 62 0 
C 38 62 0 
C 40 62 0 
C 42 62 0 
C 44 62 0 
C 46 62 0 
C 48 62 0 
C 50 62 0 
C 52 62 0 
C 54 62 0 
C 56 62 0 
C 58 62 0 
C 60 62 0 
C 62 62 0 
C 64 62 0 
C 66 62 0 
C 68 62 0 
C 70 62 0 
C 72 62 0 
C 74 62 0 
C 76 62 0 
C 78 62 0 
C 80 62 0 
C 82 62 0 
C 84 62 0 
C 86 62 0 
C 88 62 0 
C 90 62 0 
C 92 62 0 
C 94 62 0 
C 96 62 0 
C 98 62 0 
C 100 62 0 
C 0 64 0 
C 2 64 0 
C 4 64 0 
C 6 64 0 
C 8 64 0 
C 10 64 0 
C 12 64 0 
C 14 64 0 
C 16 64 0 
C 18 64 0 
C 20 64 0 
C 22 64 0 
C 24 64 0 
C 26 64 0 
C 28 64 0 
C 30 64 0 
C 32 64 0 
C 34 64 0 
C 36 64 0 
C 38 64 0 
C 40 64 0 
C 42 64 0 
C 44 64 0 
C 46 64 0 
C 48 64 0 
C 50 64 0 
C 52 64 0 
C 54 64 0 
C 56 64 0 
C 58 64 0 
C 60 64 0 
C 62 64 0 
C 64 64 0 
C 66 64 0 
C 68 64 0 
C 70 64 0 
C 72 64 0 
C 74 64 0 
C 76 64 0 
C 78 64 0 
C 80 64 0 
C 82 64 0 
C 84 64 0 
C 86 64 0 
C 88 64 0 
C 90 64 0 
C 92 64 0 
C 94 64 0 
C 96 64 0 
C 98 64 0 
C 100 64 0 
C 0 66 0 
C 2 66 0 
C 4 66 0 
C 6 66 0 
C 8 66 0 
C 10 66 0 
C 12 66 0 
C 14 66 0 
C 16 66 0 
C 18 66 0 
C 20 66 0 
C 22 66 0 
C 24 66 0 
C 26 66 0 
C 28 66 0 
C 30 66 0 
C 32 66 0 
C 34 66 0 
C 36 66 0 
C 38 66 0 
C 40 66 0 
C 42 66 0 
C 44 66 0 
C 46 66 0 
C 48 66 0 
C 50 66 0 
C 52 66 0 
C 54 66 0 
C 56 66 0 
C 58 66 0 
C 60 66 0 
C 62 66 0 
C 64 66 0 
C 66 66 0 
C 68 66 0 
C 70 66 0 
C 72 66 0 
C 74 66 0 
C 76 66 0 
C 78 66 0 
C 80 66 0 
C 82 66 0 
C 84 66 0 
C 86 66 0 
C 88 66 0 
C 90 66 0 
C 92 66 0 
C 94 66 0 
C 96 66 0 
C 98 66 0 
C 100 66 0 
C 0 68 0 
C 2 68 0 
C 4 68 0 
C 6 68 0 
C 8 68 0 
C 10 68 0 
C 12 68 0 
C 14 68 0 
C 16 68 0 
C 18 68 0 
C 20 68 0 
C 22 68 0 
C 24 68 0 
C 26 68 0 
C 28 68 0 
C 30 68 0 
C 32 68 0 
C 34 68 0 
C 36 68 0 
C 38 68 0 
C 40 68 0 
C 42 68 0 
C 44 68 0 
C 46 68 0 
C 48 68 0 
C 50 68 0 
C 52 68 0 
C 54 68 0 
C 56 68 0 
C 58 68 0 
C 60 68 0 
C 62 68 0 
C 64 68 0 
C 66 68 0 
C 68 68 0 
C 70 68 0 
C 72 68 0 
C 74 68 0 
C 76 68 0 
C 78 68 0 
C 80 68 0 
C 82 68 0 
C 84 68 0 
C 86 68 0 
C 88 68 0 
C 90 68 0 
C 92 68 0 
C 94 68 0 
C 96 68 0 
C 98 68 0 
C 100 68 0 
C 0 70 0 
C 2 70 0 
C 4 70 0 
C 6 70 0 
C 8 70 0 
C 10 70 0 
C 12 70 0 
C 14 70 0 
C 16 70 0 
C 18 70 0 
C 20 70 0 
C 22 70 0 
C 24 70 0 
C 26 70 0 
C 28 70 0 
C 30 70 0 
C 32 70 0 
C 34 70 0 
C 36 70 0 
C 38 70 0 
C 40 70 0 
C 42 70 0 
C 44 70 0 
C 46 70 0 
C 48 70 0 
C 50 70 0 
C 52 70 0 
C 54 70 0 
C 56 70 0 
C 58 70 0 
C 60 70 0 
C 62 70 0 
C 64 70 0 
C 66 70 0 
C 68 70 0 
C 70 70 0 
C 72 70 0 
C 74 70 0 
C 76 70 0 
C 78 70 0 
C 80 70 0 
C 82 70 0 
C 84 70 0 
C 86 70 0 
C 88 70 0 
C 90 70 0 
C 92 70 0 
C 94 70 0 
C 96 70 0 
C 98 70 0 
C 100 70 0 
C 0 72 0 
C 2 72 0 
C 4 72 0 
C 6 72 0 
C 8 72 0 
C 10 72 0 
C 12 72 0 
C 14 72 0 
C 16 72 0 
C 18 72 0 
C 20 72 0 
C 22 72 0 
C 24 72 0 
C 26 72 0 
C 28 72 0 
C 30 72 0 
C 32 72 0 
C 34 72 0 
C 36 72 0 
C 38 72 0 
C 40 72 0 
C 42 72 0 
C 44 72 0 
C 46 72 0 
C 48 72 0 
C 50 72 0 
C 52 72 0 
C 54 72 0 
C 56 72 0 
C 58 72 0 
C 60 72 0 
C 62 72 0 
C 64 72 0 
C 66 72 0 
C 68 72 0 
C 70 72 0 
C 72 72 0 
C 74 72 0 
C 76 72 0 
C 78 72 0 
C 80 72 0 
C 82 72 0 
C 84 72 0 
C 86 72 0 
C 88 72 0 
C 90 72 0 
C 92 72 0 
C 94 72 0 
C 96 72 0 
C 98 72 0 
C 100 72 0 
C 0 74 0 
C 2 74 0 
C 4 74 0 
C 6 74 0 
C 8 74 0 
C 10 74 0 
C 12 74 0 
C 14 74 0 
C 16 74 0 
C 18 74 0 
C 20 74 0 
C 22 74 0 
C 24 74 0 
C 26 74 0 
C 28 74 0 
C 30 74 0 
C 32 74 0 
C 34 74 0 
C 36 74 0 
C 38 74 0 
C 40 74 0 
C 42 74 0 
C 44 74 0 
C 46 74 0 
C 48 74 0 
C 50 74 0 
C 52 74 0 
C 54 74 0 
C 56 74 0 
C 58 74 0 
C 60 74 0 
C 62 74 0 
C 64 74 0 
C 66 74 0 
C 68 74 0 
C 70 74 0 
C 72 74 0 
C 74 74 0 
C 76 74 0 
C 78 74 0 
C 80 74 0 
C 82 74 0 
C 84 74 0 
C 86 74 0 
C 88 74 0 
C 90 74 0 
C 92 74 0 
C 94 74 0 
C 96 74 0 
C 98 74 0 
C 100 74 0 
C 0 76 0 
C 2 76 0 
C 4 76 0 
C 6 76 0 
C 8 76 0 
C 10 76 0 
C 12 76 0 
C 14 76 0 
C 16 76 0 
C 18 76 0 
C 20 76 0 
C 22 76 0 
C 24 76 0 
C 26 76 0 
C 28 76 0 
C 30 76 0 
C 32 76 0 
C 34 76 0 
C 36 76 0 
C 38 76 0 
C 40 76 0 
C 42 76 0 
C 44 76 0 
C 46 76 0 
C 48 76 0 
C 50 76 0 
C 52 76 0 
C 54 76 0 
C 56 76 0 
C 58 76 0 
C 60 76 0 
C 62 76 0 
C 64 76 0 
C 66 76 0 
C 68 76 0 
C 70 76 0 
C 72 76 0 
C 74 76 0 
C 76 76 0 
C 78 76 0 
C 80 76 0 
C 82 76 0 
C 84 76 0 
C 86 76 0 
C 88 76 0 
C 90 76 0 
C 92 76 0 
C 94 76 0 
C 96 76 0 
C 98 76 0 
C 100 76 0 
C 0 78 0 
C 2 78 0 
C 4 78 0 
C 6 78 0 
C 8 78 0 
C 10 78 0 
C 12 78 0 
C 14 78 0 
C 16 78 0 
C 18 78 0 
C 20 78 0 
C 22 78 0 
C 24 78 0 
C 26 78 0 
C 28 78 0 
C 30 78 0 
C 32 78 0 
C 34 78 0 
C 36 78 0 
C 38 78 0 
C 40 78 0 
C 42 78 0 
C 44 78 0 
C 46 78 0 
C 48 78 0 
C 50 78 0 
C 52 78 0 
C 54 78 0 
C 56 78 0 
C 58 78 0 
C 60 78 0 
C 62 78 0 
C 64 78 0 
C 66 78 0 
C 68 78 0 
C 70 78 0 
C 72 78 0 
C 74 78 0 
C 76 78 0 
C 78 78 0 
C 80 78 0 
C 82 78 0 
C 84 78 0 
C 86 78 0 
C 88 78 0 
C 90 78 0 
C 92 78 0 
C 94 78 0 
C 96 78 0 
C 98 78 0 
C 100 78 0 
C 0 80 0 
C 2 80 0 
C 4 80 0 
C 6 80 0 
C 8 80 0 
C 10 80 0 
C 12 80 0 
C 14 80 0 
C 16 80 0 
C 18 80 0 
C 20 80 0 
C 22 80 0 
C 24 80 0 
C 26 80 0 
C 28 80 0 
C 30 80 0 
C 32 80 0 
C 34 80 0 
C 36 80 0 
C 38 80 0 
C 40 80 0 
C 42 80 0 
C 44 80 0 
C 46 80 0 
C 48 80 0 
C 50 80 0 
C 52 80 0 
C 54 80 0 
C 56 80 0 
C 58 80 0 
C 60 80 0 
C 62 80 0 
C 64 80 0 
C 66 80 0 
C 68 80 0 
C 70 80 0 
C 72 80 0 
C 74 80 0 
C 76 80 0 
C 78 80 0 
C 80 80 0 
C 82 80 0 
C 84 80 0 
C 86 80 0 
C 88 80 0 
C 90 80 0 
C 92 80 0 
C 94 80 0 
C 96 80 0 
C 98 80 0 
C 100 80 0 
C 0 82 0 
C 2 82 0 
C 4 82 0 
C 6 82 0 
C 8 82 0 
C 10 82 0 
C 12 82 0 
C 14 82 0 
C 16 82 0 
C 18 82 0 
C 20 82 0 
C 22 82 0 
C 24 82 0 
C 26 82 0 
C 28 82 0 
C 30 82 0 
C 32 82 0 
C 34 82 0 
C 36 82 0 
C 38 82 0 
C 40 82 0 
C 42 82 0 
C 44 82 0 
C 46 82 0 
C 48 82 0 
C 50 82 0 
C 52 82 0 
C 54 82 0 
C 56 82 0 
C 58 82 0 
C 60 82 0 
C 62 82 0 
C 64 82 0 
C 66 82 0 
C 68 82 0 
C 70 82 0 
C 72 82 0 
C 74 82 0 
C 76 82 0 
C 78 82 0 
C 80 82 0 
C 82 82 0 
C 84 82 0 
C 86 82 0 
C 88 82 0 
C 90 82 0 
C 92 82 0 
C 94 82 0 
C 96 82 0 
C 98 82 0 
C 100 82 0 
C 0 84 0 
C 2 84 0 
C 4 84 0 
C 6 84 0 
C 8 84 0 
C 10 84 0 
C 12 84 0 
C 14 84 0 
C 16 84 0 
C 18 84 0 
C 20 84 0 
C 22 84 0 
C 24 84 0 
C 26 84 0 
C 28 84 0 
C 30 84 0 
C 32 84 0 
C 34 84 0 
C 36 84 0 
C 38 84 0 
C 40 84 0 
C 42 84 0 
C 44 84 0 
C 46 84 0 
C 48 84 0 
C 50 84 0 
C 52 84 0 
C 54 84 0 
C 56 84 0 
C 58 84 0 
C 60 84 0 
C 62 84 0 
C 64 84 0 
C 66 84 0 
C 68 84 0 
C 70 84 0 
C 72 84 0 
C 74 84 0 
C 76 84 0 
C 78 84 0 
C 80 84 0 
C 82 84 0 
C 84 84 0 
C 86 84 0 
C 88 84 0 
C 90 84 0 
C 92 84 0 
C 94 84 0 
C 96 84 0 
C 98 84 0 
C 100 84 0 
C 0 86 0 
C 2 86 0 
C 4 86 0 
C 6 86 0 
C 8 86 0 
C 10 86 0 
C 12 86 0 
C 14 86 0 
C 16 86 0 
C 18 86 0 
C 20 86 0 
C 22 86 0 
C 24 86 0 
C 26 86 0 
C 28 86 0 
C 30 86 0 
C 32 86 0 
C 34 86 0 
C 36 86 0 
C 38 86 0 
C 40 86 0 
C 42 86 0 
C 44 86 0 
C 46 86 0 
C 48 86 0 
C 50 86 0 
C 52 86 0 
C 54 86 0 
C 56 86 0 
C 58 86 0 
C 60 86 0 
C 62 86 0 
C 64 86 0 
C 66 86 0 
C 68 86 0 
C 70 86 0 
C 72 86 0 
C 74 86 0 
C 76 86 0 
C 78 86 0 
C 80 86 0 
C 82 86 0 
C 84 86 0 
C 86 86 0 
C 88 86 0 
C 90 86 0 
C 92 86 0 
C 94 86 0 
C 96 86 0 
C 98 86 0 
C 100 86 0 
C 0 88 0 
C 2 88 0 
C 4 88 0 
C 6 88 0 
C 8 88 0 
C 10 88 0 
C 12 88 0 
C 14 88 0 
C 16 88 0 
C 18 88 0 
C 20 88 0 
C 22 88 0 
C 24 88 0 
C 26 88 0 
C 28 88 0 
C 30 88 0 
C 32 88 0 
C 34 88 0 
C 36 88 0 
C 38 88 0 
C 40 88 0 
C 42 88 0 
C 44 88 0 
C 46 88 0 
C 48 88 0 
C 50 88 0 
C 52 88 0 
C 54 88 0 
C 56 88 0 
C 58 88 0 
C 60 88 0 
C 62 88 0 
C 64 88 0 
C 66 88 0 
C 68 88 0 
C 70 88 0 
C 72 88 0 
C 74 88 0 
C 76 88 0 
C 78 88 0 
C 80 88 0 
C 82 88 0 
C 84 88 0 
C 86 88 0 
C 88 88 0 
C 90 88 0 
C 92 88 0 
C 94 88 0 
C 96 88 0 
C 98 88 0 
C 100 88 0 
C 0 90 0 
C 2 90 0 
C 4 90 0 
C 6 90 0 
C 8 90 0 
C 10 90 0 
C 12 90 0 
C 14 90 0 
C 16 90 0 
C 18 90 0 
C 20 90 0 
C 22 90 0 
C 24 90 0 
C 26 90 0 
C 28 90 0 
C 30 90 0 
C 32 90 0 
C 34 90 0 
C 36 90 0 
C 38 90 0 
C 40 90 0 
C 42 90 0 
C 44 90 0 
C 46 90 0 
C 48 90 0 
C 50 90 0 
C 52 90 0 
C 54 90 0 
C 56 90 0 
C 58 90 0 
C 60 90 0 
C 62 90 0 
C 64 90 0 
C 66 90 0 
C 68 90 0 
C 70 90 0 
C 72 90 0 
C 74 90 0 
C 76 90 0 
C 78 90 0 
C 80 90 0 
C 82 90 0 
C 84 90 0 
C 86 90 0 
C 88 90 0 
C 90 90 0 
C 92 90 0 
C 94 90 0 
C 96 90 0 
C 98 90 0 
C 100 90 0 
C 0 92 0 
C 2 92 0 
C 4 92 0 
C 6 92 0 
C 8 92 0 
C 10 92 0 
C 12 92 0 
C 14 92 0 
C 16 92 0 
C 18 92 0 
C 20 92 0 
C 22 92 0 
C 24 92 0 
C 26 92 0 
C 28 92 0 
C 30 92 0 
C 32 92 0 
C 34 92 0 
C 36 92 0 
C 38 92 0 
C 40 92 0 
C 42 92 0 
C 44 92 0 
C 46 92 0 
C 48 92 0 
C 50 92 0 
C 52 92 0 
C 54 92 0 
C 56 92 0 
C 58 92 0 
C 60 92 0 
C 62 92 0 
C 64 92 0 
C 66 92 0 
C 68 92 0 
C 70 92 0 
C 72 92 0 
C 74 92 0 
C 76 92 0 
C 78 92 0 
C 80 92 0 
C 82 92 0 
C 84 92 0 
C 86 92 0 
C 88 92 0 
C 90 92 0 
C 92 92 0 
C 94 92 0 
C 96 92 0 
C 98 92 0 
C 100 92 0 
C 0 94 0 
C 2 94 0 
C 4 94 0 
C 6 94 0 
C 8 94 0 
C 10 94 0 
C 12 94 0 
C 14 94 0 
C 16 94 0 
C 18 94 0 
C 20 94 0 
C 22 94 0 
C 24 94 0 
C 26 94 0 
C 28 94 0 
C 30 94 0 
C 32 94 0 
C 34 94 0 
C 36 94 0 
C 38 94 0 
C 40 94 0 
C 42 94 0 
C 44 94 0 
C 46 94 0 
C 48 94 0 
C 50 94 0 
C 52 94 0 
C 54 94 0 
C 56 94 0 
C 58 94 0 
C 60 94 0 
C 62 94 0 
C 64 94 0 
C 66 94 0 
C 68 94 0 
C 70 94 0 
C 72 94 0 
C 74 94 0 
C 76 94 0 
C 78 94 0 
C 80 94 0 
C 82 94 0 
C 84 94 0 
C 86 94 0 
C 88 94 0 
C 90 94 0 
C 92 94 0 
C 94 94 0 
C 96 94 0 
C 98 94 0 
C 100 94 0 
C 0 96 0 
C 2 96 0 
C 4 96 0 
C 6 96 0 
C 8 96 0 
C 10 96 0 
C 12 96 0 
C 14 96 0 
C 16 96 0 
C 18 96 0 
C 20 96 0 
C 22 96 0 
C 24 96 0 
C 26 96 0 
C 28 96 0 
C 30 96 0 
C 32 96 0 
C 34 96 0 
C 36 96 0 
C 38 96 0 
C 40 96 0 
C 42 96 0 
C 44 96 0 
C 46 96 0 
C 48 96 0 
C 50 96 0 
C 52 96 0 
C 54 96 0 
C 56 96 0 
C 58 96 0 
C 60 96 0 
C 62 96 0 
C 64 96 0 
C 66 96 0 
C 68 96 0 
C 70 96 0 
C 72 96 0 
C 74 96 0 
C 76 96 0 
C 78 96 0 
C 80 96 0 
C 82 96 0 
C 84 96 0 
C 86 96 0 
C 88 96 0 
C 90 96 0 
C 92 96 0 
C 94 96 0 
C 96 96 0 
C 98 96 0 
C 100 96 0 
C 0 98 0 
C 2 98 0 
C 4 98 0 
C 6 98 0 
C 8 98 0 
C 10 98 0 
C 12 98 0 
C 14 98 0 
C 16 98 0 
C 18 98 0 
C 20 98 0 
C 22 98 0 
C 24 98 0 
C 26 98 0 
C 28 98 0 
C 30 98 0 
C 32 98 0 
C 34 98 0 
C 36 98 0 
C 38 98 0 
C 40 98 0 
C 42 98 0 
C 44 98 0 
C 46 98 0 
C 48 98 0 
C 50 98 0 
C 52 98 0 
C 54 98 0 
C 56 98 0 
C 58 98 0 
C 60 98 0 
C 62 98 0 
C 64 98 0 
C 66 98 0 
C 68 98 0 
C 70 98 0 
C 72 98 0 
C 74 98 0 
C 76 98 0 
C 78 98 0 
C 80 98 0 
C 82 98 0 
C 84 98 0 
C 86 98 0 
C 88 98 0 
C 90 98 0 
C 92 98 0 
C 94 98 0 
C 96 98 0 
C 98 98 0 
C 100 98 0 
C 0 100 0 
C 2 100 0 
C 4 100 0 
C 6 100 0 
C 8 100 0 
C 10 100 0 
C 12 100 0 
C 14 100 0 
C 16 100 0 
C 18 100 0 
C 20 100 0 
C 22 100 0 
C 24 100 0 
C 26 100 0 
C 28 100 0 
C 30 100 0 
C 32 100 0 
C 34 100 0 
C 36 100 0 
C 38 100 0 
C 40 100 0 
C 42 100 0 
C 44 100 0 
C 46 100 0 
C 48 100 0 
C 50 100 0 
C 52 100 0 
C 54 100 0 
C 56 100 0 
C 58 100 0 
C 60 100 0 
C 62 100 0 
C 64 100 0 
C 66 100 0 
C 68 100 0 
C 70 100 0 
C 72 100 0 
C 74 100 0 
C 76 100 0 
C 78 100 0 
C 80 100 0 
C 82 100 0 
C 84 100 0 
C 86 100 0 
C 88 100 0 
C 90 100 0 
C 92 100 0 
C 94 100 0 
C 96 100 0 
C 98 100 0 
C 100 100 0 
O 15 17 0 
O 81 67 0 
O 1 99 0 
O 89 90 0 
O 10 27 0 
O 99 65 0 
O 41 27 0 
O 29 99 0 
O 0 91 0 
O 73 99 0 
O 41 25 0 
O 69 91 0 
O 99 27 0 
O 47 75 0 
O 99 85 0 
O 90 89 0 
O 6 61 0 
O 13 47 0 
O 4 35 0 
O 45 89 0 
O 38 87 0 
O 45 6 0 
O 0 97 0 
O 11 67 0 
O 29 1 0 
O 0 95 0 
O 87 11 0 
O 75 48 0 
O 40 31 0 
O 23 87 0 
3121
Atoms. Timestep: 6
N 88 19 0 
N 23 53 0 
N 15 68 0 
N 51 93 0 
N 35 19 0 
N 61 25 0 
N 84 67 0 
N 6 55 0 
N 13 48 0 
N 51 28 0 
N 15 7 0 
N 60 29 0 
N 63 11 0 
N 80 85 0 
N 55 88 0 
N 49 61 0 
N 40 75 0 
N 2 91 0 
N 4 13 0 
N 87 21 0 
N 13 40 0 
N 78 11 0 
N 17 27 0 
N 48 75 0 
N 63 99 0 
N 10 91 0 
N 89 10 0 
N 64 99 0 
N 3 37 0 
N 33 50 0 
N 75 30 0 
N 61 19 0 
N 23 66 0 
N 97 47 0 
N 27 17 0 
N 78 51 0 
N 95 71 0 
N 67 7 0 
N 65 90 0 
N 96 5 0 
N 44 11 0 
N 29 97 0 
N 90 27 0 
N 29 61 0 
N 55 41 0 
N 61 23 0 
N 54 77 0 
N 51 36 0 
N 93 79 0 
N 29 13 0 
N 58 25 0 
N 41 39 0 
N 9 20 0 
N 21 29 0 
N 97 73 0 
N 15 80 0 
N 53 68 0 
N 87 10 0 
N 5 23 0 
N 70 69 0 
N 99 62 0 
N 71 99 0 
N 7 35 0 
N 73 86 0 
N 70 13 0 
N 7 59 0 
N 76 63 0 
N 87 28 0 
N 42 21 0 
N 61 30 0 
N 43 23 0 
N 4 97 0 
N 3 47 0 
N 19 76 0 
N 39 84 0 
N 36 25 0 
N 55 89 0 
N 5 34 0 
N 27 48 0 
N 73 9 0 
N 61 43 0 
N 95 20 0 
N 74 93 0 
N 91 43 0 
N 3 35 0 
N 7 23 0 
N 35 68 0 
N 5 78 0 
N 19 28 0 
N 83 84 0 
N 63 81 0 
N 97 95 0 
N 15 19 0 
N 91 60 0 
N 89 9 0 
N 73 3 0 
N 69 53 0 
N 95 12 0 
N 67 66 0 
N 10 31 0 
N 45 63 0 
N 61 92 0 
N 45 38 0 
N 88 13 0 
N 91 95 0 
N 53 89 0 
N 69 65 0 
N 69 49 0 
N 29 93 0 
N 21 77 0 
N 27 47 0 
N 75 67 0 
N 19 78 0 
N 86 11 0 
N 45 65 0 
N 49 47 0 
N 13 55 0 
N 1 74 0 
N 68 91 0 
N 25 97 0 
N 33 27 0 
N 54 81 0 
N 44 25 0 
N 55 60 0 
N 12 27 0 
N 74 9 0 
N 5 72 0 
N 3 11 0 
N 31 11 0 
N 95 86 0 
N 5 85 0 
N 69 43 0 
N 13 45 0 
N 69 99 0 
N 16 11 0 
N 14 77 0 
N 32 57 0 
N 83 45 0 
N 95 44 0 
N 87 17 0 
N 12 43 0 
N 73 77 0 
N 75 3 0 
N 55 8 0 
N 85 87 0 
N 47 91 0 
N 97 50 0 
N 44 59 0 
N 99 79 0 
N 65 91 0 
N 94 41 0 
N 94 71 0 
N 27 33 0 
N 6 97 0 
N 47 72 0 
N 20 79 0 
N 99 83 0 
N 6 67 0 
N 2 3 0 
N 13 43 0 
N 90 39 0 
N 42 59 0 
N 89 41 0 
N 19 1 0 
N 37 87 0 
N 36 79 0 
N 73 11 0 
N 90 91 0 
N 97 23 0 
N 47 73 0 
N 6 99 0 
N 75 32 0 
N 22 41 0 
N 17 17 0 
N 69 28 0 
N 43 89 0 
N 93 61 0 
N 53 3 0 
N 81 79 0 
N 81 85 0 
N 69 33 0 
N 16 9 0 
N 84 55 0 
N 45 58 0 
N 2 67 0 
N 5 64 0 
N 97 53 0 
N 68 79 0 
N 93 70 0 
N 19 17 0 
N 21 74 0 
N 1 92 0 
N 67 64 0 
N 21 86 0 
N 58 67 0 
N 97 27 0 
N 67 74 0 
N 95 23 0 
N 47 34 0 
N 95 31 0 
N 77 5 0 
N 63 91 0 
N 65 29 0 
N 46 93 0 
N 62 7 0 
N 35 66 0 
N 65 28 0 
N 61 41 0 
N 95 85 0 
N 93 59 0 
N 26 59 0 
N 23 67 0 
N 16 7 0 
N 97 25 0 
N 29 17 0 
N 11 71 0 
N 63 69 0 
N 58 65 0 
N 89 86 0 
N 24 85 0 
N 4 55 0 
N 87 24 0 
N 99 65 0 
N 61 27 0 
N 21 45 0 
N 97 81 0 
N 75 38 0 
N 93 53 0 
N 77 24 0 
N 98 69 0 
N 88 81 0 
N 58 47 0 
N 42 25 0 
N 89 77 0 
N 69 56 0 
N 79 56 0 
N 27 32 0 
N 71 83 0 
N 4 37 0 
N 27 11 0 
N 76 55 0 
N 18 67 0 
N 95 53 0 
N 9 23 0 
N 55 50 0 
N 22 1 0 
N 31 13 0 
N 21 67 0 
N 15 67 0 
N 15 15 0 
N 82 91 0 
N 51 61 0 
N 39 88 0 
N 20 25 0 
N 12 33 0 
N 14 27 0 
N 77 45 0 
N 59 40 0 
N 53 27 0 
N 19 80 0 
N 12 65 0 
N 4 35 0 
N 96 47 0 
N 11 27 0 
N 44 75 0 
N 94 91 0 
N 55 40 0 
N 75 48 0 
N 87 77 0 
N 61 45 0 
N 89 98 0 
N 19 10 0 
N 37 89 0 
N 12 5 0 
N 41 50 0 
N 59 56 0 
N 5 24 0 
N 31 37 0 
N 51 65 0 
N 4 33 0 
N 57 73 0 
N 17 16 0 
N 38 75 0 
N 73 23 0 
N 27 77 0 
N 63 22 0 
N 89 88 0 
N 43 40 0 
N 89 11 0 
N 89 5 0 
N 49 7 0 
N 40 23 0 
N 62 87 0 
N 63 9 0 
N 45 6 0 
N 29 76 0 
N 42 41 0 
N 17 67 0 
N 17 45 0 
N 91 46 0 
N 76 91 0 
N 6 57 0 
N 25 86 0 
N 14 99 0 
N 51 59 0 
N 57 7 0 
N 69 75 0 
N 9 47 0 
N 72 5 0 
N 23 87 0 
N 97 70 0 
N 38 53 0 
N 41 1 0 
N 11 32 0 
N 33 99 0 
N 33 75 0 
N 29 6 0 
N 69 39 0 
N 3 9 0 
N 49 22 0 
N 70 75 0 
N 3 15 0 
N 93 48 0 
N 25 70 0 
N 39 11 0 
N 67 5 0 
N 63 25 0 
N 95 2 0 
N 51 87 0 
N 13 46 0 
N 48 35 0 
N 87 3 0 
N 92 45 0 
N 67 20 0 
N 91 51 0 
N 42 31 0 
N 17 99 0 
N 8 95 0 
N 77 3 0 
N 81 65 0 
N 39 33 0 
N 30 37 0 
N 55 5 0 
N 79 41 0 
N 11 17 0 
N 14 95 0 
N 89 3 0 
N 50 89 0 
N 79 90 0 
N 56 87 0 
N 77 22 0 
N 68 83 0 
N 13 50 0 
N 97 62 0 
N 15 18 0 
N 45 27 0 
N 49 35 0 
N 35 1 0 
N 29 95 0 
N 43 57 0 
N 81 19 0 
N 63 32 0 
N 42 75 0 
N 40 31 0 
N 33 36 0 
N 2 37 0 
N 76 13 0 
N 50 43 0 
N 93 42 0 
N 99 43 0 
N 26 79 0 
N 67 10 0 
N 39 79 0 
N 63 27 0 
N 29 67 0 
N 43 6 0 
N 57 49 0 
N 92 11 0 
N 57 27 0 
N 74 91 0 
N 29 2 0 
N 5 91 0 
N 46 9 0 
N 33 77 0 
N 31 63 0 
N 58 51 0 
N 66 49 0 
N 37 25 0 
N 83 46 0 
N 13 28 0 
N 85 94 0 
N 95 77 0 
N 53 90 0 
N 72 27 0 
N 94 47 0 
N 3 34 0 
N 52 3 0 
N 59 27 0 
N 81 83 0 
N 55 75 0 
N 81 86 0 
N 6 65 0 
N 6 47 0 
N 33 61 0 
N 21 82 0 
N 79 38 0 
N 35 63 0 
N 79 68 0 
N 89 45 0 
N 47 32 0 
N 73 7 0 
N 59 6 0 
N 88 7 0 
N 13 41 0 
N 91 9 0 
N 57 48 0 
N 13 53 0 
N 29 33 0 
N 71 48 0 
N 93 41 0 
N 96 77 0 
N 91 31 0 
N 18 85 0 
N 49 64 0 
N 95 68 0 
N 80 11 0 
N 40 51 0 
N 13 62 0 
N 79 21 0 
N 7 24 0 
N 23 84 0 
N 35 24 0 
N 79 14 0 
N 34 65 0 
N 69 50 0 
N 93 54 0 
N 84 45 0 
N 1 10 0 
N 53 87 0 
N 81 67 0 
N 64 5 0 
N 9 62 0 
N 30 1 0 
N 19 69 0 
N 19 43 0 
N 19 27 0 
N 71 77 0 
N 73 84 0 
N 21 65 0 
N 19 67 0 
N 61 77 0 
N 95 79 0 
N 97 29 0 
N 71 17 0 
N 70 31 0 
N 63 31 0 
N 40 59 0 
N 95 65 0 
N 77 67 0 
N 1 5 0 
N 38 83 0 
N 60 33 0 
N 13 29 0 
N 21 87 0 
N 29 64 0 
N 15 11 0 
N 5 27 0 
N 82 65 0 
N 54 75 0 
N 18 69 0 
N 45 86 0 
N 10 13 0 
N 10 3 0 
N 37 14 0 
N 87 19 0 
N 41 49 0 
N 4 65 0 
N 38 87 0 
N 41 66 0 
N 35 11 0 
N 50 59 0 
N 94 39 0 
N 89 96 0 
N 65 27 0 
N 58 41 0 
N 79 19 0 
N 21 89 0 
N 99 27 0 
N 75 20 0 
N 87 13 0 
N 38 85 0 
N 50 21 0 
N 40 13 0 
N 33 29 0 
N 38 77 0 
N 49 41 0 
N 6 61 0 
N 73 17 0 
N 35 75 0 
N 96 69 0 
C 0 0 0 
C 2 0 0 
C 4 0 0 
C 6 0 0 
C 8 0 0 
C 10 0 0 
C 12 0 0 
C 14 0 0 
C 16 0 0 
C 18 0 0 
C 20 0 0 
C 22 0 0 
C 24 0 0 
C 26 0 0 
C 28 0 0 
C 30 0 0 
C 32 0 0 
C 34 0 0 
C 36 0 0 
C 38 0 0 
C 40 0 0 
C 42 0 0 
C 44 0 0 
C 46 0 0 
C 48 0 0 
C 50 0 0 
C 52 0 0 
C 54 0 0 
C 56 0 0 
C 58 0 0 
C 60 0 0 
C 62 0 0 
C 64 0 0 
C 66 0 0 
C 68 0 0 
C 70 0 0 
C 72 0 0 
C 74 0 0 
C 76 0 0 
C 78 0 0 
C 80 0 0 
C 82 0 0 
C 84 0 0 
C 86 0 0 
C 88 0 0 
C 90 0 0 
C 92 0 0 
C 94 0 0 
C 96 0 0 
C 98 0 0 
C 100 0 0 
C 0 2 0 
C 2 2 0 
C 4 2 0 
C 6 2 0 
C 8 2 0 
C 10 2 0 
C 12 2 0 
C 14 2 0 
C 16 2 0 
C 18 2 0 
C 20 2 0 
C 22 2 0 
C 24 2 0 
C 26 2 0 
C 28 2 0 
C 30 2 0 
C 32 2 0 
C 34 2 0 
C 36 2 0 
C 38 2 0 
C 40 2 0 
C 42 2 0 
C 44 2 0 
C 46 2 0 
C 48 2 0 
C 50 2 0 
C 52 2 0 
C 54 2 0 
C 56 2 0 
C 58 2 0 
C 60 2 0 
C 62 2 0 
C 64 2 0 
C 66 2 0 
C 68 2 0 
C 70 2 0 
C 72 2 0 
C 74 2 0 
C 76 2 0 
C 78 2 0 
C 80 2 0 
C 82 2 0 
C 84 2 0 
C 86 2 0 
C 88 2 0 
C 90 2 0 
C 92 2 0 
C 94 2 0 
C 96 2 0 
C 98 2 0 
C 100 2 0 
C 0 4 0 
C 2 4 0 
C 4 4 0 
C 6 4 0 
C 8 4 0 
C 10 4 0 
C 12 4 0 
C 14 4 0 
C 16 4 0 
C 18 4 0 
C 20 4 0 
C 22 4 0 
C 24 4 0 
C 26 4 0 
C 28 4 0 
C 30 4 0 
C 32 4 0 
C 34 4 0 
C 36 4 0 
C 38 4 0 
C 40 4 0 
C 42 4 0 
C 44 4 0 
C 46 4 0 
C 48 4 0 
C 50 4 0 
C 52 4 0 
C 54 4 0 
C 56 4 0 
C 58 4 0 
C 60 4 0 
C 62 4 0 
C 64 4 0 
C 66 4 0 
C 68 4 0 
C 70 4 0 
C 72 4 0 
C 74 4 0 
C 76 4 0 
C 78 4 0 
C 80 4 0 
C 82 4 0 
C 84 4 0 
C 86 4 0 
C 88 4 0 
C 90 4 0 
C 92 4 0 
C 94 4 0 
C 96 4 0 
C 98 4 0 
C 100 4 0 
C 0 6 0 
C 2 6 0 
C 4 6 0 
C 6 6 0 
C 8 6 0 
C 10 6 0 
C 12 6 0 
C 14 6 0 
C 16 6 0 
C 18 6 0 
C 20 6 0 
C 22 6 0 
C 24 6 0 
C 26 6 0 
C 28 6 0 
C 30 6 0 
C 32 6 0 
C 34 6 0 
C 36 6 0 
C 38 6 0 
C 40 6 0 
C 42 6 0 
C 44 6 0 
C 46 6 0 
C 48 6 0 
C 50 6 0 
C 52 6 0 
C 54 6 0 
C 56 6 0 
C 58 6 0 
C 60 6 0 
C 62 6 0 
C 64 6 0 
C 66 6 0 
C 68 6 0 
C 70 6 0 
C 72 6 0 
C 74 6 0 
C 76 6 0 
C 78 6 0 
C 80 6 0 
C 82 6 0 
C 84 6 0 
C 86 6 0 
C 88 6 0 
C 90 6 0 
C 92 6 0 
C 94 6 0 
C 96 6 0 
C 98 6 0 
C 100 6 0 
C 0 8 0 
C 2 8 0 
C 4 8 0 
C 6 8 0 
C 8 8 0 
C 10 8 0 
C 12 8 0 
C 14 8 0 
C 16 8 0 
C 18 8 0 
C 20 8 0 
C 22 8 0 
C 24 8 0 
C 26 8 0 
C 28 8 0 
C 30 8 0 
C 32 8 0 
C 34 8 0 
C 36 8 0 
C 38 8 0 
C 40 8 0 
C 42 8 0 
C 44 8 0 
C 46 8 0 
C 48 8 0 
C 50 8 0 
C 52 8 0 
C 54 8 0 
C 56 8 0 
C 58 8 0 
C 60 8 0 
C 62 8 0 
C 64 8 0 
C 66 8 0 
C 68 8 0 
C 70 8 0 
C 72 8 0 
C 74 8 0 
C 76 8 0 
C 78 8 0 
C 80 8 0 
C 82 8 0 
C 84 8 0 
C 86 8 0 
C 88 8 0 
C 90 8 0 
C 92 8 0 
C 94 8 0 
C 96 8 0 
C 98 8 0 
C 100 8 0 
C 0 10 0 
C 2 10 0 
C 4 10 0 
C 6 10 0 
C 8 10 0 
C 10 10 0 
C 12 10 0 
C 14 10 0 
C 16 10 0 
C 18 10 0 
C 20 10 0 
C 22 10 0 
C 24 10 0 
C 26 10 0 
C 28 10 0 
C 30 10 0 
C 32 10 0 
C 34 10 0 
C 36 10 0 
C 38 10 0 
C 40 10 0 
C 42 10 0 
C 44 10 0 
C 46 10 0 
C 48 10 0 
C 50 10 0 
C 52 10 0 
C 54 10 0 
C 56 10 0 
C 58 10 0 
C 60 10 0 
C 62 10 0 
C 64 10 0 
C 66 10 0 
C 68 10 0 
C 70 10 0 
C 72 10 0 
C 74 10 0 
C 76 10 0 
C 78 10 0 
C 80 10 0 
C 82 10 0 
C 84 10 0 
C 86 10 0 
C 88 10 0 
C 90 10 0 
C 92 10 0 
C 94 10 0 
C 96 10 0 
C 98 10 0 
C 100 10 0 
C 0 12 0 
C 2 12 0 
C 4 12 0 
C 6 12 0 
C 8 12 0 
C 10 12 0 
C 12 12 0 
C 14 12 0 
C 16 12 0 
C 18 12 0 
C 20 12 0 
C 22 12 0 
C 24 12 0 
C 26 12 0 
C 28 12 0 
C 30 12 0 
C 32 12 0 
C 34 12 0 
C 36 12 0 
C 38 12 0 
C 40 12 0 
C 42 12 0 
C 44 12 0 
C 46 12 0 
C 48 12 0 
C 50 12 0 
C 52 12 0 
C 54 12 0 
C 56 12 0 
C 58 12 0 
C 60 12 0 
C 62 12 0 
C 64 12 0 
C 66 12 0 
C 68 12 0 
C 70 12 0 
C 72 12 0 
C 74 12 0 
C 76 12 0 
C 78 12 0 
C 80 12 0 
C 82 12 0 
C 84 12 0 
C 86 12 0 
C 88 12 0 
C 90 12 0 
C 92 12 0 
C 94 12 0 
C 96 12 0 
C 98 12 0 
C 100 12 0 
C 0 14 0 
C 2 14 0 
C 4 14 0 
C 6 14 0 
C 8 14 0 
C 10 14 0 
C 12 14 0 
C 14 14 0 
C 16 14 0 
C 18 14 0 
C 20 14 0 
C 22 14 0 
C 24 14 0 
C 26 14 0 
C 28 14 0 
C 30 14 0 
C 32 14 0 
C 34 14 0 
C 36 14 0 
C 38 14 0 
C 40 14 0 
C 42 14 0 
C 44 14 0 
C 46 14 0 
C 48 14 0 
C 50 14 0 
C 52 14 0 
C 54 14 0 
C 56 14 0 
C 58 14 0 
C 60 14 0 
C 62 14 0 
C 64 14 0 
C 66 14 0 
C 68 14 0 
C 70 14 0 
C 72 14 0 
C 74 14 0 
C 76 14 0 
C 78 14 0 
C 80 14 0 
C 82 14 0 
C 84 14 0 
C 86 14 0 
C 88 14 0 
C 90 14 0 
C 92 14 0 
C 94 14 0 
C 96 14 0 
C 98 14 0 
C 100 14 0 
C 0 16 0 
C 2 16 0 
C 4 16 0 
C 6 16 0 
C 8 16 0 
C 10 16 0 
C 12 16 0 
C 14 16 0 
C 16 16 0 
C 18 16 0 
C 20 16 0 
C 22 16 0 
C 24 16 0 
C 26 16 0 
C 28 16 0 
C 30 16 0 
C 32 16 0 
C 34 16 0 
C 36 16 0 
C 38 16 0 
C 40 16 0 
C 42 16 0 
C 44 16 0 
C 46 16 0 
C 48 16 0 
C 50 16 0 
C 52 16 0 
C 54 16 0 
C 56 16 0 
C 58 16 0 
C 60 16 0 
C 62 16 0 
C 64 16 0 
C 66 16 0 
C 68 16 0 
C 70 16 0 
C 72 16 0 
C 74 16 0 
C 76 16 0 
C 78 16 0 
C 80 16 0 
C 82 16 0 
C 84 16 0 
C 86 16 0 
C 88 16 0 
C 90 16 0 
C 92 16 0 
C 94 16 0 
C 96 16 0 
C 98 16 0 
C 100 16 0 
C 0 18 0 
C 2 18 0 
C 4 18 0 
C 6 18 0 
C 8 18 0 
C 10 18 0 
C 12 18 0 
C 14 18 0 
C 16 18 0 
C 18 18 0 
C 20 18 0 
C 22 18 0 
C 24 18 0 
C 26 18 0 
C 28 18 0 
C 30 18 0 
C 32 18 0 
C 34 18 0 
C 36 18 0 
C 38 18 0 
C 40 18 0 
C 42 18 0 
C 44 18 0 
C 46 18 0 
C 48 18 0 
C 50 18 0 
C 52 18 0 
C 54 18 0 
C 56 18 0 
C 58 18 0 
C 60 18 0 
C 62 18 0 
C 64 18 0 
C 66 18 0 
C 68 18 0 
C 70 18 0 
C 72 18 0 
C 74 18 0 
C 76 18 0 
C 78 18 0 
C 80 18 0 
C 82 18 0 
C 84 18 0 
C 86 18 0 
C 88 18 0 
C 90 18 0 
C 92 18 0 
C 94 18 0 
C 96 18 0 
C 98 18 0 
C 100 18 0 
C 0 20 0 
C 2 20 0 
C 4 20 0 
C 6 20 0 
C 8 20 0 
C 10 20 0 
C 12 20 0 
C 14 20 0 
C 16 20 0 
C 18 20 0 
C 20 20 0 
C 22 20 0 
C 24 20 0 
C 26 20 0 
C 28 20 0 
C 30 20 0 
C 32 20 0 
C 34 20 0 
C 36 20 0 
C 38 20 0 
C 40 20 0 
C 42 20 0 
C 44 20 0 
C 46 20 0 
C 48 20 0 
C 50 20 0 
C 52 20 0 
C 54 20 0 
C 56 20 0 
C 58 20 0 
C 60 20 0 
C 62 20 0 
C 64 20 0 
C 66 20 0 
C 68 20 0 
C 70 20 0 
C 72 20 0 
C 74 20 0 
C 76 20 0 
C 78 20 0 
C 80 20 0 
C 82 20 0 
C 84 20 0 
C 86 20 0 
C 88 20 0 
C 90 20 0 
C 92 20 0 
C 94 20 0 
C 96 20 0 
C 98 20 0 
C 100 20 0 
C 0 22 0 
C 2 22 0 
C 4 22 0 
C 6 22 0 
C 8 22 0 
C 10 22 0 
C 12 22 0 
C 14 22 0 
C 16 22 0 
C 18 22 0 
C 20 22 0 
C 22 22 0 
C 24 22 0 
C 26 22 0 
C 28 22 0 
C 30 22 0 
C 32 22 0 
C 34 22 0 
C 36 22 0 
C 38 22 0 
C 40 22 0 
C 42 22 0 
C 44 22 0 
C 46 22 0 
C 48 22 0 
C 50 22 0 
C 52 22 0 
C 54 22 0 
C 56 22 0 
C 58 22 0 
C 60 22 0 
C 62 22 0 
C 64 22 0 
C 66 22 0 
C 68 22 0 
C 70 22 0 
C 72 22 0 
C 74 22 0 
C 76 22 0 
C 78 22 0 
C 80 22 0 
C 82 22 0 
C 84 22 0 
C 86 22 0 
C 88 22 0 
C 90 22 0 
C 92 22 0 
C 94 22 0 
C 96 22 0 
C 98 22 0 
C 100 22 0 
C 0 24 0 
C 2 24 0 
C 4 24 0 
C 6 24 0 
C 8 24 0 
C 10 24 0 
C 12 24 0 
C 14 24 0 
C 16 24 0 
C 18 24 0 
C 20 24 0 
C 22 24 0 
C 24 24 0 
C 26 24 0 
C 28 24 0 
C 30 24 0 
C 32 24 0 
C 34 24 0 
C 36 24 0 
C 38 24 0 
C 40 24 0 
C 42 24 0 
C 44 24 0 
C 46 24 0 
C 48 24 0 
C 50 24 0 
C 52 24 0 
C 54 24 0 
C 56 24 0 
C 58 24 0 
C 60 24 0 
C 62 24 0 
C 64 24 0 
C 66 24 0 
C 68 24 0 
C 70 24 0 
C 72 24 0 
C 74 24 0 
C 76 24 0 
C 78 24 0 
C 80 24 0 
C 82 24 0 
C 84 24 0 
C 86 24 0 
C 88 24 0 
C 90 24 0 
C 92 24 0 
C 94 24 0 
C 96 24 0 
C 98 24 0 
C 100 24 0 
C 0 26 0 
C 2 26 0 
C 4 26 0 
C 6 26 0 
C 8 26 0 
C 10 26 0 
C 12 26 0 
C 14 26 0 
C 16 26 0 
C 18 26 0 
C 20 26 0 
C 22 26 0 
C 24 26 0 
C 26 26 0 
C 28 26 0 
C 30 26 0 
C 32 26 0 
C 34 26 0 
C 36 26 0 
C 38 26 0 
C 40 26 0 
C 42 26 0 
C 44 26 0 
C 46 26 0 
C 48 26 0 
C 50 26 0 
C 52 26 0 
C 54 26 0 
C 56 26 0 
C 58 26 0 
C 60 26 0 
C 62 26 0 
C 64 26 0 
C 66 26 0 
C 68 26 0 
C 70 26 0 
C 72 26 0 
C 74 26 0 
C 76 26 0 
C 78 26 0 
C 80 26 0 
C 82 26 0 
C 84 26 0 
C 86 26 0 
C 88 26 0 
C 90 26 0 
C 92 26 0 
C 94 26 0 
C 96 26 0 
C 98 26 0 
C 100 26 0 
C 0 28 0 
C 2 28 0 
C 4 28 0 
C 6 28 0 
C 8 28 0 
C 10 28 0 
C 12 28 0 
C 14 28 0 
C 16 28 0 
C 18 28 0 
C 20 28 0 
C 22 28 0 
C 24 28 0 
C 26 28 0 
C 28 28 0 
C 30 28 0 
C 32 28 0 
C 34 28 0 
C 36 28 0 
C 38 28 0 
C 40 28 0 
C 42 28 0 
C 44 28 0 
C 46 28 0 
C 48 28 0 
C 50 28 0 
C 52 28 0 
C 54 28 0 
C 56 28 0 
C 58 28 0 
C 60 28 0 
C 62 28 0 
C 64 28 0 
C 66 28 0 
C 68 28 0 
C 70 28 0 
C 72 28 0 
C 74 28 0 
C 76 28 0 
C 78 28 0 
C 80 28 0 
C 82 28 0 
C 84 28 0 
C 86 28 0 
C 88 28 0 
C 90 28 0 
C 92 28 0 
C 94 28 0 
C 96 28 0 
C 98 28 0 
C 100 28 0 
C 0 30 0 
C 2 30 0 
C 4 30 0 
C 6 30 0 
C 8 30 0 
C 10 30 0 
C 12 30 0 
C 14 30 0 
C 16 30 0 
C 18 30 0 
C 20 30 0 
C 22 30 0 
C 24 30 0 
C 26 30 0 
C 28 30 0 
C 30 30 0 
C 32 30 0 
C 34 30 0 
C 36 30 0 
C 38 30 0 
C 40 30 0 
C 42 30 0 
C 44 30 0 
C 46 30 0 
C 48 30 0 
C 50 30 0 
C 52 30 0 
C 54 30 0 
C 56 30 0 
C 58 30 0 
C 60 30 0 
C 62 30 0 
C 64 30 0 
C 66 30 0 
C 68 30 0 
C 70 30 0 
C 72 30 0 
C 74 30 0 
C 76 30 0 
C 78 30 0 
C 80 30 0 
C 82 30 0 
C 84 30 0 
C 86 30 0 
C 88 30 0 
C 90 30 0 
C 92 30 0 
C 94 30 0 
C 96 30 0 
C 98 30 0 
C 100 30 0 
C 0 32 0 
C 2 32 0 
C 4 32 0 
C 6 32 0 
C 8 32 0 
C 10 32 0 
C 12 32 0 
C 14 32 0 
C 16 32 0 
C 18 32 0 
C 20 32 0 
C 22 32 0 
C 24 32 0 
C 26 32 0 
C 28 32 0 
C 30 32 0 
C 32 32 0 
C 34 32 0 
C 36 32 0 
C 38 32 0 
C 40 32 0 
C 42 32 0 
C 44 32 0 
C 46 32 0 
C 48 32 0 
C 50 32 0 
C 52 32 0 
C 54 32 0 
C 56 32 0 
C 58 32 0 
C 60 32 0 
C 62 32 0 
C 64 32 0 
C 66 32 0 
C 68 32 0 
C 70 32 0 
C 72 32 0 
C 74 32 0 
C 76 32 0 
C 78 32 0 
C 80 32 0 
C 82 32 0 
C 84 32 0 
C 86 32 0 
C 88 32 0 
C 90 32 0 
C 92 32 0 
C 94 32 0 
C 96 32 0 
C 98 32 0 
C 100 32 0 
C 0 34 0 
C 2 34 0 
C 4 34 0 
C 6 34 0 
C 8 34 0 
C 10 34 0 
C 12 34 0 
C 14 34 0 
C 16 34 0 
C 18 34 0 
C 20 34 0 
C 22 34 0 
C 24 34 0 
C 26 34 0 
C 28 34 0 
C 30 34 0 
C 32 34 0 
C 34 34 0 
C 36 34 0 
C 38 34 0 
C 40 34 0 
C 42 34 0 
C 44 34 0 
C 46 34 0 
C 48 34 0 
C 50 34 0 
C 52 34 0 
C 54 34 0 
C 56 34 0 
C 58 34 0 
C 60 34 0 
C 62 34 0 
C 64 34 0 
C 66 34 0 
C 68 34 0 
C 70 34 0 
C 72 34 0 
C 74 34 0 
C 76 34 0 
C 78 34 0 
C 80 34 0 
C 82 34 0 
C 84 34 0 
C 86 34 0 
C 88 34 0 
C 90 34 0 
C 92 34 0 
C 94 34 0 
C 96 34 0 
C 98 34 0 
C 100 34 0 
C 0 36 0 
C 2 36 0 
C 4 36 0 
C 6 36 0 
C 8 36 0 
C 10 36 0 
C 12 36 0 
C 14 36 0 
C 16 36 0 
C 18 36 0 
C 20 36 0 
C 22 36 0 
C 24 36 0 
C 26 36 0 
C 28 36 0 
C 30 36 0 
C 32 36 0 
C 34 36 0 
C 36 36 0 
C 38 36 0 
C 40 36 0 
C 42 36 0 
C 44 36 0 
C 46 36 0 
C 48 36 0 
C 50 36 0 
C 52 36 0 
C 54 36 0 
C 56 36 0 
C 58 36 0 
C 60 36 0 
C 62 36 0 
C 64 36 0 
C 66 36 0 
C 68 36 0 
C 70 36 0 
C 72 36 0 
C 74 36 0 
C 76 36 0 
C 78 36 0 
C 80 36 0 
C 82 36 0 
C 84 36 0 
C 86 36 0 
C 88 36 0 
C 90 36 0 
C 92 36 0 
C 94 36 0 
C 96 36 0 
C 98 36 0 
C 100 36 0 
C 0 38 0 
C 2 38 0 
C 4 38 0 
C 6 38 0 
C 8 38 0 
C 10 38 0 
C 12 38 0 
C 14 38 0 
C 16 38 0 
C 18 38 0 
C 20 38 0 
C 22 38 0 
C 24 38 0 
C 26 38 0 
C 28 38 0 
C 30 38 0 
C 32 38 0 
C 34 38 0 
C 36 38 0 
C 38 38 0 
C 40 38 0 
C 42 38 0 
C 44 38 0 
C 46 38 0 
C 48 38 0 
C 50 38 0 
C 52 38 0 
C 54 38 0 
C 56 38 0 
C 58 38 0 
C 60 38 0 
C 62 38 0 
C 64 38 0 
C 66 38 0 
C 68 38 0 
C 70 38 0 
C 72 38 0 
C 74 38 0 
C 76 38 0 
C 78 38 0 
C 80 38 0 
C 82 38 0 
C 84 38 0 
C 86 38 0 
C 88 38 0 
C 90 38 0 
C 92 38 0 
C 94 38 0 
C 96 38 0 
C 98 38 0 
C 100 38 0 
C 0 40 0 
C 2 40 0 
C 4 40 0 
C 6 40 0 
C 8 40 0 
C 10 40 0 
C 12 40 0 
C 14 40 0 
C 16 40 0 
C 18 40 0 
C 20 40 0 
C 22 40 0 
C 24 40 0 
C 26 40 0 
C 28 40 0 
C 30 40 0 
C 32 40 0 
C 34 40 0 
C 36 40 0 
C 38 40 0 
C 40 40 0 
C 42 40 0 
C 44 40 0 
C 46 40 0 
C 48 40 0 
C 50 40 0 
C 52 40 0 
C 54 40 0 
C 56 40 0 
C 58 40 0 
C 60 40 0 
C 62 40 0 
C 64 40 0 
C 66 40 0 
C 68 40 0 
C 70 40 0 
C 72 40 0 
C 74 40 0 
C 76 40 0 
C 78 40 0 
C 80 40 0 
C 82 40 0 
C 84 40 0 
C 86 40 0 
C 88 40 0 
C 90 40 0 
C 92 40 0 
C 94 40 0 
C 96 40 0 
C 98 40 0 
C 100 40 0 
C 0 42 0 
C 2 42 0 
C 4 42 0 
C 6 42 0 
C 8 42 0 
C 10 42 0 
C 12 42 0 
C 14 42 0 
C 16 42 0 
C 18 42 0 
C 20 42 0 
C 22 42 0 
C 24 42 0 
C 26 42 0 
C 28 42 0 
C 30 42 0 
C 32 42 0 
C 34 42 0 
C 36 42 0 
C 38 42 0 
C 40 42 0 
C 42 42 0 
C 44 42 0 
C 46 42 0 
C 48 42 0 
C 50 42 0 
C 52 42 0 
C 54 42 0 
C 56 42 0 
C 58 42 0 
C 60 42 0 
C 62 42 0 
C 64 42 0 
C 66 42 0 
C 68 42 0 
C 70 42 0 
C 72 42 0 
C 74 42 0 
C 76 42 0 
C 78 42 0 
C 80 42 0 
C 82 42 0 
C 84 42 0 
C 86 42 0 
C 88 42 0 
C 90 42 0 
C 92 42 0 
C 94 42 0 
C 96 42 0 
C 98 42 0 
C 100 42 0 
C 0 44 0 
C 2 44 0 
C 4 44 0 
C 6 44 0 
C 8 44 0 
C 10 44 0 
C 12 44 0 
C 14 44 0 
C 16 44 0 
C 18 44 0 
C 20 44 0 
C 22 44 0 
C 24 44 0 
C 26 44 0 
C 28 44 0 
C 30 44 0 
C 32 44 0 
C 34 44 0 
C 36 44 0 
C 38 44 0 
C 40 44 0 
C 42 44 0 
C 44 44 0 
C 46 44 0 
C 48 44 0 
C 50 44 0 
C 52 44 0 
C 54 44 0 
C 56 44 0 
C 58 44 0 
C 60 44 0 
C 62 44 0 
C 64 44 0 
C 66 44 0 
C 68 44 0 
C 70 44 0 
C 72 44 0 
C 74 44 0 
C 76 44 0 
C 78 44 0 
C 80 44 0 
C 82 44 0 
C 84 44 0 
C 86 44 0 
C 88 44 0 
C 90 44 0 
C 92 44 0 
C 94 44 0 
C 96 44 0 
C 98 44 0 
C 100 44 0 
C 0 46 0 
C 2 46 0 
C 4 46 0 
C 6 46 0 
C 8 46 0 
C 10 46 0 
C 12 46 0 
C 14 46 0 
C 16 46 0 
C 18 46 0 
C 20 46 0 
C 22 46 0 
C 24 46 0 
C 26 46 0 
C 28 46 0 
C 30 46 0 
C 32 46 0 
C 34 46 0 
C 36 46 0 
C 38 46 0 
C 40 46 0 
C 42 46 0 
C 44 46 0 
C 46 46 0 
C 48 46 0 
C 50 46 0 
C 52 46 0 
C 54 46 0 
C 56 46 0 
C 58 46 0 
C 60 46 0 
C 62 46 0 
C 64 46 0 
C 66 46 0 
C 68 46 0 
C 70 46 0 
C 72 46 0 
C 74 46 0 
C 76 46 0 
C 78 46 0 
C 80 46 0 
C 82 46 0 
C 84 46 0 
C 86 46 0 
C 88 46 0 
C 90 46 0 
C 92 46 0 
C 94 46 0 
C 96 46 0 
C 98 46 0 
C 100 46 0 
C 0 48 0 
C 2 48 0 
C 4 48 0 
C 6 48 0 
C 8 48 0 
C 10 48 0 
C 12 48 0 
C 14 48 0 
C 16 48 0 
C 18 48 0 
C 20 48 0 
C 22 48 0 
C 24 48 0 
C 26 48 0 
C 28 48 0 
C 30 48 0 
C 32 48 0 
C 34 48 0 
C 36 48 0 
C 38 48 0 
C 40 48 0 
C 42 48 0 
C 44 48 0 
C 46 48 0 
C 48 48 0 
C 50 48 0 
C 52 48 0 
C 54 48 0 
C 56 48 0 
C 58 48 0 
C 60 48 0 
C 62 48 0 
C 64 48 0 
C 66 48 0 
C 68 48 0 
C 70 48 0 
C 72 48 0 
C 74 48 0 
C 76 48 0 
C 78 48 0 
C 80 48 0 
C 82 48 0 
C 84 48 0 
C 86 48 0 
C 88 48 0 
C 90 48 0 
C 92 48 0 
C 94 48 0 
C 96 48 0 
C 98 48 0 
C 100 48 0 
C 0 50 0 
C 2 50 0 
C 4 50 0 
C 6 50 0 
C 8 50 0 
C 10 50 0 
C 12 50 0 
C 14 50 0 
C 16 50 0 
C 18 50 0 
C 20 50 0 
C 22 50 0 
C 24 50 0 
C 26 50 0 
C 28 50 0 
C 30 50 0 
C 32 50 0 
C 34 50 0 
C 36 50 0 
C 38 50 0 
C 40 50 0 
C 42 50 0 
C 44 50 0 
C 46 50 0 
C 48 50 0 
C 50 50 0 
C 52 50 0 
C 54 50 0 
C 56 50 0 
C 58 50 0 
C 60 50 0 
C 62 50 0 
C 64 50 0 
C 66 50 0 
C 68 50 0 
C 70 50 0 
C 72 50 0 
C 74 50 0 
C 76 50 0 
C 78 50 0 
C 80 50 0 
C 82 50 0 
C 84 50 0 
C 86 50 0 
C 88 50 0 
C 90 50 0 
C 92 50 0 
C 94 50 0 
C 96 50 0 
C 98 50 0 
C 100 50 0 
C 0 52 0 
C 2 52 0 
C 4 52 0 
C 6 52 0 
C 8 52 0 
C 10 52 0 
C 12 52 0 
C 14 52 0 
C 16 52 0 
C 18 52 0 
C 20 52 0 
C 22 52 0 
C 24 52 0 
C 26 52 0 
C 28 52 0 
C 30 52 0 
C 32 52 0 
C 34 52 0 
C 36 52 0 
C 38 52 0 
C 40 52 0 
C 42 52 0 
C 44 52 0 
C 46 52 0 
C 48 52 0 
C 50 52 0 
C 52 52 0 
C 54 52 0 
C 56 52 0 
C 58 52 0 
C 60 52 0 
C 62 52 0 
C 64 52 0 
C 66 52 0 
C 68 52 0 
C 70 52 0 
C 72 52 0 
C 74 52 0 
C 76 52 0 
C 78 52 0 
C 80 52 0 
C 82 52 0 
C 84 52 0 
C 86 52 0 
C 88 52 0 
C 90 52 0 
C 92 52 0 
C 94 52 0 
C 96 52 0 
C 98 52 0 
C 100 52 0 
C 0 54 0 
C 2 54 0 
C 4 54 0 
C 6 54 0 
C 8 54 0 
C 10 54 0 
C 12 54 0 
C 14 54 0 
C 16 54 0 
C 18 54 0 
C 20 54 0 
C 22 54 0 
C 24 54 0 
C 26 54 0 
C 28 54 0 
C 30 54 0 
C 32 54 0 
C 34 54 0 
C 36 54 0 
C 38 54 0 
C 40 54 0 
C 42 54 0 
C 44 54 0 
C 46 54 0 
C 48 54 0 
C 50 54 0 
C 52 54 0 
C 54 54 0 
C 56 54 0 
C 58 54 0 
C 60 54 0 
C 62 54 0 
C 64 54 0 
C 66 54 0 
C 68 54 0 
C 70 54 0 
C 72 54 0 
C 74 54 0 
C 76 54 0 
C 78 54 0 
C 80 54 0 
C 82 54 0 
C 84 54 0 
C 86 54 0 
C 88 54 0 
C 90 54 0 
C 92 54 0 
C 94 54 0 
C 96 54 0 
C 98 54 0 
C 100 54 0 
C 0 56 0 
C 2 56 0 
C 4 56 0 
C 6 56 0 
C 8 56 0 
C 10 56 0 
C 12 56 0 
C 14 56 0 
C 16 56 0 
C 18 56 0 
C 20 56 0 
C 22 56 0 
C 24 56 0 
C 26 56 0 
C 28 56 0 
C 30 56 0 
C 32 56 0 
C 34 56 0 
C 36 56 0 
C 38 56 0 
C 40 56 0 
C 42 56 0 
C 44 56 0 
C 46 56 0 
C 48 56 0 
C 50 56 0 
C 52 56 0 
C 54 56 0 
C 56 56 0 
C 58 56 0 
C 60 56 0 
C 62 56 0 
C 64 56 0 
C 66 56 0 
C 68 56 0 
C 70 56 0 
C 72 56 0 
C 74 56 0 
C 76 56 0 
C 78 56 0 
C 80 56 0 
C 82 56 0 
C 84 56 0 
C 86 56 0 
C 88 56 0 
C 90 56 0 
C 92 56 0 
C 94 56 0 
C 96 56 0 
C 98 56 0 
C 100 56 0 
C 0 58 0 
C 2 58 0 
C 4 58 0 
C 6 58 0 
C 8 58 0 
C 10 58 0 
C 12 58 0 
C 14 58 0 
C 16 58 0 
C 18 58 0 
C 20 58 0 
C 22 58 0 
C 24 58 0 
C 26 58 0 
C 28 58 0 
C 30 58 0 
C 32 58 0 
C 34 58 0 
C 36 58 0 
C 38 58 0 
C 40 58 0 
C 42 58 0 
C 44 58 0 
C 46 58 0 
C 48 58 0 
C 50 58 0 
C 52 58 0 
C 54 58 0 
C 56 58 0 
C 58 58 0 
C 60 58 0 
C 62 58 0 
C 64 58 0 
C 66 58 0 
C 68 58 0 
C 70 58 0 
C 72 58 0 
C 74 58 0 
C 76 58 0 
C 78 58 0 
C 80 58 0 
C 82 58 0 
C 84 58 0 
C 86 58 0 
C 88 58 0 
C 90 58 0 
C 92 58 0 
C 94 58 0 
C 96 58 0 
C 98 58 0 
C 100 58 0 
C 0 60 0 
C 2 60 0 
C 4 60 0 
C 6 60 0 
C 8 60 0 
C 10 60 0 
C 12 60 0 
C 14 60 0 
C 16 60 0 
C 18 60 0 
C 20 60 0 
C 22 60 0 
C 24 60 0 
C 26 60 0 
C 28 60 0 
C 30 60 0 
C 32 60 0 
C 34 60 0 
C 36 60 0 
C 38 60 0 
C 40 60 0 
C 42 60 0 
C 44 60 0 
C 46 60 0 
C 48 60 0 
C 50 60 0 
C 52 60 0 
C 54 60 0 
C 56 60 0 
C 58 60 0 
C 60 60 0 
C 62 60 0 
C 64 60 0 
C 66 60 0 
C 68 60 0 
C 70 60 0 
C 72 60 0 
C 74 60 0 
C 76 60 0 
C 78 60 0 
C 80 60 0 
C 82 60 0 
C 84 60 0 
C 86 60 0 
C 88 60 0 
C 90 60 0 
C 92 60 0 
C 94 60 0 
C 96 60 0 
C 98 60 0 
C 100 60 0 
C 0 62 0 
C 2 62 0 
C 4 62 0 
C 6 62 0 
C 8 62 0 
C 10 62 0 
C 12 62 0 
C 14 62 0 
C 16 62 0 
C 18 62 0 
C 20 62 0 
C 22 62 0 
C 24 62 0 
C 26 62 0 
C 28 62 0 
C 30 62 0 
C 32 62 0 
C 34 62 0 
C 36 62 0 
C 38 62 0 
C 40 62 0 
C 42 62 0 
C 44 62 0 
C 46 62 0 
C 48 62 0 
C 50 62 0 
C 52 62 0 
C 54 62 0 
C 56 62 0 
C 58 62 0 
C 60 62 0 
C 62 62 0 
C 64 62 0 
C 66 62 0 
C 68 62 0 
C 70 62 0 
C 72 62 0 
C 74 62 0 
C 76 62 0 
C 78 62 0 
C 80 62 0 
C 82 62 0 
C 84 62 0 
C 86 62 0 
C 88 62 0 
C 90 62 0 
C 92 62 0 
C 94 62 0 
C 96 62 0 
C 98 62 0 
C 100 62 0 
C 0 64 0 
C 2 64 0 
C 4 64 0 
C 6 64 0 
C 8 64 0 
C 10 64 0 
C 12 64 0 
C 14 64 0 
C 16 64 0 
C 18 64 0 
C 20 64 0 
C 22 64 0 
C 24 64 0 
C 26 64 0 
C 28 64 0 
C 30 64 0 
C 32 64 0 
C 34 64 0 
C 36 64 0 
C 38 64 0 
C 40 64 0 
C 42 64 0 
C 44 64 0 
C 46 64 0 
C 48 64 0 
C 50 64 0 
C 52 64 0 
C 54 64 0 
C 56 64 0 
C 58 64 0 
C 60 64 0 
C 62 64 0 
C 64 64 0 
C 66 64 0 
C 68 64 0 
C 70 64 0 
C 72 64 0 
C 74 64 0 
C 76 64 0 
C 78 64 0 
C 80 64 0 
C 82 64 0 
C 84 64 0 
C 86 64 0 
C 88 64 0 
C 90 64 0 
C 92 64 0 
C 94 64 0 
C 96 64 0 
C 98 64 0 
C 100 64 0 
C 0 66 0 
C 2 66 0 
C 4 66 0 
C 6 66 0 
C 8 66 0 
C 10 66 0 
C 12 66 0 
C 14 66 0 
C 16 66 0 
C 18 66 0 
C 20 66 0 
C 22 66 0 
C 24 66 0 
C 26 66 0 
C 28 66 0 
C 30 66 0 
C 32 66 0 
C 34 66 0 
C 36 66 0 
C 38 66 0 
C 40 66 0 
C 42 66 0 
C 44 66 0 
C 46 66 0 
C 48 66 0 
C 50 66 0 
C 52 66 0 
C 54 66 0 
C 56 66 0 
C 58 66 0 
C 60 66 0 
C 62 66 0 
C 64 66 0 
C 66 66 0 
C 68 66 0 
C 70 66 0 
C 72 66 0 
C 74 66 0 
C 76 66 0 
C 78 66 0 
C 80 66 0 
C 82 66 0 
C 84 66 0 
C 86 66 0 
C 88 66 0 
C 90 66 0 
C 92 66 0 
C 94 66 0 
C 96 66 0 
C 98 66 0 
C 100 66 0 
C 0 68 0 
C 2 68 0 
C 4 68 0 
C 6 68 0 
C 8 68 0 
C 10 68 0 
C 12 68 0 
C 14 68 0 
C 16 68 0 
C 18 68 0 
C 20 68 0 
C 22 68 0 
C 24 68 0 
C 26 68 0 
C 28 68 0 
C 30 68 0 
C 32 68 0 
C 34 68 0 
C 36 68 0 
C 38 68 0 
C 40 68 0 
C 42 68 0 
C 44 68 0 
C 46 68 0 
C 48 68 0 
C 50 68 0 
C 52 68 0 
C 54 68 0 
C 56 68 0 
C 58 68 0 
C 60 68 0 
C 62 68 0 
C 64 68 0 
C 66 68 0 
C 68 68 0 
C 70 68 0 
C 72 68 0 
C 74 68 0 
C 76 68 0 
C 78 68 0 
C 80 68 0 
C 82 68 0 
C 84 68 0 
C 86 68 0 
C 88 68 0 
C 90 68 0 
C 92 68 0 
C 94 68 0 
C 96 68 0 
C 98 68 0 
C 100 68 0 
C 0 70 0 
C 2 70 0 
C 4 70 0 
C 6 70 0 
C 8 70 0 
C 10 70 0 
C 12 70 0 
C 14 70 0 
C 16 70 0 
C 18 70 0 
C 20 70 0 
C 22 70 0 
C 24 70 0 
C 26 70 0 
C 28 70 0 
C 30 70 0 
C 32 70 0 
C 34 70 0 
C 36 70 0 
C 38 70 0 
C 40 70 0 
C 42 70 0 
C 44 70 0 
C 46 70 0 
C 48 70 0 
C 50 70 0 
C 52 70 0 
C 54 70 0 
C 56 70 0 
C 58 70 0 
C 60 70 0 
C 62 70 0 
C 64 70 0 
C 66 70 0 
C 68 70 0 
C 70 70 0 
C 72 70 0 
C 74 70 0 
C 76 70 0 
C 78 70 0 
C 80 70 0 
C 82 70 0 
C 84 70 0 
C 86 70 0 
C 88 70 0 
C 90 70 0 
C 92 70 0 
C 94 70 0 
C 96 70 0 
C 98 70 0 
C 100 70 0 
C 0 72 0 
C 2 72 0 
C 4 72 0 
C 6 72 0 
C 8 72 0 
C 10 72 0 
C 12 72 0 
C 14 72 0 
C 16 72 0 
C 18 72 0 
C 20 72 0 
C 22 72 0 
C 24 72 0 
C 26 72 0 
C 28 72 0 
C 30 72 0 
C 32 72 0 
C 34 72 0 
C 36 72 0 
C 38 72 0 
C 40 72 0 
C 42 72 0 
C 44 72 0 
C 46 72 0 
C 48 72 0 
C 50 72 0 
C 52 72 0 
C 54 72 0 
C 56 72 0 
C 58 72 0 
C 60 72 0 
C 62 72 0 
C 64 72 0 
C 66 72 0 
C 68 72 0 
C 70 72 0 
C 72 72 0 
C 74 72 0 
C 76 72 0 
C 78 72 0 
C 80 72 0 
C 82 72 0 
C 84 72 0 
C 86 72 0 
C 88 72 0 
C 90 72 0 
C 92 72 0 
C 94 72 0 
C 96 72 0 
C 98 72 0 
C 100 72 0 
C 0 74 0 
C 2 74 0 
C 4 74 0 
C 6 74 0 
C 8 74 0 
C 10 74 0 
C 12 74 0 
C 14 74 0 
C 16 74 0 
C 18 74 0 
C 20 74 0 
C 22 74 0 
C 24 74 0 
C 26 74 0 
C 28 74 0 
C 30 74 0 
C 32 74 0 
C 34 74 0 
C 36 74 0 
C 38 74 0 
C 40 74 0 
C 42 74 0 
C 44 74 0 
C 46 74 0 
C 48 74 0 
C 50 74 0 
C 52 74 0 
C 54 74 0 
C 56 74 0 
C 58 74 0 
C 60 74 0 
C 62 74 0 
C 64 74 0 
C 66 74 0 
C 68 74 0 
C 70 74 0 
C 72 74 0 
C 74 74 0 
C 76 74 0 
C 78 74 0 
C 80 74 0 
C 82 74 0 
C 84 74 0 
C 86 74 0 
C 88 74 0 
C 90 74 0 
C 92 74 0 
C 94 74 0 
C 96 74 0 
C 98 74 0 
C 100 74 0 
C 0 76 0 
C 2 76 0 
C 4 76 0 
C 6 76 0 
C 8 76 0 
C 10 76 0 
C 12 76 0 
C 14 76 0 
C 16 76 0 
C 18 76 0 
C 20 76 0 
C 22 76 0 
C 24 76 0 
C 26 76 0 
C 28 76 0 
C 30 76 0 
C 32 76 0 
C 34 76 0 
C 36 76 0 
C 38 76 0 
C 40 76 0 
C 42 76 0 
C 44 76 0 
C 46 76 0 
C 48 76 0 
C 50 76 0 
C 52 76 0 
C 54 76 0 
C 56 76 0 
C 58 76 0 
C 60 76 0 
C 62 76 0 
C 64 76 0 
C 66 76 0 
C 68 76 0 
C 70 76 0 
C 72 76 0 
C 74 76 0 
C 76 76 0 
C 78 76 0 
C 80 76 0 
C 82 76 0 
C 84 76 0 
C 86 76 0 
C 88 76 0 
C 90 76 0 
C 92 76 0 
C 94 76 0 
C 96 76 0 
C 98 76 0 
C 100 76 0 
C 0 78 0 
C 2 78 0 
C 4 78 0 
C 6 78 0 
C 8 78 0 
C 10 78 0 
C 12 78 0 
C 14 78 0 
C 16 78 0 
C 18 78 0 
C 20 78 0 
C 22 78 0 
C 24 78 0 
C 26 78 0 
C 28 78 0 
C 30 78 0 
C 32 78 0 
C 34 78 0 
C 36 78 0 
C 38 78 0 
C 40 78 0 
C 42 78 0 
C 44 78 0 
C 46 78 0 
C 48 78 0 
C 50 78 0 
C 52 78 0 
C 54 78 0 
C 56 78 0 
C 58 78 0 
C 60 78 0 
C 62 78 0 
C 64 78 0 
C 66 78 0 
C 68 78 0 
C 70 78 0 
C 72 78 0 
C 74 78 0 
C 76 78 0 
C 78 78 0 
C 80 78 0 
C 82 78 0 
C 84 78 0 
C 86 78 0 
C 88 78 0 
C 90 78 0 
C 92 78 0 
C 94 78 0 
C 96 78 0 
C 98 78 0 
C 100 78 0 
C 0 80 0 
C 2 80 0 
C 4 80 0 
C 6 80 0 
C 8 80 0 
C 10 80 0 
C 12 80 0 
C 14 80 0 
C 16 80 0 
C 18 80 0 
C 20 80 0 
C 22 80 0 
C 24 80 0 
C 26 80 0 
C 28 80 0 
C 30 80 0 
C 32 80 0 
C 34 80 0 
C 36 80 0 
C 38 80 0 
C 40 80 0 
C 42 80 0 
C 44 80 0 
C 46 80 0 
C 48 80 0 
C 50 80 0 
C 52 80 0 
C 54 80 0 
C 56 80 0 
C 58 80 0 
C 60 80 0 
C 62 80 0 
C 64 80 0 
C 66 80 0 
C 68 80 0 
C 70 80 0 
C 72 80 0 
C 74 80 0 
C 76 80 0 
C 78 80 0 
C 80 80 0 
C 82 80 0 
C 84 80 0 
C 86 80 0 
C 88 80 0 
C 90 80 0 
C 92 80 0 
C 94 80 0 
C 96 80 0 
C 98 80 0 
C 100 80 0 
C 0 82 0 
C 2 82 0 
C 4 82 0 
C 6 82 0 
C 8 82 0 
C 10 82 0 
C 12 82 0 
C 14 82 0 
C 16 82 0 
C 18 82 0 
C 20 82 0 
C 22 82 0 
C 24 82 0 
C 26 82 0 
C 28 82 0 
C 30 82 0 
C 32 82 0 
C 34 82 0 
C 36 82 0 
C 38 82 0 
C 40 82 0 
C 42 82 0 
C 44 82 0 
C 46 82 0 
C 48 82 0 
C 50 82 0 
C 52 82 0 
C 54 82 0 
C 56 82 0 
C 58 82 0 
C 60 82 0 
C 62 82 0 
C 64 82 0 
C 66 82 0 
C 68 82 0 
C 70 82 0 
C 72 82 0 
C 74 82 0 
C 76 82 0 
C 78 82 0 
C 80 82 0 
C 82 82 0 
C 84 82 0 
C 86 82 0 
C 88 82 0 
C 90 82 0 
C 92 82 0 
C 94 82 0 
C 96 82 0 
C 98 82 0 
C 100 82 0 
C 0 84 0 
C 2 84 0 
C 4 84 0 
C 6 84 0 
C 8 84 0 
C 10 84 0 
C 12 84 0 
C 14 84 0 
C 16 84 0 
C 18 84 0 
C 20 84 0 
C 22 84 0 
C 24 84 0 
C 26 84 0 
C 28 84 0 
C 30 84 0 
C 32 84 0 
C 34 84 0 
C 36 84 0 
C 38 84 0 
C 40 84 0 
C 42 84 0 
C 44 84 0 
C 46 84 0 
C 48 84 0 
C 50 84 0 
C 52 84 0 
C 54 84 0 
C 56 84 0 
C 58 84 0 
C 60 84 0 
C 62 84 0 
C 64 84 0 
C 66 84 0 
C 68 84 0 
C 70 84 0 
C 72 84 0 
C 74 84 0 
C 76 84 0 
C 78 84 0 
C 80 84 0 
C 82 84 0 
C 84 84 0 
C 86 84 0 
C 88 84 0 
C 90 84 0 
C 92 84 0 
C 94 84 0 
C 96 84 0 
C 98 84 0 
C 100 84 0 
C 0 86 0 
C 2 86 0 
C 4 86 0 
C 6 86 0 
C 8 86 0 
C 10 86 0 
C 12 86 0 
C 14 86 0 
C 16 86 0 
C 18 86 0 
C 20 86 0 
C 22 86 0 
C 24 86 0 
C 26 86 0 
C 28 86 0 
C 30 86 0 
C 32 86 0 
C 34 86 0 
C 36 86 0 
C 38 86 0 
C 40 86 0 
C 42 86 0 
C 44 86 0 
C 46 86 0 
C 48 86 0 
C 50 86 0 
C 52 86 0 
C 54 86 0 
C 56 86 0 
C 58 86 0 
C 60 86 0 
C 62 86 0 
C 64 86 0 
C 66 86 0 
C 68 86 0 
C 70 86 0 
C 72 86 0 
C 74 86 0 
C 76 86 0 
C 78 86 0 
C 80 86 0 
C 82 86 0 
C 84 86 0 
C 86 86 0 
C 88 86 0 
C 90 86 0 
C 92 86 0 
C 94 86 0 
C 96 86 0 
C 98 86 0 
C 100 86 0 
C 0 88 0 
C 2 88 0 
C 4 88 0 
C 6 88 0 
C 8 88 0 
C 10 88 0 
C 12 88 0 
C 14 88 0 
C 16 88 0 
C 18 88 0 
C 20 88 0 
C 22 88 0 
C 24 88 0 
C 26 88 0 
C 28 88 0 
C 30 88 0 
C 32 88 0 
C 34 88 0 
C 36 88 0 
C 38 88 0 
C 40 88 0 
C 42 88 0 
C 44 88 0 
C 46 88 0 
C 48 88 0 
C 50 88 0 
C 52 88 0 
C 54 88 0 
C 56 88 0 
C 58 88 0 
C 60 88 0 
C 62 88 0 
C 64 88 0 
C 66 88 0 
C 68 88 0 
C 70 88 0 
C 72 88 0 
C 74 88 0 
C 76 88 0 
C 78 88 0 
C 80 88 0 
C 82 88 0 
C 84 88 0 
C 86 88 0 
C 88 88 0 
C 90 88 0 
C 92 88 0 
C 94 88 0 
C 96 88 0 
C 98 88 0 
C 100 88 0 
C 0 90 0 
C 2 90 0 
C 4 90 0 
C 6 90 0 
C 8 90 0 
C 10 90 0 
C 12 90 0 
C 14 90 0 
C 16 90 0 
C 18 90 0 
C 20 90 0 
C 22 90 0 
C 24 90 0 
C 26 90 0 
C 28 90 0 
C 30 90 0 
C 32 90 0 
C 34 90 0 
C 36 90 0 
C 38 90 0 
C 40 90 0 
C 42 90 0 
C 44 90 0 
C 46 90 0 
C 48 90 0 
C 50 90 0 
C 52 90 0 
C 54 90 0 
C 56 90 0 
C 58 90 0 
C 60 90 0 
C 62 90 0 
C 64 90 0 
C 66 90 0 
C 68 90 0 
C 70 90 0 
C 72 90 0 
C 74 90 0 
C 76 90 0 
C 78 90 0 
C 80 90 0 
C 82 90 0 
C 84 90 0 
C 86 90 0 
C 88 90 0 
C 90 90 0 
C 92 90 0 
C 94 90 0 
C 96 90 0 
C 98 90 0 
C 100 90 0 
C 0 92 0 
C 2 92 0 
C 4 92 0 
C 6 92 0 
C 8 92 0 
C 10 92 0 
C 12 92 0 
C 14 92 0 
C 16 92 0 
C 18 92 0 
C 20 92 0 
C 22 92 0 
C 24 92 0 
C 26 92 0 
C 28 92 0 
C 30 92 0 
C 32 92 0 
C 34 92 0 
C 36 92 0 
C 38 92 0 
C 40 92 0 
C 42 92 0 
C 44 92 0 
C 46 92 0 
C 48 92 0 
C 50 92 0 
C 52 92 0 
C 54 92 0 
C 56 92 0 
C 58 92 0 
C 60 92 0 
C 62 92 0 
C 64 92 0 
C 66 92 0 
C 68 92 0 
C 70 92 0 
C 72 92 0 
C 74 92 0 
C 76 92 0 
C 78 92 0 
C 80 92 0 
C 82 92 0 
C 84 92 0 
C 86 92 0 
C 88 92 0 
C 90 92 0 
C 92 92 0 
C 94 92 0 
C 96 92 0 
C 98 92 0 
C 100 92 0 
C 0 94 0 
C 2 94 0 
C 4 94 0 
C 6 94 0 
C 8 94 0 
C 10 94 0 
C 12 94 0 
C 14 94 0 
C 16 94 0 
C 18 94 0 
C 20 94 0 
C 22 94 0 
C 24 94 0 
C 26 94 0 
C 28 94 0 
C 30 94 0 
C 32 94 0 
C 34 94 0 
C 36 94 0 
C 38 94 0 
C 40 94 0 
C 42 94 0 
C 44 94 0 
C 46 94 0 
C 48 94 0 
C 50 94 0 
C 52 94 0 
C 54 94 0 
C 56 94 0 
C 58 94 0 
C 60 94 0 
C 62 94 0 
C 64 94 0 
C 66 94 0 
C 68 94 0 
C 70 94 0 
C 72 94 0 
C 74 94 0 
C 76 94 0 
C 78 94 0 
C 80 94 0 
C 82 94 0 
C 84 94 0 
C 86 94 0 
C 88 94 0 
C 90 94 0 
C 92 94 0 
C 94 94 0 
C 96 94 0 
C 98 94 0 
C 100 94 0 
C 0 96 0 
C 2 96 0 
C 4 96 0 
C 6 96 0 
C 8 96 0 
C 10 96 0 
C 12 96 0 
C 14 96 0 
C 16 96 0 
C 18 96 0 
C 20 96 0 
C 22 96 0 
C 24 96 0 
C 26 96 0 
C 28 96 0 
C 30 96 0 
C 32 96 0 
C 34 96 0 
C 36 96 0 
C 38 96 0 
C 40 96 0 
C 42 96 0 
C 44 96 0 
C 46 96 0 
C 48 96 0 
C 50 96 0 
C 52 96 0 
C 54 96 0 
C 56 96 0 
C 58 96 0 
C 60 96 0 
C 62 96 0 
C 64 96 0 
C 66 96 0 
C 68 96 0 
C 70 96 0 
C 72 96 0 
C 74 96 0 
C 76 96 0 
C 78 96 0 
C 80 96 0 
C 82 96 0 
C 84 96 0 
C 86 96 0 
C 88 96 0 
C 90 96 0 
C 92 96 0 
C 94 96 0 
C 96 96 0 
C 98 96 0 
C 100 96 0 
C 0 98 0 
C 2 98 0 
C 4 98 0 
C 6 98 0 
C 8 98 0 
C 10 98 0 
C 12 98 0 
C 14 98 0 
C 16 98 0 
C 18 98 0 
C 20 98 0 
C 22 98 0 
C 24 98 0 
C 26 98 0 
C 28 98 0 
C 30 98 0 
C 32 98 0 
C 34 98 0 
C 36 98 0 
C 38 98 0 
C 40 98 0 
C 42 98 0 
C 44 98 0 
C 46 98 0 
C 48 98 0 
C 50 98 0 
C 52 98 0 
C 54 98 0 
C 56 98 0 
C 58 98 0 
C 60 98 0 
C 62 98 0 
C 64 98 0 
C 66 98 0 
C 68 98 0 
C 70 98 0 
C 72 98 0 
C 74 98 0 
C 76 98 0 
C 78 98 0 
C 80 98 0 
C 82 98 0 
C 84 98 0 
C 86 98 0 
C 88 98 0 
C 90 98 0 
C 92 98 0 
C 94 98 0 
C 96 98 0 
C 98 98 0 
C 100 98 0 
C 0 100 0 
C 2 100 0 
C 4 100 0 
C 6 100 0 
C 8 100 0 
C 10 100 0 
C 12 100 0 
C 14 100 0 
C 16 100 0 
C 18 100 0 
C 20 100 0 
C 22 100 0 
C 24 100 0 
C 26 100 0 
C 28 100 0 
C 30 100 0 
C 32 100 0 
C 34 100 0 
C 36 100 0 
C 38 100 0 
C 40 100 0 
C 42 100 0 
C 44 100 0 
C 46 100 0 
C 48 100 0 
C 50 100 0 
C 52 100 0 
C 54 100 0 
C 56 100 0 
C 58 100 0 
C 60 100 0 
C 62 100 0 
C 64 100 0 
C 66 100 0 
C 68 100 0 
C 70 100 0 
C 72 100 0 
C 74 100 0 
C 76 100 0 
C 78 100 0 
C 80 100 0 
C 82 100 0 
C 84 100 0 
C 86 100 0 
C 88 100 0 
C 90 100 0 
C 92 100 0 
C 94 100 0 
C 96 100 0 
C 98 100 0 
C 100 100 0 
O 16 17 0 
O 1 0 0 
O 89 91 0 
O 9 27 0 
O 41 28 0 
O 28 99 0 
O 99 91 0 
O 74 99 0 
O 41 24 0 
O 69 92 0 
O 47 76 0 
O 99 86 0 
O 91 89 0 
O 12 47 0 
O 45 90 0 
O 99 97 0 
O 11 66 0 
O 29 0 0 
O 99 95 0 
O 88 11 0 
3118
Atoms. Timestep: 7
N 87 19 0 
N 22 53 0 
N 15 67 0 
N 50 93 0 
N 35 20 0 
N 60 25 0 
N 83 67 0 
N 7 55 0 
N 13 48 0 
N 51 28 0 
N 15 6 0 
N 59 29 0 
N 63 12 0 
N 81 85 0 
N 55 89 0 
N 48 61 0 
N 41 75 0 
N 3 91 0 
N 3 13 0 
N 87 22 0 
N 13 41 0 
N 77 11 0 
N 16 27 0 
N 47 75 0 
N 64 99 0 
N 11 91 0 
N 89 9 0 
N 65 99 0 
N 3 36 0 
N 33 49 0 
N 75 31 0 
N 60 19 0 
N 23 66 0 
N 96 47 0 
N 27 18 0 
N 77 51 0 
N 95 72 0 
N 67 8 0 
N 65 91 0 
N 95 5 0 
N 43 11 0 
N 29 98 0 
N 89 27 0 
N 28 61 0 
N 54 41 0 
N 61 24 0 
N 53 77 0 
N 51 35 0 
N 92 79 0 
N 29 12 0 
N 57 25 0 
N 41 38 0 
N 9 21 0 
N 21 28 0 
N 98 73 0 
N 15 79 0 
N 53 69 0 
N 87 9 0 
N 6 23 0 
N 69 69 0 
N 99 63 0 
N 72 99 0 
N 7 34 0 
N 73 87 0 
N 71 13 0 
N 7 60 0 
N 75 63 0 
N 87 27 0 
N 41 21 0 
N 61 29 0 
N 43 22 0 
N 5 97 0 
N 4 47 0 
N 19 75 0 
N 39 84 0 
N 37 25 0 
N 54 89 0 
N 5 34 0 
N 27 47 0 
N 73 10 0 
N 60 43 0 
N 95 21 0 
N 74 93 0 
N 91 44 0 
N 3 34 0 
N 8 23 0 
N 35 69 0 
N 5 79 0 
N 19 29 0 
N 83 85 0 
N 63 82 0 
N 98 95 0 
N 14 19 0 
N 91 61 0 
N 89 8 0 
N 73 4 0 
N 69 54 0 
N 95 11 0 
N 67 67 0 
N 9 31 0 
N 45 64 0 
N 61 92 0 
N 45 37 0 
N 87 13 0 
N 91 94 0 
N 53 88 0 
N 69 66 0 
N 69 50 0 
N 28 93 0 
N 20 77 0 
N 26 47 0 
N 74 67 0 
N 19 77 0 
N 85 11 0 
N 45 66 0 
N 48 47 0 
N 12 55 0 
N 1 75 0 
N 69 91 0 
N 25 98 0 
N 34 27 0 
N 53 81 0 
N 45 25 0 
N 55 61 0 
N 11 27 0 
N 74 9 0 
N 5 71 0 
N 3 10 0 
N 30 11 0 
N 95 86 0 
N 6 85 0 
N 68 43 0 
N 12 45 0 
N 70 99 0 
N 15 11 0 
N 13 77 0 
N 31 57 0 
N 83 46 0 
N 95 45 0 
N 87 16 0 
N 12 43 0 
N 73 78 0 
N 74 3 0 
N 55 9 0 
N 86 87 0 
N 46 91 0 
N 97 49 0 
N 44 59 0 
N 99 80 0 
N 65 92 0 
N 93 41 0 
N 94 71 0 
N 28 33 0 
N 7 97 0 
N 47 73 0 
N 20 79 0 
N 98 83 0 
N 7 67 0 
N 1 3 0 
N 13 44 0 
N 89 39 0 
N 43 59 0 
N 89 42 0 
N 20 1 0 
N 38 87 0 
N 37 79 0 
N 73 12 0 
N 89 91 0 
N 96 23 0 
N 47 74 0 
N 5 99 0 
N 75 33 0 
N 21 41 0 
N 16 17 0 
N 69 28 0 
N 43 90 0 
N 93 62 0 
N 52 3 0 
N 81 80 0 
N 81 86 0 
N 69 32 0 
N 16 9 0 
N 83 55 0 
N 45 59 0 
N 3 67 0 
N 5 64 0 
N 96 53 0 
N 69 79 0 
N 93 71 0 
N 18 17 0 
N 21 73 0 
N 1 91 0 
N 67 65 0 
N 21 87 0 
N 57 67 0 
N 96 27 0 
N 67 75 0 
N 95 24 0 
N 47 33 0 
N 95 30 0 
N 77 6 0 
N 64 91 0 
N 64 29 0 
N 45 93 0 
N 63 7 0 
N 35 67 0 
N 65 28 0 
N 60 41 0 
N 96 85 0 
N 92 59 0 
N 25 59 0 
N 22 67 0 
N 16 7 0 
N 96 25 0 
N 28 17 0 
N 11 70 0 
N 63 70 0 
N 57 65 0 
N 89 87 0 
N 25 85 0 
N 5 55 0 
N 87 25 0 
N 99 66 0 
N 60 27 0 
N 20 45 0 
N 98 81 0 
N 75 39 0 
N 92 53 0 
N 77 25 0 
N 97 69 0 
N 89 81 0 
N 58 47 0 
N 41 25 0 
N 89 78 0 
N 69 57 0 
N 79 55 0 
N 27 31 0 
N 71 84 0 
N 5 37 0 
N 27 12 0 
N 75 55 0 
N 17 67 0 
N 95 52 0 
N 9 24 0 
N 55 51 0 
N 23 1 0 
N 31 12 0 
N 21 66 0 
N 14 67 0 
N 16 15 0 
N 83 91 0 
N 50 61 0 
N 39 89 0 
N 19 25 0 
N 11 33 0 
N 14 27 0 
N 76 45 0 
N 59 39 0 
N 54 27 0 
N 19 79 0 
N 11 65 0 
N 5 35 0 
N 95 47 0 
N 10 27 0 
N 45 75 0 
N 93 91 0 
N 55 39 0 
N 75 47 0 
N 88 77 0 
N 61 44 0 
N 89 97 0 
N 19 11 0 
N 37 90 0 
N 13 5 0 
N 41 49 0 
N 59 57 0 
N 5 25 0 
N 31 36 0 
N 51 66 0 
N 5 33 0 
N 56 73 0 
N 17 16 0 
N 39 75 0 
N 73 24 0 
N 28 77 0 
N 63 23 0 
N 89 89 0 
N 43 39 0 
N 88 11 0 
N 89 6 0 
N 48 7 0 
N 41 23 0 
N 63 87 0 
N 63 10 0 
N 45 7 0 
N 29 75 0 
N 41 41 0 
N 17 66 0 
N 17 46 0 
N 91 47 0 
N 75 91 0 
N 7 57 0 
N 25 87 0 
N 13 99 0 
N 51 60 0 
N 57 8 0 
N 69 76 0 
N 10 47 0 
N 73 5 0 
N 24 87 0 
N 97 71 0 
N 37 53 0 
N 41 0 0 
N 11 31 0 
N 32 99 0 
N 34 75 0 
N 29 5 0 
N 69 38 0 
N 3 8 0 
N 49 23 0 
N 70 75 0 
N 4 15 0 
N 93 48 0 
N 25 69 0 
N 39 12 0 
N 68 5 0 
N 63 24 0 
N 95 1 0 
N 51 88 0 
N 13 47 0 
N 47 35 0 
N 87 4 0 
N 91 45 0 
N 67 21 0 
N 91 50 0 
N 42 31 0 
N 18 99 0 
N 9 95 0 
N 77 4 0 
N 80 65 0 
N 39 32 0 
N 30 37 0 
N 55 6 0 
N 78 41 0 
N 12 17 0 
N 15 95 0 
N 89 4 0 
N 49 89 0 
N 79 91 0 
N 55 87 0 
N 77 21 0 
N 69 83 0 
N 13 49 0 
N 97 63 0 
N 15 17 0 
N 45 28 0 
N 49 34 0 
N 35 0 0 
N 29 96 0 
N 43 58 0 
N 81 18 0 
N 63 31 0 
N 43 75 0 
N 41 31 0 
N 33 35 0 
N 2 37 0 
N 77 13 0 
N 49 43 0 
N 93 43 0 
N 98 43 0 
N 27 79 0 
N 67 11 0 
N 40 79 0 
N 62 27 0 
N 29 66 0 
N 43 7 0 
N 56 49 0 
N 91 11 0 
N 57 28 0 
N 73 91 0 
N 29 2 0 
N 6 91 0 
N 45 9 0 
N 34 77 0 
N 31 64 0 
N 57 51 0 
N 65 49 0 
N 38 25 0 
N 83 47 0 
N 13 27 0 
N 85 95 0 
N 96 77 0 
N 53 90 0 
N 73 27 0 
N 93 47 0 
N 3 33 0 
N 51 3 0 
N 58 27 0 
N 81 84 0 
N 54 75 0 
N 81 87 0 
N 7 65 0 
N 7 47 0 
N 32 61 0 
N 21 83 0 
N 79 37 0 
N 36 63 0 
N 79 69 0 
N 88 45 0 
N 47 31 0 
N 74 7 0 
N 59 7 0 
N 88 7 0 
N 12 41 0 
N 91 10 0 
N 57 47 0 
N 12 53 0 
N 30 33 0 
N 71 47 0 
N 92 41 0 
N 97 77 0 
N 91 30 0 
N 19 85 0 
N 49 65 0 
N 95 67 0 
N 81 11 0 
N 41 51 0 
N 13 63 0 
N 79 20 0 
N 7 25 0 
N 23 85 0 
N 35 24 0 
N 79 13 0 
N 35 65 0 
N 69 51 0 
N 93 54 0 
N 85 45 0 
N 1 9 0 
N 52 87 0 
N 80 67 0 
N 65 5 0 
N 9 63 0 
N 29 1 0 
N 19 68 0 
N 19 44 0 
N 18 27 0 
N 71 78 0 
N 73 85 0 
N 20 65 0 
N 19 66 0 
N 61 76 0 
N 96 79 0 
N 97 28 0 
N 71 18 0 
N 69 31 0 
N 62 31 0 
N 41 59 0 
N 94 65 0 
N 77 68 0 
N 1 4 0 
N 39 83 0 
N 59 33 0 
N 12 29 0 
N 21 88 0 
N 29 65 0 
N 15 12 0 
N 6 27 0 
N 82 65 0 
N 53 75 0 
N 17 69 0 
N 45 87 0 
N 11 13 0 
N 9 3 0 
N 37 15 0 
N 87 18 0 
N 41 48 0 
N 5 65 0 
N 39 87 0 
N 41 67 0 
N 34 11 0 
N 49 59 0 
N 93 39 0 
N 89 95 0 
N 64 27 0 
N 57 41 0 
N 78 19 0 
N 21 90 0 
N 98 27 0 
N 75 21 0 
N 87 12 0 
N 39 85 0 
N 49 21 0 
N 41 13 0 
N 33 28 0 
N 39 77 0 
N 48 41 0 
N 7 61 0 
N 74 17 0 
N 35 76 0 
N 95 69 0 
C 0 0 0 
C 2 0 0 
C 4 0 0 
C 6 0 0 
C 8 0 0 
C 10 0 0 
C 12 0 0 
C 14 0 0 
C 16 0 0 
C 18 0 0 
C 20 0 0 
C 22 0 0 
C 24 0 0 
C 26 0 0 
C 28 0 0 
C 30 0 0 
C 32 0 0 
C 34 0 0 
C 36 0 0 
C 38 0 0 
C 40 0 0 
C 42 0 0 
C 44 0 0 
C 46 0 0 
C 48 0 0 
C 50 0 0 
C 52 0 0 
C 54 0 0 
C 56 0 0 
C 58 0 0 
C 60 0 0 
C 62 0 0 
C 64 0 0 
C 66 0 0 
C 68 0 0 
C 70 0 0 
C 72 0 0 
C 74 0 0 
C 76 0 0 
C 78 0 0 
C 80 0 0 
C 82 0 0 
C 84 0 0 
C 86 0 0 
C 88 0 0 
C 90 0 0 
C 92 0 0 
C 94 0 0 
C 96 0 0 
C 98 0 0 
C 100 0 0 
C 0 2 0 
C 2 2 0 
C 4 2 0 
C 6 2 0 
C 8 2 0 
C 10 2 0 
C 12 2 0 
C 14 2 0 
C 16 2 0 
C 18 2 0 
C 20 2 0 
C 22 2 0 
C 24 2 0 
C 26 2 0 
C 28 2 0 
C 30 2 0 
C 32 2 0 
C 34 2 0 
C 36 2 0 
C 38 2 0 
C 40 2 0 
C 42 2 0 
C 44 2 0 
C 46 2 0 
C 48 2 0 
C 50 2 0 
C 52 2 0 
C 54 2 0 
C 56 2 0 
C 58 2 0 
C 60 2 0 
C 62 2 0 
C 64 2 0 
C 66 2 0 
C 68 2 0 
C 70 2 0 
C 72 2 0 
C 74 2 0 
C 76 2 0 
C 78 2 0 
C 80 2 0 
C 82 2 0 
C 84 2 0 
C 86 2 0 
C 88 2 0 
C 90 2 0 
C 92 2 0 
C 94 2 0 
C 96 2 0 
C 98 2 0 
C 100 2 0 
C 0 4 0 
C 2 4 0 
C 4 4 0 
C 6 4 0 
C 8 4 0 
C 10 4 0 
C 12 4 0 
C 14 4 0 
C 16 4 0 
C 18 4 0 
C 20 4 0 
C 22 4 0 
C 24 4 0 
C 26 4 0 
C 28 4 0 
C 30 4 0 
C 32 4 0 
C 34 4 0 
C 36 4 0 
C 38 4 0 
C 40 4 0 
C 42 4 0 
C 44 4 0 
C 46 4 0 
C 48 4 0 
C 50 4 0 
C 52 4 0 
C 54 4 0 
C 56 4 0 
C 58 4 0 
C 60 4 0 
C 62 4 0 
C 64 4 0 
C 66 4 0 
C 68 4 0 
C 70 4 0 
C 72 4 0 
C 74 4 0 
C 76 4 0 
C 78 4 0 
C 80 4 0 
C 82 4 0 
C 84 4 0 
C 86 4 0 
C 88 4 0 
C 90 4 0 
C 92 4 0 
C 94 4 0 
C 96 4 0 
C 98 4 0 
C 100 4 0 
C 0 6 0 
C 2 6 0 
C 4 6 0 
C 6 6 0 
C 8 6 0 
C 10 6 0 
C 12 6 0 
C 14 6 0 
C 16 6 0 
C 18 6 0 
C 20 6 0 
C 22 6 0 
C 24 6 0 
C 26 6 0 
C 28 6 0 
C 30 6 0 
C 32 6 0 
C 34 6 0 
C 36 6 0 
C 38 6 0 
C 40 6 0 
C 42 6 0 
C 44 6 0 
C 46 6 0 
C 48 6 0 
C 50 6 0 
C 52 6 0 
C 54 6 0 
C 56 6 0 
C 58 6 0 
C 60 6 0 
C 62 6 0 
C 64 6 0 
C 66 6 0 
C 68 6 0 
C 70 6 0 
C 72 6 0 
C 74 6 0 
C 76 6 0 
C 78 6 0 
C 80 6 0 
C 82 6 0 
C 84 6 0 
C 86 6 0 
C 88 6 0 
C 90 6 0 
C 92 6 0 
C 94 6 0 
C 96 6 0 
C 98 6 0 
C 100 6 0 
C 0 8 0 
C 2 8 0 
C 4 8 0 
C 6 8 0 
C 8 8 0 
C 10 8 0 
C 12 8 0 
C 14 8 0 
C 16 8 0 
C 18 8 0 
C 20 8 0 
C 22 8 0 
C 24 8 0 
C 26 8 0 
C 28 8 0 
C 30 8 0 
C 32 8 0 
C 34 8 0 
C 36 8 0 
C 38 8 0 
C 40 8 0 
C 42 8 0 
C 44 8 0 
C 46 8 0 
C 48 8 0 
C 50 8 0 
C 52 8 0 
C 54 8 0 
C 56 8 0 
C 58 8 0 
C 60 8 0 
C 62 8 0 
C 64 8 0 
C 66 8 0 
C 68 8 0 
C 70 8 0 
C 72 8 0 
C 74 8 0 
C 76 8 0 
C 78 8 0 
C 80 8 0 
C 82 8 0 
C 84 8 0 
C 86 8 0 
C 88 8 0 
C 90 8 0 
C 92 8 0 
C 94 8 0 
C 96 8 0 
C 98 8 0 
C 100 8 0 
C 0 10 0 
C 2 10 0 
C 4 10 0 
C 6 10 0 
C 8 10 0 
C 10 10 0 
C 12 10 0 
C 14 10 0 
C 16 10 0 
C 18 10 0 
C 20 10 0 
C 22 10 0 
C 24 10 0 
C 26 10 0 
C 28 10 0 
C 30 10 0 
C 32 10 0 
C 34 10 0 
C 36 10 0 
C 38 10 0 
C 40 10 0 
C 42 10 0 
C 44 10 0 
C 46 10 0 
C 48 10 0 
C 50 10 0 
C 52 10 0 
C 54 10 0 
C 56 10 0 
C 58 10 0 
C 60 10 0 
C 62 10 0 
C 64 10 0 
C 66 10 0 
C 68 10 0 
C 70 10 0 
C 72 10 0 
C 74 10 0 
C 76 10 0 
C 78 10 0 
C 80 10 0 
C 82 10 0 
C 84 10 0 
C 86 10 0 
C 88 10 0 
C 90 10 0 
C 92 10 0 
C 94 10 0 
C 96 10 0 
C 98 10 0 
C 100 10 0 
C 0 12 0 
C 2 12 0 
C 4 12 0 
C 6 12 0 
C 8 12 0 
C 10 12 0 
C 12 12 0 
C 14 12 0 
C 16 12 0 
C 18 12 0 
C 20 12 0 
C 22 12 0 
C 24 12 0 
C 26 12 0 
C 28 12 0 
C 30 12 0 
C 32 12 0 
C 34 12 0 
C 36 12 0 
C 38 12 0 
C 40 12 0 
C 42 12 0 
C 44 12 0 
C 46 12 0 
C 48 12 0 
C 50 12 0 
C 52 12 0 
C 54 12 0 
C 56 12 0 
C 58 12 0 
C 60 12 0 
C 62 12 0 
C 64 12 0 
C 66 12 0 
C 68 12 0 
C 70 12 0 
C 72 12 0 
C 74 12 0 
C 76 12 0 
C 78 12 0 
C 80 12 0 
C 82 12 0 
C 84 12 0 
C 86 12 0 
C 88 12 0 
C 90 12 0 
C 92 12 0 
C 94 12 0 
C 96 12 0 
C 98 12 0 
C 100 12 0 
C 0 14 0 
C 2 14 0 
C 4 14 0 
C 6 14 0 
C 8 14 0 
C 10 14 0 
C 12 14 0 
C 14 14 0 
C 16 14 0 
C 18 14 0 
C 20 14 0 
C 22 14 0 
C 24 14 0 
C 26 14 0 
C 28 14 0 
C 30 14 0 
C 32 14 0 
C 34 14 0 
C 36 14 0 
C 38 14 0 
C 40 14 0 
C 42 14 0 
C 44 14 0 
C 46 14 0 
C 48 14 0 
C 50 14 0 
C 52 14 0 
C 54 14 0 
C 56 14 0 
C 58 14 0 
C 60 14 0 
C 62 14 0 
C 64 14 0 
C 66 14 0 
C 68 14 0 
C 70 14 0 
C 72 14 0 
C 74 14 0 
C 76 14 0 
C 78 14 0 
C 80 14 0 
C 82 14 0 
C 84 14 0 
C 86 14 0 
C 88 14 0 
C 90 14 0 
C 92 14 0 
C 94 14 0 
C 96 14 0 
C 98 14 0 
C 100 14 0 
C 0 16 0 
C 2 16 0 
C 4 16 0 
C 6 16 0 
C 8 16 0 
C 10 16 0 
C 12 16 0 
C 14 16 0 
C 16 16 0 
C 18 16 0 
C 20 16 0 
C 22 16 0 
C 24 16 0 
C 26 16 0 
C 28 16 0 
C 30 16 0 
C 32 16 0 
C 34 16 0 
C 36 16 0 
C 38 16 0 
C 40 16 0 
C 42 16 0 
C 44 16 0 
C 46 16 0 
C 48 16 0 
C 50 16 0 
C 52 16 0 
C 54 16 0 
C 56 16 0 
C 58 16 0 
C 60 16 0 
C 62 16 0 
C 64 16 0 
C 66 16 0 
C 68 16 0 
C 70 16 0 
C 72 16 0 
C 74 16 0 
C 76 16 0 
C 78 16 0 
C 80 16 0 
C 82 16 0 
C 84 16 0 
C 86 16 0 
C 88 16 0 
C 90 16 0 
C 92 16 0 
C 94 16 0 
C 96 16 0 
C 98 16 0 
C 100 16 0 
C 0 18 0 
C 2 18 0 
C 4 18 0 
C 6 18 0 
C 8 18 0 
C 10 18 0 
C 12 18 0 
C 14 18 0 
C 16 18 0 
C 18 18 0 
C 20 18 0 
C 22 18 0 
C 24 18 0 
C 26 18 0 
C 28 18 0 
C 30 18 0 
C 32 18 0 
C 34 18 0 
C 36 18 0 
C 38 18 0 
C 40 18 0 
C 42 18 0 
C 44 18 0 
C 46 18 0 
C 48 18 0 
C 50 18 0 
C 52 18 0 
C 54 18 0 
C 56 18 0 
C 58 18 0 
C 60 18 0 
C 62 18 0 
C 64 18 0 
C 66 18 0 
C 68 18 0 
C 70 18 0 
C 72 18 0 
C 74 18 0 
C 76 18 0 
C 78 18 0 
C 80 18 0 
C 82 18 0 
C 84 18 0 
C 86 18 0 
C 88 18 0 
C 90 18 0 
C 92 18 0 
C 94 18 0 
C 96 18 0 
C 98 18 0 
C 100 18 0 
C 0 20 0 
C 2 20 0 
C 4 20 0 
C 6 20 0 
C 8 20 0 
C 10 20 0 
C 12 20 0 
C 14 20 0 
C 16 20 0 
C 18 20 0 
C 20 20 0 
C 22 20 0 
C 24 20 0 
C 26 20 0 
C 28 20 0 
C 30 20 0 
C 32 20 0 
C 34 20 0 
C 36 20 0 
C 38 20 0 
C 40 20 0 
C 42 20 0 
C 44 20 0 
C 46 20 0 
C 48 20 0 
C 50 20 0 
C 52 20 0 
C 54 20 0 
C 56 20 0 
C 58 20 0 
C 60 20 0 
C 62 20 0 
C 64 20 0 
C 66 20 0 
C 68 20 0 
C 70 20 0 
C 72 20 0 
C 74 20 0 
C 76 20 0 
C 78 20 0 
C 80 20 0 
C 82 20 0 
C 84 20 0 
C 86 20 0 
C 88 20 0 
C 90 20 0 
C 92 20 0 
C 94 20 0 
C 96 20 0 
C 98 20 0 
C 100 20 0 
C 0 22 0 
C 2 22 0 
C 4 22 0 
C 6 22 0 
C 8 22 0 
C 10 22 0 
C 12 22 0 
C 14 22 0 
C 16 22 0 
C 18 22 0 
C 20 22 0 
C 22 22 0 
C 24 22 0 
C 26 22 0 
C 28 22 0 
C 30 22 0 
C 32 22 0 
C 34 22 0 
C 36 22 0 
C 38 22 0 
C 40 22 0 
C 42 22 0 
C 44 22 0 
C 46 22 0 
C 48 22 0 
C 50 22 0 
C 52 22 0 
C 54 22 0 
C 56 22 0 
C 58 22 0 
C 60 22 0 
C 62 22 0 
C 64 22 0 
C 66 22 0 
C 68 22 0 
C 70 22 0 
C 72 22 0 
C 74 22 0 
C 76 22 0 
C 78 22 0 
C 80 22 0 
C 82 22 0 
C 84 22 0 
C 86 22 0 
C 88 22 0 
C 90 22 0 
C 92 22 0 
C 94 22 0 
C 96 22 0 
C 98 22 0 
C 100 22 0 
C 0 24 0 
C 2 24 0 
C 4 24 0 
C 6 24 0 
C 8 24 0 
C 10 24 0 
C 12 24 0 
C 14 24 0 
C 16 24 0 
C 18 24 0 
C 20 24 0 
C 22 24 0 
C 24 24 0 
C 26 24 0 
C 28 24 0 
C 30 24 0 
C 32 24 0 
C 34 24 0 
C 36 24 0 
C 38 24 0 
C 40 24 0 
C 42 24 0 
C 44 24 0 
C 46 24 0 
C 48 24 0 
C 50 24 0 
C 52 24 0 
C 54 24 0 
C 56 24 0 
C 58 24 0 
C 60 24 0 
C 62 24 0 
C 64 24 0 
C 66 24 0 
C 68 24 0 
C 70 24 0 
C 72 24 0 
C 74 24 0 
C 76 24 0 
C 78 24 0 
C 80 24 0 
C 82 24 0 
C 84 24 0 
C 86 24 0 
C 88 24 0 
C 90 24 0 
C 92 24 0 
C 94 24 0 
C 96 24 0 
C 98 24 0 
C 100 24 0 
C 0 26 0 
C 2 26 0 
C 4 26 0 
C 6 26 0 
C 8 26 0 
C 10 26 0 
C 12 26 0 
C 14 26 0 
C 16 26 0 
C 18 26 0 
C 20 26 0 
C 22 26 0 
C 24 26 0 
C 26 26 0 
C 28 26 0 
C 30 26 0 
C 32 26 0 
C 34 26 0 
C 36 26 0 
C 38 26 0 
C 40 26 0 
C 42 26 0 
C 44 26 0 
C 46 26 0 
C 48 26 0 
C 50 26 0 
C 52 26 0 
C 54 26 0 
C 56 26 0 
C 58 26 0 
C 60 26 0 
C 62 26 0 
C 64 26 0 
C 66 26 0 
C 68 26 0 
C 70 26 0 
C 72 26 0 
C 74 26 0 
C 76 26 0 
C 78 26 0 
C 80 26 0 
C 82 26 0 
C 84 26 0 
C 86 26 0 
C 88 26 0 
C 90 26 0 
C 92 26 0 
C 94 26 0 
C 96 26 0 
C 98 26 0 
C 100 26 0 
C 0 28 0 
C 2 28 0 
C 4 28 0 
C 6 28 0 
C 8 28 0 
C 10 28 0 
C 12 28 0 
C 14 28 0 
C 16 28 0 
C 18 28 0 
C 20 28 0 
C 22 28 0 
C 24 28 0 
C 26 28 0 
C 28 28 0 
C 30 28 0 
C 32 28 0 
C 34 28 0 
C 36 28 0 
C 38 28 0 
C 40 28 0 
C 42 28 0 
C 44 28 0 
C 46 28 0 
C 48 28 0 
C 50 28 0 
C 52 28 0 
C 54 28 0 
C 56 28 0 
C 58 28 0 
C 60 28 0 
C 62 28 0 
C 64 28 0 
C 66 28 0 
C 68 28 0 
C 70 28 0 
C 72 28 0 
C 74 28 0 
C 76 28 0 
C 78 28 0 
C 80 28 0 
C 82 28 0 
C 84 28 0 
C 86 28 0 
C 88 28 0 
C 90 28 0 
C 92 28 0 
C 94 28 0 
C 96 28 0 
C 98 28 0 
C 100 28 0 
C 0 30 0 
C 2 30 0 
C 4 30 0 
C 6 30 0 
C 8 30 0 
C 10 30 0 
C 12 30 0 
C 14 30 0 
C 16 30 0 
C 18 30 0 
C 20 30 0 
C 22 30 0 
C 24 30 0 
C 26 30 0 
C 28 30 0 
C 30 30 0 
C 32 30 0 
C 34 30 0 
C 36 30 0 
C 38 30 0 
C 40 30 0 
C 42 30 0 
C 44 30 0 
C 46 30 0 
C 48 30 0 
C 50 30 0 
C 52 30 0 
C 54 30 0 
C 56 30 0 
C 58 30 0 
C 60 30 0 
C 62 30 0 
C 64 30 0 
C 66 30 0 
C 68 30 0 
C 70 30 0 
C 72 30 0 
C 74 30 0 
C 76 30 0 
C 78 30 0 
C 80 30 0 
C 82 30 0 
C 84 30 0 
C 86 30 0 
C 88 30 0 
C 90 30 0 
C 92 30 0 
C 94 30 0 
C 96 30 0 
C 98 30 0 
C 100 30 0 
C 0 32 0 
C 2 32 0 
C 4 32 0 
C 6 32 0 
C 8 32 0 
C 10 32 0 
C 12 32 0 
C 14 32 0 
C 16 32 0 
C 18 32 0 
C 20 32 0 
C 22 32 0 
C 24 32 0 
C 26 32 0 
C 28 32 0 
C 30 32 0 
C 32 32 0 
C 34 32 0 
C 36 32 0 
C 38 32 0 
C 40 32 0 
C 42 32 0 
C 44 32 0 
C 46 32 0 
C 48 32 0 
C 50 32 0 
C 52 32 0 
C 54 32 0 
C 56 32 0 
C 58 32 0 
C 60 32 0 
C 62 32 0 
C 64 32 0 
C 66 32 0 
C 68 32 0 
C 70 32 0 
C 72 32 0 
C 74 32 0 
C 76 32 0 
C 78 32 0 
C 80 32 0 
C 82 32 0 
C 84 32 0 
C 86 32 0 
C 88 32 0 
C 90 32 0 
C 92 32 0 
C 94 32 0 
C 96 32 0 
C 98 32 0 
C 100 32 0 
C 0 34 0 
C 2 34 0 
C 4 34 0 
C 6 34 0 
C 8 34 0 
C 10 34 0 
C 12 34 0 
C 14 34 0 
C 16 34 0 
C 18 34 0 
C 20 34 0 
C 22 34 0 
C 24 34 0 
C 26 34 0 
C 28 34 0 
C 30 34 0 
C 32 34 0 
C 34 34 0 
C 36 34 0 
C 38 34 0 
C 40 34 0 
C 42 34 0 
C 44 34 0 
C 46 34 0 
C 48 34 0 
C 50 34 0 
C 52 34 0 
C 54 34 0 
C 56 34 0 
C 58 34 0 
C 60 34 0 
C 62 34 0 
C 64 34 0 
C 66 34 0 
C 68 34 0 
C 70 34 0 
C 72 34 0 
C 74 34 0 
C 76 34 0 
C 78 34 0 
C 80 34 0 
C 82 34 0 
C 84 34 0 
C 86 34 0 
C 88 34 0 
C 90 34 0 
C 92 34 0 
C 94 34 0 
C 96 34 0 
C 98 34 0 
C 100 34 0 
C 0 36 0 
C 2 36 0 
C 4 36 0 
C 6 36 0 
C 8 36 0 
C 10 36 0 
C 12 36 0 
C 14 36 0 
C 16 36 0 
C 18 36 0 
C 20 36 0 
C 22 36 0 
C 24 36 0 
C 26 36 0 
C 28 36 0 
C 30 36 0 
C 32 36 0 
C 34 36 0 
C 36 36 0 
C 38 36 0 
C 40 36 0 
C 42 36 0 
C 44 36 0 
C 46 36 0 
C 48 36 0 
C 50 36 0 
C 52 36 0 
C 54 36 0 
C 56 36 0 
C 58 36 0 
C 60 36 0 
C 62 36 0 
C 64 36 0 
C 66 36 0 
C 68 36 0 
C 70 36 0 
C 72 36 0 
C 74 36 0 
C 76 36 0 
C 78 36 0 
C 80 36 0 
C 82 36 0 
C 84 36 0 
C 86 36 0 
C 88 36 0 
C 90 36 0 
C 92 36 0 
C 94 36 0 
C 96 36 0 
C 98 36 0 
C 100 36 0 
C 0 38 0 
C 2 38 0 
C 4 38 0 
C 6 38 0 
C 8 38 0 
C 10 38 0 
C 12 38 0 
C 14 38 0 
C 16 38 0 
C 18 38 0 
C 20 38 0 
C 22 38 0 
C 24 38 0 
C 26 38 0 
C 28 38 0 
C 30 38 0 
C 32 38 0 
C 34 38 0 
C 36 38 0 
C 38 38 0 
C 40 38 0 
C 42 38 0 
C 44 38 0 
C 46 38 0 
C 48 38 0 
C 50 38 0 
C 52 38 0 
C 54 38 0 
C 56 38 0 
C 58 38 0 
C 60 38 0 
C 62 38 0 
C 64 38 0 
C 66 38 0 
C 68 38 0 
C 70 38 0 
C 72 38 0 
C 74 38 0 
C 76 38 0 
C 78 38 0 
C 80 38 0 
C 82 38 0 
C 84 38 0 
C 86 38 0 
C 88 38 0 
C 90 38 0 
C 92 38 0 
C 94 38 0 
C 96 38 0 
C 98 38 0 
C 100 38 0 
C 0 40 0 
C 2 40 0 
C 4 40 0 
C 6 40 0 
C 8 40 0 
C 10 40 0 
C 12 40 0 
C 14 40 0 
C 16 40 0 
C 18 40 0 
C 20 40 0 
C 22 40 0 
C 24 40 0 
C 26 40 0 
C 28 40 0 
C 30 40 0 
C 32 40 0 
C 34 40 0 
C 36 40 0 
C 38 40 0 
C 40 40 0 
C 42 40 0 
C 44 40 0 
C 46 40 0 
C 48 40 0 
C 50 40 0 
C 52 40 0 
C 54 40 0 
C 56 40 0 
C 58 40 0 
C 60 40 0 
C 62 40 0 
C 64 40 0 
C 66 40 0 
C 68 40 0 
C 70 40 0 
C 72 40 0 
C 74 40 0 
C 76 40 0 
C 78 40 0 
C 80 40 0 
C 82 40 0 
C 84 40 0 
C 86 40 0 
C 88 40 0 
C 90 40 0 
C 92 40 0 
C 94 40 0 
C 96 40 0 
C 98 40 0 
C 100 40 0 
C 0 42 0 
C 2 42 0 
C 4 42 0 
C 6 42 0 
C 8 42 0 
C 10 42 0 
C 12 42 0 
C 14 42 0 
C 16 42 0 
C 18 42 0 
C 20 42 0 
C 22 42 0 
C 24 42 0 
C 26 42 0 
C 28 42 0 
C 30 42 0 
C 32 42 0 
C 34 42 0 
C 36 42 0 
C 38 42 0 
C 40 42 0 
C 42 42 0 
C 44 42 0 
C 46 42 0 
C 48 42 0 
C 50 42 0 
C 52 42 0 
C 54 42 0 
C 56 42 0 
C 58 42 0 
C 60 42 0 
C 62 42 0 
C 64 42 0 
C 66 42 0 
C 68 42 0 
C 70 42 0 
C 72 42 0 
C 74 42 0 
C 76 42 0 
C 78 42 0 
C 80 42 0 
C 82 42 0 
C 84 42 0 
C 86 42 0 
C 88 42 0 
C 90 42 0 
C 92 42 0 
C 94 42 0 
C 96 42 0 
C 98 42 0 
C 100 42 0 
C 0 44 0 
C 2 44 0 
C 4 44 0 
C 6 44 0 
C 8 44 0 
C 10 44 0 
C 12 44 0 
C 14 44 0 
C 16 44 0 
C 18 44 0 
C 20 44 0 
C 22 44 0 
C 24 44 0 
C 26 44 0 
C 28 44 0 
C 30 44 0 
C 32 44 0 
C 34 44 0 
C 36 44 0 
C 38 44 0 
C 40 44 0 
C 42 44 0 
C 44 44 0 
C 46 44 0 
C 48 44 0 
C 50 44 0 
C 52 44 0 
C 54 44 0 
C 56 44 0 
C 58 44 0 
C 60 44 0 
C 62 44 0 
C 64 44 0 
C 66 44 0 
C 68 44 0 
C 70 44 0 
C 72 44 0 
C 74 44 0 
C 76 44 0 
C 78 44 0 
C 80 44 0 
C 82 44 0 
C 84 44 0 
C 86 44 0 
C 88 44 0 
C 90 44 0 
C 92 44 0 
C 94 44 0 
C 96 44 0 
C 98 44 0 
C 100 44 0 
C 0 46 0 
C 2 46 0 
C 4 46 0 
C 6 46 0 
C 8 46 0 
C 10 46 0 
C 12 46 0 
C 14 46 0 
C 16 46 0 
C 18 46 0 
C 20 46 0 
C 22 46 0 
C 24 46 0 
C 26 46 0 
C 28 46 0 
C 30 46 0 
C 32 46 0 
C 34 46 0 
C 36 46 0 
C 38 46 0 
C 40 46 0 
C 42 46 0 
C 44 46 0 
C 46 46 0 
C 48 46 0 
C 50 46 0 
C 52 46 0 
C 54 46 0 
C 56 46 0 
C 58 46 0 
C 60 46 0 
C 62 46 0 
C 64 46 0 
C 66 46 0 
C 68 46 0 
C 70 46 0 
C 72 46 0 
C 74 46 0 
C 76 46 0 
C 78 46 0 
C 80 46 0 
C 82 46 0 
C 84 46 0 
C 86 46 0 
C 88 46 0 
C 90 46 0 
C 92 46 0 
C 94 46 0 
C 96 46 0 
C 98 46 0 
C 100 46 0 
C 0 48 0 
C 2 48 0 
C 4 48 0 
C 6 48 0 
C 8 48 0 
C 10 48 0 
C 12 48 0 
C 14 48 0 
C 16 48 0 
C 18 48 0 
C 20 48 0 
C 22 48 0 
C 24 48 0 
C 26 48 0 
C 28 48 0 
C 30 48 0 
C 32 48 0 
C 34 48 0 
C 36 48 0 
C 38 48 0 
C 40 48 0 
C 42 48 0 
C 44 48 0 
C 46 48 0 
C 48 48 0 
C 50 48 0 
C 52 48 0 
C 54 48 0 
C 56 48 0 
C 58 48 0 
C 60 48 0 
C 62 48 0 
C 64 48 0 
C 66 48 0 
C 68 48 0 
C 70 48 0 
C 72 48 0 
C 74 48 0 
C 76 48 0 
C 78 48 0 
C 80 48 0 
C 82 48 0 
C 84 48 0 
C 86 48 0 
C 88 48 0 
C 90 48 0 
C 92 48 0 
C 94 48 0 
C 96 48 0 
C 98 48 0 
C 100 48 0 
C 0 50 0 
C 2 50 0 
C 4 50 0 
C 6 50 0 
C 8 50 0 
C 10 50 0 
C 12 50 0 
C 14 50 0 
C 16 50 0 
C 18 50 0 
C 20 50 0 
C 22 50 0 
C 24 50 0 
C 26 50 0 
C 28 50 0 
C 30 50 0 
C 32 50 0 
C 34 50 0 
C 36 50 0 
C 38 50 0 
C 40 50 0 
C 42 50 0 
C 44 50 0 
C 46 50 0 
C 48 50 0 
C 50 50 0 
C 52 50 0 
C 54 50 0 
C 56 50 0 
C 58 50 0 
C 60 50 0 
C 62 50 0 
C 64 50 0 
C 66 50 0 
C 68 50 0 
C 70 50 0 
C 72 50 0 
C 74 50 0 
C 76 50 0 
C 78 50 0 
C 80 50 0 
C 82 50 0 
C 84 50 0 
C 86 50 0 
C 88 50 0 
C 90 50 0 
C 92 50 0 
C 94 50 0 
C 96 50 0 
C 98 50 0 
C 100 50 0 
C 0 52 0 
C 2 52 0 
C 4 52 0 
C 6 52 0 
C 8 52 0 
C 10 52 0 
C 12 52 0 
C 14 52 0 
C 16 52 0 
C 18 52 0 
C 20 52 0 
C 22 52 0 
C 24 52 0 
C 26 52 0 
C 28 52 0 
C 30 52 0 
C 32 52 0 
C 34 52 0 
C 36 52 0 
C 38 52 0 
C 40 52 0 
C 42 52 0 
C 44 52 0 
C 46 52 0 
C 48 52 0 
C 50 52 0 
C 52 52 0 
C 54 52 0 
C 56 52 0 
C 58 52 0 
C 60 52 0 
C 62 52 0 
C 64 52 0 
C 66 52 0 
C 68 52 0 
C 70 52 0 
C 72 52 0 
C 74 52 0 
C 76 52 0 
C 78 52 0 
C 80 52 0 
C 82 52 0 
C 84 52 0 
C 86 52 0 
C 88 52 0 
C 90 52 0 
C 92 52 0 
C 94 52 0 
C 96 52 0 
C 98 52 0 
C 100 52 0 
C 0 54 0 
C 2 54 0 
C 4 54 0 
C 6 54 0 
C 8 54 0 
C 10 54 0 
C 12 54 0 
C 14 54 0 
C 16 54 0 
C 18 54 0 
C 20 54 0 
C 22 54 0 
C 24 54 0 
C 26 54 0 
C 28 54 0 
C 30 54 0 
C 32 54 0 
C 34 54 0 
C 36 54 0 
C 38 54 0 
C 40 54 0 
C 42 54 0 
C 44 54 0 
C 46 54 0 
C 48 54 0 
C 50 54 0 
C 52 54 0 
C 54 54 0 
C 56 54 0 
C 58 54 0 
C 60 54 0 
C 62 54 0 
C 64 54 0 
C 66 54 0 
C 68 54 0 
C 70 54 0 
C 72 54 0 
C 74 54 0 
C 76 54 0 
C 78 54 0 
C 80 54 0 
C 82 54 0 
C 84 54 0 
C 86 54 0 
C 88 54 0 
C 90 54 0 
C 92 54 0 
C 94 54 0 
C 96 54 0 
C 98 54 0 
C 100 54 0 
C 0 56 0 
C 2 56 0 
C 4 56 0 
C 6 56 0 
C 8 56 0 
C 10 56 0 
C 12 56 0 
C 14 56 0 
C 16 56 0 
C 18 56 0 
C 20 56 0 
C 22 56 0 
C 24 56 0 
C 26 56 0 
C 28 56 0 
C 30 56 0 
C 32 56 0 
C 34 56 0 
C 36 56 0 
C 38 56 0 
C 40 56 0 
C 42 56 0 
C 44 56 0 
C 46 56 0 
C 48 56 0 
C 50 56 0 
C 52 56 0 
C 54 56 0 
C 56 56 0 
C 58 56 0 
C 60 56 0 
C 62 56 0 
C 64 56 0 
C 66 56 0 
C 68 56 0 
C 70 56 0 
C 72 56 0 
C 74 56 0 
C 76 56 0 
C 78 56 0 
C 80 56 0 
C 82 56 0 
C 84 56 0 
C 86 56 0 
C 88 56 0 
C 90 56 0 
C 92 56 0 
C 94 56 0 
C 96 56 0 
C 98 56 0 
C 100 56 0 
C 0 58 0 
C 2 58 0 
C 4 58 0 
C 6 58 0 
C 8 58 0 
C 10 58 0 
C 12 58 0 
C 14 58 0 
C 16 58 0 
C 18 58 0 
C 20 58 0 
C 22 58 0 
C 24 58 0 
C 26 58 0 
C 28 58 0 
C 30 58 0 
C 32 58 0 
C 34 58 0 
C 36 58 0 
C 38 58 0 
C 40 58 0 
C 42 58 0 
C 44 58 0 
C 46 58 0 
C 48 58 0 
C 50 58 0 
C 52 58 0 
C 54 58 0 
C 56 58 0 
C 58 58 0 
C 60 58 0 
C 62 58 0 
C 64 58 0 
C 66 58 0 
C 68 58 0 
C 70 58 0 
C 72 58 0 
C 74 58 0 
C 76 58 0 
C 78 58 0 
C 80 58 0 
C 82 58 0 
C 84 58 0 
C 86 58 0 
C 88 58 0 
C 90 58 0 
C 92 58 0 
C 94 58 0 
C 96 58 0 
C 98 58 0 
C 100 58 0 
C 0 60 0 
C 2 60 0 
C 4 60 0 
C 6 60 0 
C 8 60 0 
C 10 60 0 
C 12 60 0 
C 14 60 0 
C 16 60 0 
C 18 60 0 
C 20 60 0 
C 22 60 0 
C 24 60 0 
C 26 60 0 
C 28 60 0 
C 30 60 0 
C 32 60 0 
C 34 60 0 
C 36 60 0 
C 38 60 0 
C 40 60 0 
C 42 60 0 
C 44 60 0 
C 46 60 0 
C 48 60 0 
C 50 60 0 
C 52 60 0 
C 54 60 0 
C 56 60 0 
C 58 60 0 
C 60 60 0 
C 62 60 0 
C 64 60 0 
C 66 60 0 
C 68 60 0 
C 70 60 0 
C 72 60 0 
C 74 60 0 
C 76 60 0 
C 78 60 0 
C 80 60 0 
C 82 60 0 
C 84 60 0 
C 86 60 0 
C 88 60 0 
C 90 60 0 
C 92 60 0 
C 94 60 0 
C 96 60 0 
C 98 60 0 
C 100 60 0 
C 0 62 0 
C 2 62 0 
C 4 62 0 
C 6 62 0 
C 8 62 0 
C 10 62 0 
C 12 62 0 
C 14 62 0 
C 16 62 0 
C 18 62 0 
C 20 62 0 
C 22 62 0 
C 24 62 0 
C 26 62 0 
C 28 62 0 
C 30 62 0 
C 32 62 0 
C 34 62 0 
C 36 62 0 
C 38 62 0 
C 40 62 0 
C 42 62 0 
C 44 62 0 
C 46 62 0 
C 48 62 0 
C 50 62 0 
C 52 62 0 
C 54 62 0 
C 56 62 0 
C 58 62 0 
C 60 62 0 
C 62 62 0 
C 64 62 0 
C 66 62 0 
C 68 62 0 
C 70 62 0 
C 72 62 0 
C 74 62 0 
C 76 62 0 
C 78 62 0 
C 80 62 0 
C 82 62 0 
C 84 62 0 
C 86 62 0 
C 88 62 0 
C 90 62 0 
C 92 62 0 
C 94 62 0 
C 96 62 0 
C 98 62 0 
C 100 62 0 
C 0 64 0 
C 2 64 0 
C 4 64 0 
C 6 64 0 
C 8 64 0 
C 10 64 0 
C 12 64 0 
C 14 64 0 
C 16 64 0 
C 18 64 0 
C 20 64 0 
C 22 64 0 
C 24 64 0 
C 26 64 0 
C 28 64 0 
C 30 64 0 
C 32 64 0 
C 34 64 0 
C 36 64 0 
C 38 64 0 
C 40 64 0 
C 42 64 0 
C 44 64 0 
C 46 64 0 
C 48 64 0 
C 50 64 0 
C 52 64 0 
C 54 64 0 
C 56 64 0 
C 58 64 0 
C 60 64 0 
C 62 64 0 
C 64 64 0 
C 66 64 0 
C 68 64 0 
C 70 64 0 
C 72 64 0 
C 74 64 0 
C 76 64 0 
C 78 64 0 
C 80 64 0 
C 82 64 0 
C 84 64 0 
C 86 64 0 
C 88 64 0 
C 90 64 0 
C 92 64 0 
C 94 64 0 
C 96 64 0 
C 98 64 0 
C 100 64 0 
C 0 66 0 
C 2 66 0 
C 4 66 0 
C 6 66 0 
C 8 66 0 
C 10 66 0 
C 12 66 0 
C 14 66 0 
C 16 66 0 
C 18 66 0 
C 20 66 0 
C 22 66 0 
C 24 66 0 
C 26 66 0 
C 28 66 0 
C 30 66 0 
C 32 66 0 
C 34 66 0 
C 36 66 0 
C 38 66 0 
C 40 66 0 
C 42 66 0 
C 44 66 0 
C 46 66 0 
C 48 66 0 
C 50 66 0 
C 52 66 0 
C 54 66 0 
C 56 66 0 
C 58 66 0 
C 60 66 0 
C 62 66 0 
C 64 66 0 
C 66 66 0 
C 68 66 0 
C 70 66 0 
C 72 66 0 
C 74 66 0 
C 76 66 0 
C 78 66 0 
C 80 66 0 
C 82 66 0 
C 84 66 0 
C 86 66 0 
C 88 66 0 
C 90 66 0 
C 92 66 0 
C 94 66 0 
C 96 66 0 
C 98 66 0 
C 100 66 0 
C 0 68 0 
C 2 68 0 
C 4 68 0 
C 6 68 0 
C 8 68 0 
C 10 68 0 
C 12 68 0 
C 14 68 0 
C 16 68 0 
C 18 68 0 
C 20 68 0 
C 22 68 0 
C 24 68 0 
C 26 68 0 
C 28 68 0 
C 30 68 0 
C 32 68 0 
C 34 68 0 
C 36 68 0 
C 38 68 0 
C 40 68 0 
C 42 68 0 
C 44 68 0 
C 46 68 0 
C 48 68 0 
C 50 68 0 
C 52 68 0 
C 54 68 0 
C 56 68 0 
C 58 68 0 
C 60 68 0 
C 62 68 0 
C 64 68 0 
C 66 68 0 
C 68 68 0 
C 70 68 0 
C 72 68 0 
C 74 68 0 
C 76 68 0 
C 78 68 0 
C 80 68 0 
C 82 68 0 
C 84 68 0 
C 86 68 0 
C 88 68 0 
C 90 68 0 
C 92 68 0 
C 94 68 0 
C 96 68 0 
C 98 68 0 
C 100 68 0 
C 0 70 0 
C 2 70 0 
C 4 70 0 
C 6 70 0 
C 8 70 0 
C 10 70 0 
C 12 70 0 
C 14 70 0 
C 16 70 0 
C 18 70 0 
C 20 70 0 
C 22 70 0 
C 24 70 0 
C 26 70 0 
C 28 70 0 
C 30 70 0 
C 32 70 0 
C 34 70 0 
C 36 70 0 
C 38 70 0 
C 40 70 0 
C 42 70 0 
C 44 70 0 
C 46 70 0 
C 48 70 0 
C 50 70 0 
C 52 70 0 
C 54 70 0 
C 56 70 0 
C 58 70 0 
C 60 70 0 
C 62 70 0 
C 64 70 0 
C 66 70 0 
C 68 70 0 
C 70 70 0 
C 72 70 0 
C 74 70 0 
C 76 70 0 
C 78 70 0 
C 80 70 0 
C 82 70 0 
C 84 70 0 
C 86 70 0 
C 88 70 0 
C 90 70 0 
C 92 70 0 
C 94 70 0 
C 96 70 0 
C 98 70 0 
C 100 70 0 
C 0 72 0 
C 2 72 0 
C 4 72 0 
C 6 72 0 
C 8 72 0 
C 10 72 0 
C 12 72 0 
C 14 72 0 
C 16 72 0 
C 18 72 0 
C 20 72 0 
C 22 72 0 
C 24 72 0 
C 26 72 0 
C 28 72 0 
C 30 72 0 
C 32 72 0 
C 34 72 0 
C 36 72 0 
C 38 72 0 
C 40 72 0 
C 42 72 0 
C 44 72 0 
C 46 72 0 
C 48 72 0 
C 50 72 0 
C 52 72 0 
C 54 72 0 
C 56 72 0 
C 58 72 0 
C 60 72 0 
C 62 72 0 
C 64 72 0 
C 66 72 0 
C 68 72 0 
C 70 72 0 
C 72 72 0 
C 74 72 0 
C 76 72 0 
C 78 72 0 
C 80 72 0 
C 82 72 0 
C 84 72 0 
C 86 72 0 
C 88 72 0 
C 90 72 0 
C 92 72 0 
C 94 72 0 
C 96 72 0 
C 98 72 0 
C 100 72 0 
C 0 74 0 
C 2 74 0 
C 4 74 0 
C 6 74 0 
C 8 74 0 
C 10 74 0 
C 12 74 0 
C 14 74 0 
C 16 74 0 
C 18 74 0 
C 20 74 0 
C 22 74 0 
C 24 74 0 
C 26 74 0 
C 28 74 0 
C 30 74 0 
C 32 74 0 
C 34 74 0 
C 36 74 0 
C 38 74 0 
C 40 74 0 
C 42 74 0 
C 44 74 0 
C 46 74 0 
C 48 74 0 
C 50 74 0 
C 52 74 0 
C 54 74 0 
C 56 74 0 
C 58 74 0 
C 60 74 0 
C 62 74 0 
C 64 74 0 
C 66 74 0 
C 68 74 0 
C 70 74 0 
C 72 74 0 
C 74 74 0 
C 76 74 0 
C 78 74 0 
C 80 74 0 
C 82 74 0 
C 84 74 0 
C 86 74 0 
C 88 74 0 
C 90 74 0 
C 92 74 0 
C 94 74 0 
C 96 74 0 
C 98 74 0 
C 100 74 0 
C 0 76 0 
C 2 76 0 
C 4 76 0 
C 6 76 0 
C 8 76 0 
C 10 76 0 
C 12 76 0 
C 14 76 0 
C 16 76 0 
C 18 76 0 
C 20 76 0 
C 22 76 0 
C 24 76 0 
C 26 76 0 
C 28 76 0 
C 30 76 0 
C 32 76 0 
C 34 76 0 
C 36 76 0 
C 38 76 0 
C 40 76 0 
C 42 76 0 
C 44 76 0 
C 46 76 0 
C 48 76 0 
C 50 76 0 
C 52 76 0 
C 54 76 0 
C 56 76 0 
C 58 76 0 
C 60 76 0 
C 62 76 0 
C 64 76 0 
C 66 76 0 
C 68 76 0 
C 70 76 0 
C 72 76 0 
C 74 76 0 
C 76 76 0 
C 78 76 0 
C 80 76 0 
C 82 76 0 
C 84 76 0 
C 86 76 0 
C 88 76 0 
C 90 76 0 
C 92 76 0 
C 94 76 0 
C 96 76 0 
C 98 76 0 
C 100 76 0 
C 0 78 0 
C 2 78 0 
C 4 78 0 
C 6 78 0 
C 8 78 0 
C 10 78 0 
C 12 78 0 
C 14 78 0 
C 16 78 0 
C 18 78 0 
C 20 78 0 
C 22 78 0 
C 24 78 0 
C 26 78 0 
C 28 78 0 
C 30 78 0 
C 32 78 0 
C 34 78 0 
C 36 78 0 
C 38 78 0 
C 40 78 0 
C 42 78 0 
C 44 78 0 
C 46 78 0 
C 48 78 0 
C 50 78 0 
C 52 78 0 
C 54 78 0 
C 56 78 0 
C 58 78 0 
C 60 78 0 
C 62 78 0 
C 64 78 0 
C 66 78 0 
C 68 78 0 
C 70 78 0 
C 72 78 0 
C 74 78 0 
C 76 78 0 
C 78 78 0 
C 80 78 0 
C 82 78 0 
C 84 78 0 
C 86 78 0 
C 88 78 0 
C 90 78 0 
C 92 78 0 
C 94 78 0 
C 96 78 0 
C 98 78 0 
C 100 78 0 
C 0 80 0 
C 2 80 0 
C 4 80 0 
C 6 80 0 
C 8 80 0 
C 10 80 0 
C 12 80 0 
C 14 80 0 
C 16 80 0 
C 18 80 0 
C 20 80 0 
C 22 80 0 
C 24 80 0 
C 26 80 0 
C 28 80 0 
C 30 80 0 
C 32 80 0 
C 34 80 0 
C 36 80 0 
C 38 80 0 
C 40 80 0 
C 42 80 0 
C 44 80 0 
C 46 80 0 
C 48 80 0 
C 50 80 0 
C 52 80 0 
C 54 80 0 
C 56 80 0 
C 58 80 0 
C 60 80 0 
C 62 80 0 
C 64 80 0 
C 66 80 0 
C 68 80 0 
C 70 80 0 
C 72 80 0 
C 74 80 0 
C 76 80 0 
C 78 80 0 
C 80 80 0 
C 82 80 0 
C 84 80 0 
C 86 80 0 
C 88 80 0 
C 90 80 0 
C 92 80 0 
C 94 80 0 
C 96 80 0 
C 98 80 0 
C 100 80 0 
C 0 82 0 
C 2 82 0 
C 4 82 0 
C 6 82 0 
C 8 82 0 
C 10 82 0 
C 12 82 0 
C 14 82 0 
C 16 82 0 
C 18 82 0 
C 20 82 0 
C 22 82 0 
C 24 82 0 
C 26 82 0 
C 28 82 0 
C 30 82 0 
C 32 82 0 
C 34 82 0 
C 36 82 0 
C 38 82 0 
C 40 82 0 
C 42 82 0 
C 44 82 0 
C 46 82 0 
C 48 82 0 
C 50 82 0 
C 52 82 0 
C 54 82 0 
C 56 82 0 
C 58 82 0 
C 60 82 0 
C 62 82 0 
C 64 82 0 
C 66 82 0 
C 68 82 0 
C 70 82 0 
C 72 82 0 
C 74 82 0 
C 76 82 0 
C 78 82 0 
C 80 82 0 
C 82 82 0 
C 84 82 0 
C 86 82 0 
C 88 82 0 
C 90 82 0 
C 92 82 0 
C 94 82 0 
C 96 82 0 
C 98 82 0 
C 100 82 0 
C 0 84 0 
C 2 84 0 
C 4 84 0 
C 6 84 0 
C 8 84 0 
C 10 84 0 
C 12 84 0 
C 14 84 0 
C 16 84 0 
C 18 84 0 
C 20 84 0 
C 22 84 0 
C 24 84 0 
C 26 84 0 
C 28 84 0 
C 30 84 0 
C 32 84 0 
C 34 84 0 
C 36 84 0 
C 38 84 0 
C 40 84 0 
C 42 84 0 
C 44 84 0 
C 46 84 0 
C 48 84 0 
C 50 84 0 
C 52 84 0 
C 54 84 0 
C 56 84 0 
C 58 84 0 
C 60 84 0 
C 62 84 0 
C 64 84 0 
C 66 84 0 
C 68 84 0 
C 70 84 0 
C 72 84 0 
C 74 84 0 
C 76 84 0 
C 78 84 0 
C 80 84 0 
C 82 84 0 
C 84 84 0 
C 86 84 0 
C 88 84 0 
C 90 84 0 
C 92 84 0 
C 94 84 0 
C 96 84 0 
C 98 84 0 
C 100 84 0 
C 0 86 0 
C 2 86 0 
C 4 86 0 
C 6 86 0 
C 8 86 0 
C 10 86 0 
C 12 86 0 
C 14 86 0 
C 16 86 0 
C 18 86 0 
C 20 86 0 
C 22 86 0 
C 24 86 0 
C 26 86 0 
C 28 86 0 
C 30 86 0 
C 32 86 0 
C 34 86 0 
C 36 86 0 
C 38 86 0 
C 40 86 0 
C 42 86 0 
C 44 86 0 
C 46 86 0 
C 48 86 0 
C 50 86 0 
C 52 86 0 
C 54 86 0 
C 56 86 0 
C 58 86 0 
C 60 86 0 
C 62 86 0 
C 64 86 0 
C 66 86 0 
C 68 86 0 
C 70 86 0 
C 72 86 0 
C 74 86 0 
C 76 86 0 
C 78 86 0 
C 80 86 0 
C 82 86 0 
C 84 86 0 
C 86 86 0 
C 88 86 0 
C 90 86 0 
C 92 86 0 
C 94 86 0 
C 96 86 0 
C 98 86 0 
C 100 86 0 
C 0 88 0 
C 2 88 0 
C 4 88 0 
C 6 88 0 
C 8 88 0 
C 10 88 0 
C 12 88 0 
C 14 88 0 
C 16 88 0 
C 18 88 0 
C 20 88 0 
C 22 88 0 
C 24 88 0 
C 26 88 0 
C 28 88 0 
C 30 88 0 
C 32 88 0 
C 34 88 0 
C 36 88 0 
C 38 88 0 
C 40 88 0 
C 42 88 0 
C 44 88 0 
C 46 88 0 
C 48 88 0 
C 50 88 0 
C 52 88 0 
C 54 88 0 
C 56 88 0 
C 58 88 0 
C 60 88 0 
C 62 88 0 
C 64 88 0 
C 66 88 0 
C 68 88 0 
C 70 88 0 
C 72 88 0 
C 74 88 0 
C 76 88 0 
C 78 88 0 
C 80 88 0 
C 82 88 0 
C 84 88 0 
C 86 88 0 
C 88 88 0 
C 90 88 0 
C 92 88 0 
C 94 88 0 
C 96 88 0 
C 98 88 0 
C 100 88 0 
C 0 90 0 
C 2 90 0 
C 4 90 0 
C 6 90 0 
C 8 90 0 
C 10 90 0 
C 12 90 0 
C 14 90 0 
C 16 90 0 
C 18 90 0 
C 20 90 0 
C 22 90 0 
C 24 90 0 
C 26 90 0 
C 28 90 0 
C 30 90 0 
C 32 90 0 
C 34 90 0 
C 36 90 0 
C 38 90 0 
C 40 90 0 
C 42 90 0 
C 44 90 0 
C 46 90 0 
C 48 90 0 
C 50 90 0 
C 52 90 0 
C 54 90 0 
C 56 90 0 
C 58 90 0 
C 60 90 0 
C 62 90 0 
C 64 90 0 
C 66 90 0 
C 68 90 0 
C 70 90 0 
C 72 90 0 
C 74 90 0 
C 76 90 0 
C 78 90 0 
C 80 90 0 
C 82 90 0 
C 84 90 0 
C 86 90 0 
C 88 90 0 
C 90 90 0 
C 92 90 0 
C 94 90 0 
C 96 90 0 
C 98 90 0 
C 100 90 0 
C 0 92 0 
C 2 92 0 
C 4 92 0 
C 6 92 0 
C 8 92 0 
C 10 92 0 
C 12 92 0 
C 14 92 0 
C 16 92 0 
C 18 92 0 
C 20 92 0 
C 22 92 0 
C 24 92 0 
C 26 92 0 
C 28 92 0 
C 30 92 0 
C 32 92 0 
C 34 92 0 
C 36 92 0 
C 38 92 0 
C 40 92 0 
C 42 92 0 
C 44 92 0 
C 46 92 0 
C 48 92 0 
C 50 92 0 
C 52 92 0 
C 54 92 0 
C 56 92 0 
C 58 92 0 
C 60 92 0 
C 62 92 0 
C 64 92 0 
C 66 92 0 
C 68 92 0 
C 70 92 0 
C 72 92 0 
C 74 92 0 
C 76 92 0 
C 78 92 0 
C 80 92 0 
C 82 92 0 
C 84 92 0 
C 86 92 0 
C 88 92 0 
C 90 92 0 
C 92 92 0 
C 94 92 0 
C 96 92 0 
C 98 92 0 
C 100 92 0 
C 0 94 0 
C 2 94 0 
C 4 94 0 
C 6 94 0 
C 8 94 0 
C 10 94 0 
C 12 94 0 
C 14 94 0 
C 16 94 0 
C 18 94 0 
C 20 94 0 
C 22 94 0 
C 24 94 0 
C 26 94 0 
C 28 94 0 
C 30 94 0 
C 32 94 0 
C 34 94 0 
C 36 94 0 
C 38 94 0 
C 40 94 0 
C 42 94 0 
C 44 94 0 
C 46 94 0 
C 48 94 0 
C 50 94 0 
C 52 94 0 
C 54 94 0 
C 56 94 0 
C 58 94 0 
C 60 94 0 
C 62 94 0 
C 64 94 0 
C 66 94 0 
C 68 94 0 
C 70 94 0 
C 72 94 0 
C 74 94 0 
C 76 94 0 
C 78 94 0 
C 80 94 0 
C 82 94 0 
C 84 94 0 
C 86 94 0 
C 88 94 0 
C 90 94 0 
C 92 94 0 
C 94 94 0 
C 96 94 0 
C 98 94 0 
C 100 94 0 
C 0 96 0 
C 2 96 0 
C 4 96 0 
C 6 96 0 
C 8 96 0 
C 10 96 0 
C 12 96 0 
C 14 96 0 
C 16 96 0 
C 18 96 0 
C 20 96 0 
C 22 96 0 
C 24 96 0 
C 26 96 0 
C 28 96 0 
C 30 96 0 
C 32 96 0 
C 34 96 0 
C 36 96 0 
C 38 96 0 
C 40 96 0 
C 42 96 0 
C 44 96 0 
C 46 96 0 
C 48 96 0 
C 50 96 0 
C 52 96 0 
C 54 96 0 
C 56 96 0 
C 58 96 0 
C 60 96 0 
C 62 96 0 
C 64 96 0 
C 66 96 0 
C 68 96 0 
C 70 96 0 
C 72 96 0 
C 74 96 0 
C 76 96 0 
C 78 96 0 
C 80 96 0 
C 82 96 0 
C 84 96 0 
C 86 96 0 
C 88 96 0 
C 90 96 0 
C 92 96 0 
C 94 96 0 
C 96 96 0 
C 98 96 0 
C 100 96 0 
C 0 98 0 
C 2 98 0 
C 4 98 0 
C 6 98 0 
C 8 98 0 
C 10 98 0 
C 12 98 0 
C 14 98 0 
C 16 98 0 
C 18 98 0 
C 20 98 0 
C 22 98 0 
C 24 98 0 
C 26 98 0 
C 28 98 0 
C 30 98 0 
C 32 98 0 
C 34 98 0 
C 36 98 0 
C 38 98 0 
C 40 98 0 
C 42 98 0 
C 44 98 0 
C 46 98 0 
C 48 98 0 
C 50 98 0 
C 52 98 0 
C 54 98 0 
C 56 98 0 
C 58 98 0 
C 60 98 0 
C 62 98 0 
C 64 98 0 
C 66 98 0 
C 68 98 0 
C 70 98 0 
C 72 98 0 
C 74 98 0 
C 76 98 0 
C 78 98 0 
C 80 98 0 
C 82 98 0 
C 84 98 0 
C 86 98 0 
C 88 98 0 
C 90 98 0 
C 92 98 0 
C 94 98 0 
C 96 98 0 
C 98 98 0 
C 100 98 0 
C 0 100 0 
C 2 100 0 
C 4 100 0 
C 6 100 0 
C 8 100 0 
C 10 100 0 
C 12 100 0 
C 14 100 0 
C 16 100 0 
C 18 100 0 
C 20 100 0 
C 22 100 0 
C 24 100 0 
C 26 100 0 
C 28 100 0 
C 30 100 0 
C 32 100 0 
C 34 100 0 
C 36 100 0 
C 38 100 0 
C 40 100 0 
C 42 100 0 
C 44 100 0 
C 46 100 0 
C 48 100 0 
C 50 100 0 
C 52 100 0 
C 54 100 0 
C 56 100 0 
C 58 100 0 
C 60 100 0 
C 62 100 0 
C 64 100 0 
C 66 100 0 
C 68 100 0 
C 70 100 0 
C 72 100 0 
C 74 100 0 
C 76 100 0 
C 78 100 0 
C 80 100 0 
C 82 100 0 
C 84 100 0 
C 86 100 0 
C 88 100 0 
C 90 100 0 
C 92 100 0 
C 94 100 0 
C 96 100 0 
C 98 100 0 
C 100 100 0 
O 1 99 0 
O 9 26 0 
O 41 27 0 
O 27 99 0 
O 99 92 0 
O 75 99 0 
O 41 24 0 
O 69 93 0 
O 47 77 0 
O 99 87 0 
O 91 90 0 
O 11 47 0 
O 45 89 0 
O 99 98 0 
O 11 66 0 
O 29 99 0 
O 99 96 0 
3114
Atoms. Timestep: 8
N 86 19 0 
N 21 53 0 
N 16 67 0 
N 49 93 0 
N 35 21 0 
N 59 25 0 
N 84 67 0 
N 7 54 0 
N 13 47 0 
N 51 27 0 
N 15 7 0 
N 58 29 0 
N 63 13 0 
N 82 85 0 
N 55 89 0 
N 47 61 0 
N 41 76 0 
N 4 91 0 
N 2 13 0 
N 87 23 0 
N 12 41 0 
N 77 12 0 
N 15 27 0 
N 47 76 0 
N 65 99 0 
N 11 92 0 
N 89 10 0 
N 66 99 0 
N 3 35 0 
N 33 48 0 
N 75 32 0 
N 59 19 0 
N 23 66 0 
N 95 47 0 
N 27 19 0 
N 77 52 0 
N 95 73 0 
N 67 9 0 
N 66 91 0 
N 96 5 0 
N 43 10 0 
N 29 99 0 
N 89 26 0 
N 29 61 0 
N 53 41 0 
N 61 25 0 
N 52 77 0 
N 51 34 0 
N 91 79 0 
N 29 13 0 
N 56 25 0 
N 41 37 0 
N 9 22 0 
N 21 27 0 
N 99 73 0 
N 16 79 0 
N 52 69 0 
N 86 9 0 
N 7 23 0 
N 69 70 0 
N 99 64 0 
N 73 99 0 
N 7 33 0 
N 73 88 0 
N 72 13 0 
N 7 61 0 
N 74 63 0 
N 86 27 0 
N 41 22 0 
N 61 28 0 
N 43 23 0 
N 5 98 0 
N 5 47 0 
N 20 75 0 
N 39 85 0 
N 37 26 0 
N 54 89 0 
N 5 33 0 
N 28 47 0 
N 73 11 0 
N 59 43 0 
N 95 22 0 
N 73 93 0 
N 91 43 0 
N 3 33 0 
N 9 23 0 
N 36 69 0 
N 6 79 0 
N 19 28 0 
N 84 85 0 
N 63 83 0 
N 99 95 0 
N 13 19 0 
N 91 62 0 
N 89 8 0 
N 73 5 0 
N 69 55 0 
N 95 12 0 
N 68 67 0 
N 9 30 0 
N 45 65 0 
N 61 93 0 
N 44 37 0 
N 87 14 0 
N 91 93 0 
N 53 88 0 
N 69 67 0 
N 69 51 0 
N 27 93 0 
N 21 77 0 
N 26 47 0 
N 73 67 0 
N 19 77 0 
N 84 11 0 
N 45 67 0 
N 47 47 0 
N 11 55 0 
N 1 76 0 
N 69 92 0 
N 25 99 0 
N 35 27 0 
N 52 81 0 
N 44 25 0 
N 54 61 0 
N 11 26 0 
N 75 9 0 
N 5 72 0 
N 3 11 0 
N 29 11 0 
N 95 87 0 
N 7 85 0 
N 67 43 0 
N 11 45 0 
N 71 99 0 
N 14 11 0 
N 14 77 0 
N 31 58 0 
N 83 45 0 
N 94 45 0 
N 87 17 0 
N 11 43 0 
N 73 79 0 
N 75 3 0 
N 56 9 0 
N 87 87 0 
N 45 91 0 
N 97 48 0 
N 45 59 0 
N 99 80 0 
N 65 93 0 
N 92 41 0 
N 95 71 0 
N 29 33 0 
N 8 97 0 
N 47 73 0 
N 21 79 0 
N 99 83 0 
N 8 67 0 
N 1 4 0 
N 13 43 0 
N 88 39 0 
N 43 60 0 
N 89 41 0 
N 21 1 0 
N 39 87 0 
N 38 79 0 
N 73 13 0 
N 89 90 0 
N 95 23 0 
N 47 74 0 
N 4 99 0 
N 75 34 0 
N 20 41 0 
N 15 17 0 
N 69 27 0 
N 43 89 0 
N 93 63 0 
N 51 3 0 
N 81 81 0 
N 81 87 0 
N 69 31 0 
N 17 9 0 
N 84 55 0 
N 45 60 0 
N 4 67 0 
N 5 65 0 
N 97 53 0 
N 69 80 0 
N 92 71 0 
N 19 17 0 
N 22 73 0 
N 1 92 0 
N 67 66 0 
N 21 88 0 
N 57 68 0 
N 95 27 0 
N 67 76 0 
N 95 24 0 
N 46 33 0 
N 95 29 0 
N 77 7 0 
N 64 91 0 
N 63 29 0 
N 45 92 0 
N 64 7 0 
N 35 68 0 
N 65 27 0 
N 59 41 0 
N 97 85 0 
N 91 59 0 
N 26 59 0 
N 23 67 0 
N 17 7 0 
N 95 25 0 
N 27 17 0 
N 11 71 0 
N 63 71 0 
N 56 65 0 
N 89 88 0 
N 26 85 0 
N 6 55 0 
N 86 25 0 
N 99 67 0 
N 59 27 0 
N 20 45 0 
N 99 81 0 
N 75 40 0 
N 91 53 0 
N 77 26 0 
N 98 69 0 
N 89 82 0 
N 57 47 0 
N 41 26 0 
N 89 79 0 
N 69 58 0 
N 79 56 0 
N 27 30 0 
N 71 85 0 
N 6 37 0 
N 27 13 0 
N 75 56 0 
N 18 67 0 
N 95 53 0 
N 9 25 0 
N 54 51 0 
N 24 1 0 
N 31 13 0 
N 21 67 0 
N 14 67 0 
N 15 15 0 
N 84 91 0 
N 49 61 0 
N 40 89 0 
N 19 26 0 
N 10 33 0 
N 13 27 0 
N 75 45 0 
N 59 38 0 
N 53 27 0 
N 19 80 0 
N 11 66 0 
N 6 35 0 
N 94 47 0 
N 9 27 0 
N 45 76 0 
N 92 91 0 
N 54 39 0 
N 75 48 0 
N 89 77 0 
N 61 43 0 
N 90 97 0 
N 20 11 0 
N 37 89 0 
N 12 5 0 
N 41 48 0 
N 59 58 0 
N 5 26 0 
N 31 35 0 
N 51 67 0 
N 5 32 0 
N 55 73 0 
N 17 17 0 
N 39 76 0 
N 73 25 0 
N 29 77 0 
N 62 23 0 
N 88 89 0 
N 42 39 0 
N 89 11 0 
N 89 6 0 
N 47 7 0 
N 41 24 0 
N 63 88 0 
N 63 11 0 
N 45 8 0 
N 30 75 0 
N 41 40 0 
N 17 66 0 
N 17 47 0 
N 90 47 0 
N 75 92 0 
N 7 58 0 
N 25 88 0 
N 12 99 0 
N 51 61 0 
N 57 9 0 
N 69 77 0 
N 11 47 0 
N 74 5 0 
N 24 87 0 
N 98 71 0 
N 37 52 0 
N 41 1 0 
N 10 31 0 
N 31 99 0 
N 33 75 0 
N 29 6 0 
N 69 37 0 
N 3 9 0 
N 49 24 0 
N 69 75 0 
N 5 15 0 
N 93 47 0 
N 24 69 0 
N 39 13 0 
N 69 5 0 
N 63 24 0 
N 95 2 0 
N 51 89 0 
N 12 47 0 
N 47 34 0 
N 87 5 0 
N 90 45 0 
N 67 22 0 
N 91 49 0 
N 41 31 0 
N 19 99 0 
N 10 95 0 
N 77 5 0 
N 79 65 0 
N 39 31 0 
N 31 37 0 
N 55 7 0 
N 77 41 0 
N 11 17 0 
N 16 95 0 
N 89 5 0 
N 48 89 0 
N 79 90 0 
N 54 87 0 
N 77 22 0 
N 69 84 0 
N 12 49 0 
N 96 63 0 
N 15 16 0 
N 45 27 0 
N 49 33 0 
N 35 1 0 
N 29 97 0 
N 43 58 0 
N 81 19 0 
N 63 30 0 
N 44 75 0 
N 41 30 0 
N 32 35 0 
N 3 37 0 
N 76 13 0 
N 49 42 0 
N 92 43 0 
N 97 43 0 
N 27 80 0 
N 68 11 0 
N 41 79 0 
N 61 27 0 
N 29 66 0 
N 43 8 0 
N 55 49 0 
N 91 12 0 
N 57 28 0 
N 73 92 0 
N 29 3 0 
N 7 91 0 
N 44 9 0 
N 34 77 0 
N 31 65 0 
N 56 51 0 
N 64 49 0 
N 39 25 0 
N 82 47 0 
N 12 27 0 
N 85 94 0 
N 97 77 0 
N 53 89 0 
N 74 27 0 
N 92 47 0 
N 4 33 0 
N 50 3 0 
N 57 27 0 
N 81 84 0 
N 53 75 0 
N 81 88 0 
N 8 65 0 
N 8 47 0 
N 31 61 0 
N 21 84 0 
N 79 36 0 
N 37 63 0 
N 80 69 0 
N 87 45 0 
N 46 31 0 
N 75 7 0 
N 60 7 0 
N 89 7 0 
N 11 41 0 
N 91 10 0 
N 56 47 0 
N 11 53 0 
N 31 33 0 
N 70 47 0 
N 91 41 0 
N 97 78 0 
N 91 29 0 
N 19 86 0 
N 48 65 0 
N 94 67 0 
N 81 12 0 
N 41 50 0 
N 12 63 0 
N 79 21 0 
N 7 26 0 
N 24 85 0 
N 35 24 0 
N 79 14 0 
N 35 66 0 
N 68 51 0 
N 93 53 0 
N 85 46 0 
N 1 10 0 
N 51 87 0 
N 79 67 0 
N 66 5 0 
N 10 63 0 
N 29 1 0 
N 19 67 0 
N 19 45 0 
N 17 27 0 
N 71 79 0 
N 73 86 0 
N 19 65 0 
N 19 66 0 
N 61 77 0 
N 97 79 0 
N 97 28 0 
N 71 19 0 
N 69 30 0 
N 61 31 0 
N 41 60 0 
N 93 65 0 
N 77 69 0 
N 1 5 0 
N 40 83 0 
N 59 34 0 
N 11 29 0 
N 21 89 0 
N 29 64 0 
N 15 13 0 
N 7 27 0 
N 81 65 0 
N 52 75 0 
N 17 68 0 
N 45 88 0 
N 10 13 0 
N 9 4 0 
N 38 15 0 
N 87 18 0 
N 41 47 0 
N 5 66 0 
N 40 87 0 
N 41 68 0 
N 33 11 0 
N 49 60 0 
N 93 40 0 
N 88 95 0 
N 63 27 0 
N 56 41 0 
N 77 19 0 
N 21 91 0 
N 97 27 0 
N 75 22 0 
N 87 12 0 
N 40 85 0 
N 48 21 0 
N 41 14 0 
N 33 27 0 
N 40 77 0 
N 49 41 0 
N 7 62 0 
N 75 17 0 
N 35 77 0 
N 94 69 0 
C 0 0 0 
C 2 0 0 
C 4 0 0 
C 6 0 0 
C 8 0 0 
C 10 0 0 
C 12 0 0 
C 14 0 0 
C 16 0 0 
C 18 0 0 
C 20 0 0 
C 22 0 0 
C 24 0 0 
C 26 0 0 
C 28 0 0 
C 30 0 0 
C 32 0 0 
C 34 0 0 
C 36 0 0 
C 38 0 0 
C 40 0 0 
C 42 0 0 
C 44 0 0 
C 46 0 0 
C 48 0 0 
C 50 0 0 
C 52 0 0 
C 54 0 0 
C 56 0 0 
C 58 0 0 
C 60 0 0 
C 62 0 0 
C 64 0 0 
C 66 0 0 
C 68 0 0 
C 70 0 0 
C 72 0 0 
C 74 0 0 
C 76 0 0 
C 78 0 0 
C 80 0 0 
C 82 0 0 
C 84 0 0 
C 86 0 0 
C 88 0 0 
C 90 0 0 
C 92 0 0 
C 94 0 0 
C 96 0 0 
C 98 0 0 
C 100 0 0 
C 0 2 0 
C 2 2 0 
C 4 2 0 
C 6 2 0 
C 8 2 0 
C 10 2 0 
C 12 2 0 
C 14 2 0 
C 16 2 0 
C 18 2 0 
C 20 2 0 
C 22 2 0 
C 24 2 0 
C 26 2 0 
C 28 2 0 
C 30 2 0 
C 32 2 0 
C 34 2 0 
C 36 2 0 
C 38 2 0 
C 40 2 0 
C 42 2 0 
C 44 2 0 
C 46 2 0 
C 48 2 0 
C 50 2 0 
C 52 2 0 
C 54 2 0 
C 56 2 0 
C 58 2 0 
C 60 2 0 
C 62 2 0 
C 64 2 0 
C 66 2 0 
C 68 2 0 
C 70 2 0 
C 72 2 0 
C 74 2 0 
C 76 2 0 
C 78 2 0 
C 80 2 0 
C 82 2 0 
C 84 2 0 
C 86 2 0 
C 88 2 0 
C 90 2 0 
C 92 2 0 
C 94 2 0 
C 96 2 0 
C 98 2 0 
C 100 2 0 
C 0 4 0 
C 2 4 0 
C 4 4 0 
C 6 4 0 
C 8 4 0 
C 10 4 0 
C 12 4 0 
C 14 4 0 
C 16 4 0 
C 18 4 0 
C 20 4 0 
C 22 4 0 
C 24 4 0 
C 26 4 0 
C 28 4 0 
C 30 4 0 
C 32 4 0 
C 34 4 0 
C 36 4 0 
C 38 4 0 
C 40 4 0 
C 42 4 0 
C 44 4 0 
C 46 4 0 
C 48 4 0 
C 50 4 0 
C 52 4 0 
C 54 4 0 
C 56 4 0 
C 58 4 0 
C 60 4 0 
C 62 4 0 
C 64 4 0 
C 66 4 0 
C 68 4 0 
C 70 4 0 
C 72 4 0 
C 74 4 0 
C 76 4 0 
C 78 4 0 
C 80 4 0 
C 82 4 0 
C 84 4 0 
C 86 4 0 
C 88 4 0 
C 90 4 0 
C 92 4 0 
C 94 4 0 
C 96 4 0 
C 98 4 0 
C 100 4 0 
C 0 6 0 
C 2 6 0 
C 4 6 0 
C 6 6 0 
C 8 6 0 
C 10 6 0 
C 12 6 0 
C 14 6 0 
C 16 6 0 
C 18 6 0 
C 20 6 0 
C 22 6 0 
C 24 6 0 
C 26 6 0 
C 28 6 0 
C 30 6 0 
C 32 6 0 
C 34 6 0 
C 36 6 0 
C 38 6 0 
C 40 6 0 
C 42 6 0 
C 44 6 0 
C 46 6 0 
C 48 6 0 
C 50 6 0 
C 52 6 0 
C 54 6 0 
C 56 6 0 
C 58 6 0 
C 60 6 0 
C 62 6 0 
C 64 6 0 
C 66 6 0 
C 68 6 0 
C 70 6 0 
C 72 6 0 
C 74 6 0 
C 76 6 0 
C 78 6 0 
C 80 6 0 
C 82 6 0 
C 84 6 0 
C 86 6 0 
C 88 6 0 
C 90 6 0 
C 92 6 0 
C 94 6 0 
C 96 6 0 
C 98 6 0 
C 100 6 0 
C 0 8 0 
C 2 8 0 
C 4 8 0 
C 6 8 0 
C 8 8 0 
C 10 8 0 
C 12 8 0 
C 14 8 0 
C 16 8 0 
C 18 8 0 
C 20 8 0 
C 22 8 0 
C 24 8 0 
C 26 8 0 
C 28 8 0 
C 30 8 0 
C 32 8 0 
C 34 8 0 
C 36 8 0 
C 38 8 0 
C 40 8 0 
C 42 8 0 
C 44 8 0 
C 46 8 0 
C 48 8 0 
C 50 8 0 
C 52 8 0 
C 54 8 0 
C 56 8 0 
C 58 8 0 
C 60 8 0 
C 62 8 0 
C 64 8 0 
C 66 8 0 
C 68 8 0 
C 70 8 0 
C 72 8 0 
C 74 8 0 
C 76 8 0 
C 78 8 0 
C 80 8 0 
C 82 8 0 
C 84 8 0 
C 86 8 0 
C 88 8 0 
C 90 8 0 
C 92 8 0 
C 94 8 0 
C 96 8 0 
C 98 8 0 
C 100 8 0 
C 0 10 0 
C 2 10 0 
C 4 10 0 
C 6 10 0 
C 8 10 0 
C 10 10 0 
C 12 10 0 
C 14 10 0 
C 16 10 0 
C 18 10 0 
C 20 10 0 
C 22 10 0 
C 24 10 0 
C 26 10 0 
C 28 10 0 
C 30 10 0 
C 32 10 0 
C 34 10 0 
C 36 10 0 
C 38 10 0 
C 40 10 0 
C 42 10 0 
C 44 10 0 
C 46 10 0 
C 48 10 0 
C 50 10 0 
C 52 10 0 
C 54 10 0 
C 56 10 0 
C 58 10 0 
C 60 10 0 
C 62 10 0 
C 64 10 0 
C 66 10 0 
C 68 10 0 
C 70 10 0 
C 72 10 0 
C 74 10 0 
C 76 10 0 
C 78 10 0 
C 80 10 0 
C 82 10 0 
C 84 10 0 
C 86 10 0 
C 88 10 0 
C 90 10 0 
C 92 10 0 
C 94 10 0 
C 96 10 0 
C 98 10 0 
C 100 10 0 
C 0 12 0 
C 2 12 0 
C 4 12 0 
C 6 12 0 
C 8 12 0 
C 10 12 0 
C 12 12 0 
C 14 12 0 
C 16 12 0 
C 18 12 0 
C 20 12 0 
C 22 12 0 
C 24 12 0 
C 26 12 0 
C 28 12 0 
C 30 12 0 
C 32 12 0 
C 34 12 0 
C 36 12 0 
C 38 12 0 
C 40 12 0 
C 42 12 0 
C 44 12 0 
C 46 12 0 
C 48 12 0 
C 50 12 0 
C 52 12 0 
C 54 12 0 
C 56 12 0 
C 58 12 0 
C 60 12 0 
C 62 12 0 
C 64 12 0 
C 66 12 0 
C 68 12 0 
C 70 12 0 
C 72 12 0 
C 74 12 0 
C 76 12 0 
C 78 12 0 
C 80 12 0 
C 82 12 0 
C 84 12 0 
C 86 12 0 
C 88 12 0 
C 90 12 0 
C 92 12 0 
C 94 12 0 
C 96 12 0 
C 98 12 0 
C 100 12 0 
C 0 14 0 
C 2 14 0 
C 4 14 0 
C 6 14 0 
C 8 14 0 
C 10 14 0 
C 12 14 0 
C 14 14 0 
C 16 14 0 
C 18 14 0 
C 20 14 0 
C 22 14 0 
C 24 14 0 
C 26 14 0 
C 28 14 0 
C 30 14 0 
C 32 14 0 
C 34 14 0 
C 36 14 0 
C 38 14 0 
C 40 14 0 
C 42 14 0 
C 44 14 0 
C 46 14 0 
C 48 14 0 
C 50 14 0 
C 52 14 0 
C 54 14 0 
C 56 14 0 
C 58 14 0 
C 60 14 0 
C 62 14 0 
C 64 14 0 
C 66 14 0 
C 68 14 0 
C 70 14 0 
C 72 14 0 
C 74 14 0 
C 76 14 0 
C 78 14 0 
C 80 14 0 
C 82 14 0 
C 84 14 0 
C 86 14 0 
C 88 14 0 
C 90 14 0 
C 92 14 0 
C 94 14 0 
C 96 14 0 
C 98 14 0 
C 100 14 0 
C 0 16 0 
C 2 16 0 
C 4 16 0 
C 6 16 0 
C 8 16 0 
C 10 16 0 
C 12 16 0 
C 14 16 0 
C 16 16 0 
C 18 16 0 
C 20 16 0 
C 22 16 0 
C 24 16 0 
C 26 16 0 
C 28 16 0 
C 30 16 0 
C 32 16 0 
C 34 16 0 
C 36 16 0 
C 38 16 0 
C 40 16 0 
C 42 16 0 
C 44 16 0 
C 46 16 0 
C 48 16 0 
C 50 16 0 
C 52 16 0 
C 54 16 0 
C 56 16 0 
C 58 16 0 
C 60 16 0 
C 62 16 0 
C 64 16 0 
C 66 16 0 
C 68 16 0 
C 70 16 0 
C 72 16 0 
C 74 16 0 
C 76 16 0 
C 78 16 0 
C 80 16 0 
C 82 16 0 
C 84 16 0 
C 86 16 0 
C 88 16 0 
C 90 16 0 
C 92 16 0 
C 94 16 0 
C 96 16 0 
C 98 16 0 
C 100 16 0 
C 0 18 0 
C 2 18 0 
C 4 18 0 
C 6 18 0 
C 8 18 0 
C 10 18 0 
C 12 18 0 
C 14 18 0 
C 16 18 0 
C 18 18 0 
C 20 18 0 
C 22 18 0 
C 24 18 0 
C 26 18 0 
C 28 18 0 
C 30 18 0 
C 32 18 0 
C 34 18 0 
C 36 18 0 
C 38 18 0 
C 40 18 0 
C 42 18 0 
C 44 18 0 
C 46 18 0 
C 48 18 0 
C 50 18 0 
C 52 18 0 
C 54 18 0 
C 56 18 0 
C 58 18 0 
C 60 18 0 
C 62 18 0 
C 64 18 0 
C 66 18 0 
C 68 18 0 
C 70 18 0 
C 72 18 0 
C 74 18 0 
C 76 18 0 
C 78 18 0 
C 80 18 0 
C 82 18 0 
C 84 18 0 
C 86 18 0 
C 88 18 0 
C 90 18 0 
C 92 18 0 
C 94 18 0 
C 96 18 0 
C 98 18 0 
C 100 18 0 
C 0 20 0 
C 2 20 0 
C 4 20 0 
C 6 20 0 
C 8 20 0 
C 10 20 0 
C 12 20 0 
C 14 20 0 
C 16 20 0 
C 18 20 0 
C 20 20 0 
C 22 20 0 
C 24 20 0 
C 26 20 0 
C 28 20 0 
C 30 20 0 
C 32 20 0 
C 34 20 0 
C 36 20 0 
C 38 20 0 
C 40 20 0 
C 42 20 0 
C 44 20 0 
C 46 20 0 
C 48 20 0 
C 50 20 0 
C 52 20 0 
C 54 20 0 
C 56 20 0 
C 58 20 0 
C 60 20 0 
C 62 20 0 
C 64 20 0 
C 66 20 0 
C 68 20 0 
C 70 20 0 
C 72 20 0 
C 74 20 0 
C 76 20 0 
C 78 20 0 
C 80 20 0 
C 82 20 0 
C 84 20 0 
C 86 20 0 
C 88 20 0 
C 90 20 0 
C 92 20 0 
C 94 20 0 
C 96 20 0 
C 98 20 0 
C 100 20 0 
C 0 22 0 
C 2 22 0 
C 4 22 0 
C 6 22 0 
C 8 22 0 
C 10 22 0 
C 12 22 0 
C 14 22 0 
C 16 22 0 
C 18 22 0 
C 20 22 0 
C 22 22 0 
C 24 22 0 
C 26 22 0 
C 28 22 0 
C 30 22 0 
C 32 22 0 
C 34 22 0 
C 36 22 0 
C 38 22 0 
C 40 22 0 
C 42 22 0 
C 44 22 0 
C 46 22 0 
C 48 22 0 
C 50 22 0 
C 52 22 0 
C 54 22 0 
C 56 22 0 
C 58 22 0 
C 60 22 0 
C 62 22 0 
C 64 22 0 
C 66 22 0 
C 68 22 0 
C 70 22 0 
C 72 22 0 
C 74 22 0 
C 76 22 0 
C 78 22 0 
C 80 22 0 
C 82 22 0 
C 84 22 0 
C 86 22 0 
C 88 22 0 
C 90 22 0 
C 92 22 0 
C 94 22 0 
C 96 22 0 
C 98 22 0 
C 100 22 0 
C 0 24 0 
C 2 24 0 
C 4 24 0 
C 6 24 0 
C 8 24 0 
C 10 24 0 
C 12 24 0 
C 14 24 0 
C 16 24 0 
C 18 24 0 
C 20 24 0 
C 22 24 0 
C 24 24 0 
C 26 24 0 
C 28 24 0 
C 30 24 0 
C 32 24 0 
C 34 24 0 
C 36 24 0 
C 38 24 0 
C 40 24 0 
C 42 24 0 
C 44 24 0 
C 46 24 0 
C 48 24 0 
C 50 24 0 
C 52 24 0 
C 54 24 0 
C 56 24 0 
C 58 24 0 
C 60 24 0 
C 62 24 0 
C 64 24 0 
C 66 24 0 
C 68 24 0 
C 70 24 0 
C 72 24 0 
C 74 24 0 
C 76 24 0 
C 78 24 0 
C 80 24 0 
C 82 24 0 
C 84 24 0 
C 86 24 0 
C 88 24 0 
C 90 24 0 
C 92 24 0 
C 94 24 0 
C 96 24 0 
C 98 24 0 
C 100 24 0 
C 0 26 0 
C 2 26 0 
C 4 26 0 
C 6 26 0 
C 8 26 0 
C 10 26 0 
C 12 26 0 
C 14 26 0 
C 16 26 0 
C 18 26 0 
C 20 26 0 
C 22 26 0 
C 24 26 0 
C 26 26 0 
C 28 26 0 
C 30 26 0 
C 32 26 0 
C 34 26 0 
C 36 26 0 
C 38 26 0 
C 40 26 0 
C 42 26 0 
C 44 26 0 
C 46 26 0 
C 48 26 0 
C 50 26 0 
C 52 26 0 
C 54 26 0 
C 56 26 0 
C 58 26 0 
C 60 26 0 
C 62 26 0 
C 64 26 0 
C 66 26 0 
C 68 26 0 
C 70 26 0 
C 72 26 0 
C 74 26 0 
C 76 26 0 
C 78 26 0 
C 80 26 0 
C 82 26 0 
C 84 26 0 
C 86 26 0 
C 88 26 0 
C 90 26 0 
C 92 26 0 
C 94 26 0 
C 96 26 0 
C 98 26 0 
C 100 26 0 
C 0 28 0 
C 2 28 0 
C 4 28 0 
C 6 28 0 
C 8 28 0 
C 10 28 0 
C 12 28 0 
C 14 28 0 
C 16 28 0 
C 18 28 0 
C 20 28 0 
C 22 28 0 
C 24 28 0 
C 26 28 0 
C 28 28 0 
C 30 28 0 
C 32 28 0 
C 34 28 0 
C 36 28 0 
C 38 28 0 
C 40 28 0 
C 42 28 0 
C 44 28 0 
C 46 28 0 
C 48 28 0 
C 50 28 0 
C 52 28 0 
C 54 28 0 
C 56 28 0 
C 58 28 0 
C 60 28 0 
C 62 28 0 
C 64 28 0 
C 66 28 0 
C 68 28 0 
C 70 28 0 
C 72 28 0 
C 74 28 0 
C 76 28 0 
C 78 28 0 
C 80 28 0 
C 82 28 0 
C 84 28 0 
C 86 28 0 
C 88 28 0 
C 90 28 0 
C 92 28 0 
C 94 28 0 
C 96 28 0 
C 98 28 0 
C 100 28 0 
C 0 30 0 
C 2 30 0 
C 4 30 0 
C 6 30 0 
C 8 30 0 
C 10 30 0 
C 12 30 0 
C 14 30 0 
C 16 30 0 
C 18 30 0 
C 20 30 0 
C 22 30 0 
C 24 30 0 
C 26 30 0 
C 28 30 0 
C 30 30 0 
C 32 30 0 
C 34 30 0 
C 36 30 0 
C 38 30 0 
C 40 30 0 
C 42 30 0 
C 44 30 0 
C 46 30 0 
C 48 30 0 
C 50 30 0 
C 52 30 0 
C 54 30 0 
C 56 30 0 
C 58 30 0 
C 60 30 0 
C 62 30 0 
C 64 30 0 
C 66 30 0 
C 68 30 0 
C 70 30 0 
C 72 30 0 
C 74 30 0 
C 76 30 0 
C 78 30 0 
C 80 30 0 
C 82 30 0 
C 84 30 0 
C 86 30 0 
C 88 30 0 
C 90 30 0 
C 92 30 0 
C 94 30 0 
C 96 30 0 
C 98 30 0 
C 100 30 0 
C 0 32 0 
C 2 32 0 
C 4 32 0 
C 6 32 0 
C 8 32 0 
C 10 32 0 
C 12 32 0 
C 14 32 0 
C 16 32 0 
C 18 32 0 
C 20 32 0 
C 22 32 0 
C 24 32 0 
C 26 32 0 
C 28 32 0 
C 30 32 0 
C 32 32 0 
C 34 32 0 
C 36 32 0 
C 38 32 0 
C 40 32 0 
C 42 32 0 
C 44 32 0 
C 46 32 0 
C 48 32 0 
C 50 32 0 
C 52 32 0 
C 54 32 0 
C 56 32 0 
C 58 32 0 
C 60 32 0 
C 62 32 0 
C 64 32 0 
C 66 32 0 
C 68 32 0 
C 70 32 0 
C 72 32 0 
C 74 32 0 
C 76 32 0 
C 78 32 0 
C 80 32 0 
C 82 32 0 
C 84 32 0 
C 86 32 0 
C 88 32 0 
C 90 32 0 
C 92 32 0 
C 94 32 0 
C 96 32 0 
C 98 32 0 
C 100 32 0 
C 0 34 0 
C 2 34 0 
C 4 34 0 
C 6 34 0 
C 8 34 0 
C 10 34 0 
C 12 34 0 
C 14 34 0 
C 16 34 0 
C 18 34 0 
C 20 34 0 
C 22 34 0 
C 24 34 0 
C 26 34 0 
C 28 34 0 
C 30 34 0 
C 32 34 0 
C 34 34 0 
C 36 34 0 
C 38 34 0 
C 40 34 0 
C 42 34 0 
C 44 34 0 
C 46 34 0 
C 48 34 0 
C 50 34 0 
C 52 34 0 
C 54 34 0 
C 56 34 0 
C 58 34 0 
C 60 34 0 
C 62 34 0 
C 64 34 0 
C 66 34 0 
C 68 34 0 
C 70 34 0 
C 72 34 0 
C 74 34 0 
C 76 34 0 
C 78 34 0 
C 80 34 0 
C 82 34 0 
C 84 34 0 
C 86 34 0 
C 88 34 0 
C 90 34 0 
C 92 34 0 
C 94 34 0 
C 96 34 0 
C 98 34 0 
C 100 34 0 
C 0 36 0 
C 2 36 0 
C 4 36 0 
C 6 36 0 
C 8 36 0 
C 10 36 0 
C 12 36 0 
C 14 36 0 
C 16 36 0 
C 18 36 0 
C 20 36 0 
C 22 36 0 
C 24 36 0 
C 26 36 0 
C 28 36 0 
C 30 36 0 
C 32 36 0 
C 34 36 0 
C 36 36 0 
C 38 36 0 
C 40 36 0 
C 42 36 0 
C 44 36 0 
C 46 36 0 
C 48 36 0 
C 50 36 0 
C 52 36 0 
C 54 36 0 
C 56 36 0 
C 58 36 0 
C 60 36 0 
C 62 36 0 
C 64 36 0 
C 66 36 0 
C 68 36 0 
C 70 36 0 
C 72 36 0 
C 74 36 0 
C 76 36 0 
C 78 36 0 
C 80 36 0 
C 82 36 0 
C 84 36 0 
C 86 36 0 
C 88 36 0 
C 90 36 0 
C 92 36 0 
C 94 36 0 
C 96 36 0 
C 98 36 0 
C 100 36 0 
C 0 38 0 
C 2 38 0 
C 4 38 0 
C 6 38 0 
C 8 38 0 
C 10 38 0 
C 12 38 0 
C 14 38 0 
C 16 38 0 
C 18 38 0 
C 20 38 0 
C 22 38 0 
C 24 38 0 
C 26 38 0 
C 28 38 0 
C 30 38 0 
C 32 38 0 
C 34 38 0 
C 36 38 0 
C 38 38 0 
C 40 38 0 
C 42 38 0 
C 44 38 0 
C 46 38 0 
C 48 38 0 
C 50 38 0 
C 52 38 0 
C 54 38 0 
C 56 38 0 
C 58 38 0 
C 60 38 0 
C 62 38 0 
C 64 38 0 
C 66 38 0 
C 68 38 0 
C 70 38 0 
C 72 38 0 
C 74 38 0 
C 76 38 0 
C 78 38 0 
C 80 38 0 
C 82 38 0 
C 84 38 0 
C 86 38 0 
C 88 38 0 
C 90 38 0 
C 92 38 0 
C 94 38 0 
C 96 38 0 
C 98 38 0 
C 100 38 0 
C 0 40 0 
C 2 40 0 
C 4 40 0 
C 6 40 0 
C 8 40 0 
C 10 40 0 
C 12 40 0 
C 14 40 0 
C 16 40 0 
C 18 40 0 
C 20 40 0 
C 22 40 0 
C 24 40 0 
C 26 40 0 
C 28 40 0 
C 30 40 0 
C 32 40 0 
C 34 40 0 
C 36 40 0 
C 38 40 0 
C 40 40 0 
C 42 40 0 
C 44 40 0 
C 46 40 0 
C 48 40 0 
C 50 40 0 
C 52 40 0 
C 54 40 0 
C 56 40 0 
C 58 40 0 
C 60 40 0 
C 62 40 0 
C 64 40 0 
C 66 40 0 
C 68 40 0 
C 70 40 0 
C 72 40 0 
C 74 40 0 
C 76 40 0 
C 78 40 0 
C 80 40 0 
C 82 40 0 
C 84 40 0 
C 86 40 0 
C 88 40 0 
C 90 40 0 
C 92 40 0 
C 94 40 0 
C 96 40 0 
C 98 40 0 
C 100 40 0 
C 0 42 0 
C 2 42 0 
C 4 42 0 
C 6 42 0 
C 8 42 0 
C 10 42 0 
C 12 42 0 
C 14 42 0 
C 16 42 0 
C 18 42 0 
C 20 42 0 
C 22 42 0 
C 24 42 0 
C 26 42 0 
C 28 42 0 
C 30 42 0 
C 32 42 0 
C 34 42 0 
C 36 42 0 
C 38 42 0 
C 40 42 0 
C 42 42 0 
C 44 42 0 
C 46 42 0 
C 48 42 0 
C 50 42 0 
C 52 42 0 
C 54 42 0 
C 56 42 0 
C 58 42 0 
C 60 42 0 
C 62 42 0 
C 64 42 0 
C 66 42 0 
C 68 42 0 
C 70 42 0 
C 72 42 0 
C 74 42 0 
C 76 42 0 
C 78 42 0 
C 80 42 0 
C 82 42 0 
C 84 42 0 
C 86 42 0 
C 88 42 0 
C 90 42 0 
C 92 42 0 
C 94 42 0 
C 96 42 0 
C 98 42 0 
C 100 42 0 
C 0 44 0 
C 2 44 0 
C 4 44 0 
C 6 44 0 
C 8 44 0 
C 10 44 0 
C 12 44 0 
C 14 44 0 
C 16 44 0 
C 18 44 0 
C 20 44 0 
C 22 44 0 
C 24 44 0 
C 26 44 0 
C 28 44 0 
C 30 44 0 
C 32 44 0 
C 34 44 0 
C 36 44 0 
C 38 44 0 
C 40 44 0 
C 42 44 0 
C 44 44 0 
C 46 44 0 
C 48 44 0 
C 50 44 0 
C 52 44 0 
C 54 44 0 
C 56 44 0 
C 58 44 0 
C 60 44 0 
C 62 44 0 
C 64 44 0 
C 66 44 0 
C 68 44 0 
C 70 44 0 
C 72 44 0 
C 74 44 0 
C 76 44 0 
C 78 44 0 
C 80 44 0 
C 82 44 0 
C 84 44 0 
C 86 44 0 
C 88 44 0 
C 90 44 0 
C 92 44 0 
C 94 44 0 
C 96 44 0 
C 98 44 0 
C 100 44 0 
C 0 46 0 
C 2 46 0 
C 4 46 0 
C 6 46 0 
C 8 46 0 
C 10 46 0 
C 12 46 0 
C 14 46 0 
C 16 46 0 
C 18 46 0 
C 20 46 0 
C 22 46 0 
C 24 46 0 
C 26 46 0 
C 28 46 0 
C 30 46 0 
C 32 46 0 
C 34 46 0 
C 36 46 0 
C 38 46 0 
C 40 46 0 
C 42 46 0 
C 44 46 0 
C 46 46 0 
C 48 46 0 
C 50 46 0 
C 52 46 0 
C 54 46 0 
C 56 46 0 
C 58 46 0 
C 60 46 0 
C 62 46 0 
C 64 46 0 
C 66 46 0 
C 68 46 0 
C 70 46 0 
C 72 46 0 
C 74 46 0 
C 76 46 0 
C 78 46 0 
C 80 46 0 
C 82 46 0 
C 84 46 0 
C 86 46 0 
C 88 46 0 
C 90 46 0 
C 92 46 0 
C 94 46 0 
C 96 46 0 
C 98 46 0 
C 100 46 0 
C 0 48 0 
C 2 48 0 
C 4 48 0 
C 6 48 0 
C 8 48 0 
C 10 48 0 
C 12 48 0 
C 14 48 0 
C 16 48 0 
C 18 48 0 
C 20 48 0 
C 22 48 0 
C 24 48 0 
C 26 48 0 
C 28 48 0 
C 30 48 0 
C 32 48 0 
C 34 48 0 
C 36 48 0 
C 38 48 0 
C 40 48 0 
C 42 48 0 
C 44 48 0 
C 46 48 0 
C 48 48 0 
C 50 48 0 
C 52 48 0 
C 54 48 0 
C 56 48 0 
C 58 48 0 
C 60 48 0 
C 62 48 0 
C 64 48 0 
C 66 48 0 
C 68 48 0 
C 70 48 0 
C 72 48 0 
C 74 48 0 
C 76 48 0 
C 78 48 0 
C 80 48 0 
C 82 48 0 
C 84 48 0 
C 86 48 0 
C 88 48 0 
C 90 48 0 
C 92 48 0 
C 94 48 0 
C 96 48 0 
C 98 48 0 
C 100 48 0 
C 0 50 0 
C 2 50 0 
C 4 50 0 
C 6 50 0 
C 8 50 0 
C 10 50 0 
C 12 50 0 
C 14 50 0 
C 16 50 0 
C 18 50 0 
C 20 50 0 
C 22 50 0 
C 24 50 0 
C 26 50 0 
C 28 50 0 
C 30 50 0 
C 32 50 0 
C 34 50 0 
C 36 50 0 
C 38 50 0 
C 40 50 0 
C 42 50 0 
C 44 50 0 
C 46 50 0 
C 48 50 0 
C 50 50 0 
C 52 50 0 
C 54 50 0 
C 56 50 0 
C 58 50 0 
C 60 50 0 
C 62 50 0 
C 64 50 0 
C 66 50 0 
C 68 50 0 
C 70 50 0 
C 72 50 0 
C 74 50 0 
C 76 50 0 
C 78 50 0 
C 80 50 0 
C 82 50 0 
C 84 50 0 
C 86 50 0 
C 88 50 0 
C 90 50 0 
C 92 50 0 
C 94 50 0 
C 96 50 0 
C 98 50 0 
C 100 50 0 
C 0 52 0 
C 2 52 0 
C 4 52 0 
C 6 52 0 
C 8 52 0 
C 10 52 0 
C 12 52 0 
C 14 52 0 
C 16 52 0 
C 18 52 0 
C 20 52 0 
C 22 52 0 
C 24 52 0 
C 26 52 0 
C 28 52 0 
C 30 52 0 
C 32 52 0 
C 34 52 0 
C 36 52 0 
C 38 52 0 
C 40 52 0 
C 42 52 0 
C 44 52 0 
C 46 52 0 
C 48 52 0 
C 50 52 0 
C 52 52 0 
C 54 52 0 
C 56 52 0 
C 58 52 0 
C 60 52 0 
C 62 52 0 
C 64 52 0 
C 66 52 0 
C 68 52 0 
C 70 52 0 
C 72 52 0 
C 74 52 0 
C 76 52 0 
C 78 52 0 
C 80 52 0 
C 82 52 0 
C 84 52 0 
C 86 52 0 
C 88 52 0 
C 90 52 0 
C 92 52 0 
C 94 52 0 
C 96 52 0 
C 98 52 0 
C 100 52 0 
C 0 54 0 
C 2 54 0 
C 4 54 0 
C 6 54 0 
C 8 54 0 
C 10 54 0 
C 12 54 0 
C 14 54 0 
C 16 54 0 
C 18 54 0 
C 20 54 0 
C 22 54 0 
C 24 54 0 
C 26 54 0 
C 28 54 0 
C 30 54 0 
C 32 54 0 
C 34 54 0 
C 36 54 0 
C 38 54 0 
C 40 54 0 
C 42 54 0 
C 44 54 0 
C 46 54 0 
C 48 54 0 
C 50 54 0 
C 52 54 0 
C 54 54 0 
C 56 54 0 
C 58 54 0 
C 60 54 0 
C 62 54 0 
C 64 54 0 
C 66 54 0 
C 68 54 0 
C 70 54 0 
C 72 54 0 
C 74 54 0 
C 76 54 0 
C 78 54 0 
C 80 54 0 
C 82 54 0 
C 84 54 0 
C 86 54 0 
C 88 54 0 
C 90 54 0 
C 92 54 0 
C 94 54 0 
C 96 54 0 
C 98 54 0 
C 100 54 0 
C 0 56 0 
C 2 56 0 
C 4 56 0 
C 6 56 0 
C 8 56 0 
C 10 56 0 
C 12 56 0 
C 14 56 0 
C 16 56 0 
C 18 56 0 
C 20 56 0 
C 22 56 0 
C 24 56 0 
C 26 56 0 
C 28 56 0 
C 30 56 0 
C 32 56 0 
C 34 56 0 
C 36 56 0 
C 38 56 0 
C 40 56 0 
C 42 56 0 
C 44 56 0 
C 46 56 0 
C 48 56 0 
C 50 56 0 
C 52 56 0 
C 54 56 0 
C 56 56 0 
C 58 56 0 
C 60 56 0 
C 62 56 0 
C 64 56 0 
C 66 56 0 
C 68 56 0 
C 70 56 0 
C 72 56 0 
C 74 56 0 
C 76 56 0 
C 78 56 0 
C 80 56 0 
C 82 56 0 
C 84 56 0 
C 86 56 0 
C 88 56 0 
C 90 56 0 
C 92 56 0 
C 94 56 0 
C 96 56 0 
C 98 56 0 
C 100 56 0 
C 0 58 0 
C 2 58 0 
C 4 58 0 
C 6 58 0 
C 8 58 0 
C 10 58 0 
C 12 58 0 
C 14 58 0 
C 16 58 0 
C 18 58 0 
C 20 58 0 
C 22 58 0 
C 24 58 0 
C 26 58 0 
C 28 58 0 
C 30 58 0 
C 32 58 0 
C 34 58 0 
C 36 58 0 
C 38 58 0 
C 40 58 0 
C 42 58 0 
C 44 58 0 
C 46 58 0 
C 48 58 0 
C 50 58 0 
C 52 58 0 
C 54 58 0 
C 56 58 0 
C 58 58 0 
C 60 58 0 
C 62 58 0 
C 64 58 0 
C 66 58 0 
C 68 58 0 
C 70 58 0 
C 72 58 0 
C 74 58 0 
C 76 58 0 
C 78 58 0 
C 80 58 0 
C 82 58 0 
C 84 58 0 
C 86 58 0 
C 88 58 0 
C 90 58 0 
C 92 58 0 
C 94 58 0 
C 96 58 0 
C 98 58 0 
C 100 58 0 
C 0 60 0 
C 2 60 0 
C 4 60 0 
C 6 60 0 
C 8 60 0 
C 10 60 0 
C 12 60 0 
C 14 60 0 
C 16 60 0 
C 18 60 0 
C 20 60 0 
C 22 60 0 
C 24 60 0 
C 26 60 0 
C 28 60 0 
C 30 60 0 
C 32 60 0 
C 34 60 0 
C 36 60 0 
C 38 60 0 
C 40 60 0 
C 42 60 0 
C 44 60 0 
C 46 60 0 
C 48 60 0 
C 50 60 0 
C 52 60 0 
C 54 60 0 
C 56 60 0 
C 58 60 0 
C 60 60 0 
C 62 60 0 
C 64 60 0 
C 66 60 0 
C 68 60 0 
C 70 60 0 
C 72 60 0 
C 74 60 0 
C 76 60 0 
C 78 60 0 
C 80 60 0 
C 82 60 0 
C 84 60 0 
C 86 60 0 
C 88 60 0 
C 90 60 0 
C 92 60 0 
C 94 60 0 
C 96 60 0 
C 98 60 0 
C 100 60 0 
C 0 62 0 
C 2 62 0 
C 4 62 0 
C 6 62 0 
C 8 62 0 
C 10 62 0 
C 12 62 0 
C 14 62 0 
C 16 62 0 
C 18 62 0 
C 20 62 0 
C 22 62 0 
C 24 62 0 
C 26 62 0 
C 28 62 0 
C 30 62 0 
C 32 62 0 
C 34 62 0 
C 36 62 0 
C 38 62 0 
C 40 62 0 
C 42 62 0 
C 44 62 0 
C 46 62 0 
C 48 62 0 
C 50 62 0 
C 52 62 0 
C 54 62 0 
C 56 62 0 
C 58 62 0 
C 60 62 0 
C 62 62 0 
C 64 62 0 
C 66 62 0 
C 68 62 0 
C 70 62 0 
C 72 62 0 
C 74 62 0 
C 76 62 0 
C 78 62 0 
C 80 62 0 
C 82 62 0 
C 84 62 0 
C 86 62 0 
C 88 62 0 
C 90 62 0 
C 92 62 0 
C 94 62 0 
C 96 62 0 
C 98 62 0 
C 100 62 0 
C 0 64 0 
C 2 64 0 
C 4 64 0 
C 6 64 0 
C 8 64 0 
C 10 64 0 
C 12 64 0 
C 14 64 0 
C 16 64 0 
C 18 64 0 
C 20 64 0 
C 22 64 0 
C 24 64 0 
C 26 64 0 
C 28 64 0 
C 30 64 0 
C 32 64 0 
C 34 64 0 
C 36 64 0 
C 38 64 0 
C 40 64 0 
C 42 64 0 
C 44 64 0 
C 46 64 0 
C 48 64 0 
C 50 64 0 
C 52 64 0 
C 54 64 0 
C 56 64 0 
C 58 64 0 
C 60 64 0 
C 62 64 0 
C 64 64 0 
C 66 64 0 
C 68 64 0 
C 70 64 0 
C 72 64 0 
C 74 64 0 
C 76 64 0 
C 78 64 0 
C 80 64 0 
C 82 64 0 
C 84 64 0 
C 86 64 0 
C 88 64 0 
C 90 64 0 
C 92 64 0 
C 94 64 0 
C 96 64 0 
C 98 64 0 
C 100 64 0 
C 0 66 0 
C 2 66 0 
C 4 66 0 
C 6 66 0 
C 8 66 0 
C 10 66 0 
C 12 66 0 
C 14 66 0 
C 16 66 0 
C 18 66 0 
C 20 66 0 
C 22 66 0 
C 24 66 0 
C 26 66 0 
C 28 66 0 
C 30 66 0 
C 32 66 0 
C 34 66 0 
C 36 66 0 
C 38 66 0 
C 40 66 0 
C 42 66 0 
C 44 66 0 
C 46 66 0 
C 48 66 0 
C 50 66 0 
C 52 66 0 
C 54 66 0 
C 56 66 0 
C 58 66 0 
C 60 66 0 
C 62 66 0 
C 64 66 0 
C 66 66 0 
C 68 66 0 
C 70 66 0 
C 72 66 0 
C 74 66 0 
C 76 66 0 
C 78 66 0 
C 80 66 0 
C 82 66 0 
C 84 66 0 
C 86 66 0 
C 88 66 0 
C 90 66 0 
C 92 66 0 
C 94 66 0 
C 96 66 0 
C 98 66 0 
C 100 66 0 
C 0 68 0 
C 2 68 0 
C 4 68 0 
C 6 68 0 
C 8 68 0 
C 10 68 0 
C 12 68 0 
C 14 68 0 
C 16 68 0 
C 18 68 0 
C 20 68 0 
C 22 68 0 
C 24 68 0 
C 26 68 0 
C 28 68 0 
C 30 68 0 
C 32 68 0 
C 34 68 0 
C 36 68 0 
C 38 68 0 
C 40 68 0 
C 42 68 0 
C 44 68 0 
C 46 68 0 
C 48 68 0 
C 50 68 0 
C 52 68 0 
C 54 68 0 
C 56 68 0 
C 58 68 0 
C 60 68 0 
C 62 68 0 
C 64 68 0 
C 66 68 0 
C 68 68 0 
C 70 68 0 
C 72 68 0 
C 74 68 0 
C 76 68 0 
C 78 68 0 
C 80 68 0 
C 82 68 0 
C 84 68 0 
C 86 68 0 
C 88 68 0 
C 90 68 0 
C 92 68 0 
C 94 68 0 
C 96 68 0 
C 98 68 0 
C 100 68 0 
C 0 70 0 
C 2 70 0 
C 4 70 0 
C 6 70 0 
C 8 70 0 
C 10 70 0 
C 12 70 0 
C 14 70 0 
C 16 70 0 
C 18 70 0 
C 20 70 0 
C 22 70 0 
C 24 70 0 
C 26 70 0 
C 28 70 0 
C 30 70 0 
C 32 70 0 
C 34 70 0 
C 36 70 0 
C 38 70 0 
C 40 70 0 
C 42 70 0 
C 44 70 0 
C 46 70 0 
C 48 70 0 
C 50 70 0 
C 52 70 0 
C 54 70 0 
C 56 70 0 
C 58 70 0 
C 60 70 0 
C 62 70 0 
C 64 70 0 
C 66 70 0 
C 68 70 0 
C 70 70 0 
C 72 70 0 
C 74 70 0 
C 76 70 0 
C 78 70 0 
C 80 70 0 
C 82 70 0 
C 84 70 0 
C 86 70 0 
C 88 70 0 
C 90 70 0 
C 92 70 0 
C 94 70 0 
C 96 70 0 
C 98 70 0 
C 100 70 0 
C 0 72 0 
C 2 72 0 
C 4 72 0 
C 6 72 0 
C 8 72 0 
C 10 72 0 
C 12 72 0 
C 14 72 0 
C 16 72 0 
C 18 72 0 
C 20 72 0 
C 22 72 0 
C 24 72 0 
C 26 72 0 
C 28 72 0 
C 30 72 0 
C 32 72 0 
C 34 72 0 
C 36 72 0 
C 38 72 0 
C 40 72 0 
C 42 72 0 
C 44 72 0 
C 46 72 0 
C 48 72 0 
C 50 72 0 
C 52 72 0 
C 54 72 0 
C 56 72 0 
C 58 72 0 
C 60 72 0 
C 62 72 0 
C 64 72 0 
C 66 72 0 
C 68 72 0 
C 70 72 0 
C 72 72 0 
C 74 72 0 
C 76 72 0 
C 78 72 0 
C 80 72 0 
C 82 72 0 
C 84 72 0 
C 86 72 0 
C 88 72 0 
C 90 72 0 
C 92 72 0 
C 94 72 0 
C 96 72 0 
C 98 72 0 
C 100 72 0 
C 0 74 0 
C 2 74 0 
C 4 74 0 
C 6 74 0 
C 8 74 0 
C 10 74 0 
C 12 74 0 
C 14 74 0 
C 16 74 0 
C 18 74 0 
C 20 74 0 
C 22 74 0 
C 24 74 0 
C 26 74 0 
C 28 74 0 
C 30 74 0 
C 32 74 0 
C 34 74 0 
C 36 74 0 
C 38 74 0 
C 40 74 0 
C 42 74 0 
C 44 74 0 
C 46 74 0 
C 48 74 0 
C 50 74 0 
C 52 74 0 
C 54 74 0 
C 56 74 0 
C 58 74 0 
C 60 74 0 
C 62 74 0 
C 64 74 0 
C 66 74 0 
C 68 74 0 
C 70 74 0 
C 72 74 0 
C 74 74 0 
C 76 74 0 
C 78 74 0 
C 80 74 0 
C 82 74 0 
C 84 74 0 
C 86 74 0 
C 88 74 0 
C 90 74 0 
C 92 74 0 
C 94 74 0 
C 96 74 0 
C 98 74 0 
C 100 74 0 
C 0 76 0 
C 2 76 0 
C 4 76 0 
C 6 76 0 
C 8 76 0 
C 10 76 0 
C 12 76 0 
C 14 76 0 
C 16 76 0 
C 18 76 0 
C 20 76 0 
C 22 76 0 
C 24 76 0 
C 26 76 0 
C 28 76 0 
C 30 76 0 
C 32 76 0 
C 34 76 0 
C 36 76 0 
C 38 76 0 
C 40 76 0 
C 42 76 0 
C 44 76 0 
C 46 76 0 
C 48 76 0 
C 50 76 0 
C 52 76 0 
C 54 76 0 
C 56 76 0 
C 58 76 0 
C 60 76 0 
C 62 76 0 
C 64 76 0 
C 66 76 0 
C 68 76 0 
C 70 76 0 
C 72 76 0 
C 74 76 0 
C 76 76 0 
C 78 76 0 
C 80 76 0 
C 82 76 0 
C 84 76 0 
C 86 76 0 
C 88 76 0 
C 90 76 0 
C 92 76 0 
C 94 76 0 
C 96 76 0 
C 98 76 0 
C 100 76 0 
C 0 78 0 
C 2 78 0 
C 4 78 0 
C 6 78 0 
C 8 78 0 
C 10 78 0 
C 12 78 0 
C 14 78 0 
C 16 78 0 
C 18 78 0 
C 20 78 0 
C 22 78 0 
C 24 78 0 
C 26 78 0 
C 28 78 0 
C 30 78 0 
C 32 78 0 
C 34 78 0 
C 36 78 0 
C 38 78 0 
C 40 78 0 
C 42 78 0 
C 44 78 0 
C 46 78 0 
C 48 78 0 
C 50 78 0 
C 52 78 0 
C 54 78 0 
C 56 78 0 
C 58 78 0 
C 60 78 0 
C 62 78 0 
C 64 78 0 
C 66 78 0 
C 68 78 0 
C 70 78 0 
C 72 78 0 
C 74 78 0 
C 76 78 0 
C 78 78 0 
C 80 78 0 
C 82 78 0 
C 84 78 0 
C 86 78 0 
C 88 78 0 
C 90 78 0 
C 92 78 0 
C 94 78 0 
C 96 78 0 
C 98 78 0 
C 100 78 0 
C 0 80 0 
C 2 80 0 
C 4 80 0 
C 6 80 0 
C 8 80 0 
C 10 80 0 
C 12 80 0 
C 14 80 0 
C 16 80 0 
C 18 80 0 
C 20 80 0 
C 22 80 0 
C 24 80 0 
C 26 80 0 
C 28 80 0 
C 30 80 0 
C 32 80 0 
C 34 80 0 
C 36 80 0 
C 38 80 0 
C 40 80 0 
C 42 80 0 
C 44 80 0 
C 46 80 0 
C 48 80 0 
C 50 80 0 
C 52 80 0 
C 54 80 0 
C 56 80 0 
C 58 80 0 
C 60 80 0 
C 62 80 0 
C 64 80 0 
C 66 80 0 
C 68 80 0 
C 70 80 0 
C 72 80 0 
C 74 80 0 
C 76 80 0 
C 78 80 0 
C 80 80 0 
C 82 80 0 
C 84 80 0 
C 86 80 0 
C 88 80 0 
C 90 80 0 
C 92 80 0 
C 94 80 0 
C 96 80 0 
C 98 80 0 
C 100 80 0 
C 0 82 0 
C 2 82 0 
C 4 82 0 
C 6 82 0 
C 8 82 0 
C 10 82 0 
C 12 82 0 
C 14 82 0 
C 16 82 0 
C 18 82 0 
C 20 82 0 
C 22 82 0 
C 24 82 0 
C 26 82 0 
C 28 82 0 
C 30 82 0 
C 32 82 0 
C 34 82 0 
C 36 82 0 
C 38 82 0 
C 40 82 0 
C 42 82 0 
C 44 82 0 
C 46 82 0 
C 48 82 0 
C 50 82 0 
C 52 82 0 
C 54 82 0 
C 56 82 0 
C 58 82 0 
C 60 82 0 
C 62 82 0 
C 64 82 0 
C 66 82 0 
C 68 82 0 
C 70 82 0 
C 72 82 0 
C 74 82 0 
C 76 82 0 
C 78 82 0 
C 80 82 0 
C 82 82 0 
C 84 82 0 
C 86 82 0 
C 88 82 0 
C 90 82 0 
C 92 82 0 
C 94 82 0 
C 96 82 0 
C 98 82 0 
C 100 82 0 
C 0 84 0 
C 2 84 0 
C 4 84 0 
C 6 84 0 
C 8 84 0 
C 10 84 0 
C 12 84 0 
C 14 84 0 
C 16 84 0 
C 18 84 0 
C 20 84 0 
C 22 84 0 
C 24 84 0 
C 26 84 0 
C 28 84 0 
C 30 84 0 
C 32 84 0 
C 34 84 0 
C 36 84 0 
C 38 84 0 
C 40 84 0 
C 42 84 0 
C 44 84 0 
C 46 84 0 
C 48 84 0 
C 50 84 0 
C 52 84 0 
C 54 84 0 
C 56 84 0 
C 58 84 0 
C 60 84 0 
C 62 84 0 
C 64 84 0 
C 66 84 0 
C 68 84 0 
C 70 84 0 
C 72 84 0 
C 74 84 0 
C 76 84 0 
C 78 84 0 
C 80 84 0 
C 82 84 0 
C 84 84 0 
C 86 84 0 
C 88 84 0 
C 90 84 0 
C 92 84 0 
C 94 84 0 
C 96 84 0 
C 98 84 0 
C 100 84 0 
C 0 86 0 
C 2 86 0 
C 4 86 0 
C 6 86 0 
C 8 86 0 
C 10 86 0 
C 12 86 0 
C 14 86 0 
C 16 86 0 
C 18 86 0 
C 20 86 0 
C 22 86 0 
C 24 86 0 
C 26 86 0 
C 28 86 0 
C 30 86 0 
C 32 86 0 
C 34 86 0 
C 36 86 0 
C 38 86 0 
C 40 86 0 
C 42 86 0 
C 44 86 0 
C 46 86 0 
C 48 86 0 
C 50 86 0 
C 52 86 0 
C 54 86 0 
C 56 86 0 
C 58 86 0 
C 60 86 0 
C 62 86 0 
C 64 86 0 
C 66 86 0 
C 68 86 0 
C 70 86 0 
C 72 86 0 
C 74 86 0 
C 76 86 0 
C 78 86 0 
C 80 86 0 
C 82 86 0 
C 84 86 0 
C 86 86 0 
C 88 86 0 
C 90 86 0 
C 92 86 0 
C 94 86 0 
C 96 86 0 
C 98 86 0 
C 100 86 0 
C 0 88 0 
C 2 88 0 
C 4 88 0 
C 6 88 0 
C 8 88 0 
C 10 88 0 
C 12 88 0 
C 14 88 0 
C 16 88 0 
C 18 88 0 
C 20 88 0 
C 22 88 0 
C 24 88 0 
C 26 88 0 
C 28 88 0 
C 30 88 0 
C 32 88 0 
C 34 88 0 
C 36 88 0 
C 38 88 0 
C 40 88 0 
C 42 88 0 
C 44 88 0 
C 46 88 0 
C 48 88 0 
C 50 88 0 
C 52 88 0 
C 54 88 0 
C 56 88 0 
C 58 88 0 
C 60 88 0 
C 62 88 0 
C 64 88 0 
C 66 88 0 
C 68 88 0 
C 70 88 0 
C 72 88 0 
C 74 88 0 
C 76 88 0 
C 78 88 0 
C 80 88 0 
C 82 88 0 
C 84 88 0 
C 86 88 0 
C 88 88 0 
C 90 88 0 
C 92 88 0 
C 94 88 0 
C 96 88 0 
C 98 88 0 
C 100 88 0 
C 0 90 0 
C 2 90 0 
C 4 90 0 
C 6 90 0 
C 8 90 0 
C 10 90 0 
C 12 90 0 
C 14 90 0 
C 16 90 0 
C 18 90 0 
C 20 90 0 
C 22 90 0 
C 24 90 0 
C 26 90 0 
C 28 90 0 
C 30 90 0 
C 32 90 0 
C 34 90 0 
C 36 90 0 
C 38 90 0 
C 40 90 0 
C 42 90 0 
C 44 90 0 
C 46 90 0 
C 48 90 0 
C 50 90 0 
C 52 90 0 
C 54 90 0 
C 56 90 0 
C 58 90 0 
C 60 90 0 
C 62 90 0 
C 64 90 0 
C 66 90 0 
C 68 90 0 
C 70 90 0 
C 72 90 0 
C 74 90 0 
C 76 90 0 
C 78 90 0 
C 80 90 0 
C 82 90 0 
C 84 90 0 
C 86 90 0 
C 88 90 0 
C 90 90 0 
C 92 90 0 
C 94 90 0 
C 96 90 0 
C 98 90 0 
C 100 90 0 
C 0 92 0 
C 2 92 0 
C 4 92 0 
C 6 92 0 
C 8 92 0 
C 10 92 0 
C 12 92 0 
C 14 92 0 
C 16 92 0 
C 18 92 0 
C 20 92 0 
C 22 92 0 
C 24 92 0 
C 26 92 0 
C 28 92 0 
C 30 92 0 
C 32 92 0 
C 34 92 0 
C 36 92 0 
C 38 92 0 
C 40 92 0 
C 42 92 0 
C 44 92 0 
C 46 92 0 
C 48 92 0 
C 50 92 0 
C 52 92 0 
C 54 92 0 
C 56 92 0 
C 58 92 0 
C 60 92 0 
C 62 92 0 
C 64 92 0 
C 66 92 0 
C 68 92 0 
C 70 92 0 
C 72 92 0 
C 74 92 0 
C 76 92 0 
C 78 92 0 
C 80 92 0 
C 82 92 0 
C 84 92 0 
C 86 92 0 
C 88 92 0 
C 90 92 0 
C 92 92 0 
C 94 92 0 
C 96 92 0 
C 98 92 0 
C 100 92 0 
C 0 94 0 
C 2 94 0 
C 4 94 0 
C 6 94 0 
C 8 94 0 
C 10 94 0 
C 12 94 0 
C 14 94 0 
C 16 94 0 
C 18 94 0 
C 20 94 0 
C 22 94 0 
C 24 94 0 
C 26 94 0 
C 28 94 0 
C 30 94 0 
C 32 94 0 
C 34 94 0 
C 36 94 0 
C 38 94 0 
C 40 94 0 
C 42 94 0 
C 44 94 0 
C 46 94 0 
C 48 94 0 
C 50 94 0 
C 52 94 0 
C 54 94 0 
C 56 94 0 
C 58 94 0 
C 60 94 0 
C 62 94 0 
C 64 94 0 
C 66 94 0 
C 68 94 0 
C 70 94 0 
C 72 94 0 
C 74 94 0 
C 76 94 0 
C 78 94 0 
C 80 94 0 
C 82 94 0 
C 84 94 0 
C 86 94 0 
C 88 94 0 
C 90 94 0 
C 92 94 0 
C 94 94 0 
C 96 94 0 
C 98 94 0 
C 100 94 0 
C 0 96 0 
C 2 96 0 
C 4 96 0 
C 6 96 0 
C 8 96 0 
C 10 96 0 
C 12 96 0 
C 14 96 0 
C 16 96 0 
C 18 96 0 
C 20 96 0 
C 22 96 0 
C 24 96 0 
C 26 96 0 
C 28 96 0 
C 30 96 0 
C 32 96 0 
C 34 96 0 
C 36 96 0 
C 38 96 0 
C 40 96 0 
C 42 96 0 
C 44 96 0 
C 46 96 0 
C 48 96 0 
C 50 96 0 
C 52 96 0 
C 54 96 0 
C 56 96 0 
C 58 96 0 
C 60 96 0 
C 62 96 0 
C 64 96 0 
C 66 96 0 
C 68 96 0 
C 70 96 0 
C 72 96 0 
C 74 96 0 
C 76 96 0 
C 78 96 0 
C 80 96 0 
C 82 96 0 
C 84 96 0 
C 86 96 0 
C 88 96 0 
C 90 96 0 
C 92 96 0 
C 94 96 0 
C 96 96 0 
C 98 96 0 
C 100 96 0 
C 0 98 0 
C 2 98 0 
C 4 98 0 
C 6 98 0 
C 8 98 0 
C 10 98 0 
C 12 98 0 
C 14 98 0 
C 16 98 0 
C 18 98 0 
C 20 98 0 
C 22 98 0 
C 24 98 0 
C 26 98 0 
C 28 98 0 
C 30 98 0 
C 32 98 0 
C 34 98 0 
C 36 98 0 
C 38 98 0 
C 40 98 0 
C 42 98 0 
C 44 98 0 
C 46 98 0 
C 48 98 0 
C 50 98 0 
C 52 98 0 
C 54 98 0 
C 56 98 0 
C 58 98 0 
C 60 98 0 
C 62 98 0 
C 64 98 0 
C 66 98 0 
C 68 98 0 
C 70 98 0 
C 72 98 0 
C 74 98 0 
C 76 98 0 
C 78 98 0 
C 80 98 0 
C 82 98 0 
C 84 98 0 
C 86 98 0 
C 88 98 0 
C 90 98 0 
C 92 98 0 
C 94 98 0 
C 96 98 0 
C 98 98 0 
C 100 98 0 
C 0 100 0 
C 2 100 0 
C 4 100 0 
C 6 100 0 
C 8 100 0 
C 10 100 0 
C 12 100 0 
C 14 100 0 
C 16 100 0 
C 18 100 0 
C 20 100 0 
C 22 100 0 
C 24 100 0 
C 26 100 0 
C 28 100 0 
C 30 100 0 
C 32 100 0 
C 34 100 0 
C 36 100 0 
C 38 100 0 
C 40 100 0 
C 42 100 0 
C 44 100 0 
C 46 100 0 
C 48 100 0 
C 50 100 0 
C 52 100 0 
C 54 100 0 
C 56 100 0 
C 58 100 0 
C 60 100 0 
C 62 100 0 
C 64 100 0 
C 66 100 0 
C 68 100 0 
C 70 100 0 
C 72 100 0 
C 74 100 0 
C 76 100 0 
C 78 100 0 
C 80 100 0 
C 82 100 0 
C 84 100 0 
C 86 100 0 
C 88 100 0 
C 90 100 0 
C 92 100 0 
C 94 100 0 
C 96 100 0 
C 98 100 0 
C 100 100 0 
O 1 0 0 
O 9 26 0 
O 42 27 0 
O 26 99 0 
O 99 93 0 
O 76 99 0 
O 69 94 0 
O 48 77 0 
O 99 88 0 
O 91 91 0 
O 45 90 0 
O 99 99 0 
O 99 97 0 
3110
Atoms. Timestep: 9
N 85 19 0 
N 21 52 0 
N 16 67 0 
N 48 93 0 
N 36 21 0 
N 58 25 0 
N 85 67 0 
N 7 54 0 
N 13 46 0 
N 50 27 0 
N 14 7 0 
N 58 29 0 
N 64 13 0 
N 82 85 0 
N 56 89 0 
N 47 62 0 
N 41 76 0 
N 5 91 0 
N 3 13 0 
N 86 23 0 
N 13 41 0 
N 77 11 0 
N 16 27 0 
N 47 77 0 
N 66 99 0 
N 11 93 0 
N 89 11 0 
N 67 99 0 
N 3 34 0 
N 33 47 0 
N 75 32 0 
N 58 19 0 
N 23 67 0 
N 95 48 0 
N 28 19 0 
N 77 53 0 
N 95 74 0 
N 67 10 0 
N 67 91 0 
N 97 5 0 
N 43 11 0 
N 28 99 0 
N 89 27 0 
N 29 62 0 
N 52 41 0 
N 60 25 0 
N 51 77 0 
N 51 33 0 
N 92 79 0 
N 29 14 0 
N 55 25 0 
N 42 37 0 
N 9 21 0 
N 22 27 0 
N 99 74 0 
N 17 79 0 
N 51 69 0 
N 87 9 0 
N 6 23 0 
N 69 71 0 
N 99 65 0 
N 74 99 0 
N 6 33 0 
N 73 89 0 
N 73 13 0 
N 7 62 0 
N 73 63 0 
N 85 27 0 
N 41 23 0 
N 61 29 0 
N 43 24 0 
N 5 97 0 
N 6 47 0 
N 21 75 0 
N 40 85 0 
N 37 27 0 
N 53 89 0 
N 5 32 0 
N 29 47 0 
N 72 11 0 
N 59 42 0 
N 95 23 0 
N 72 93 0 
N 91 44 0 
N 3 32 0 
N 8 23 0 
N 37 69 0 
N 7 79 0 
N 19 28 0 
N 85 85 0 
N 64 83 0 
N 99 94 0 
N 13 18 0 
N 91 63 0 
N 89 9 0 
N 73 6 0 
N 69 56 0 
N 95 13 0 
N 69 67 0 
N 9 29 0 
N 45 66 0 
N 61 94 0 
N 43 37 0 
N 87 15 0 
N 92 93 0 
N 53 88 0 
N 69 68 0 
N 69 52 0 
N 28 93 0 
N 22 77 0 
N 27 47 0 
N 73 68 0 
N 20 77 0 
N 83 11 0 
N 45 68 0 
N 47 46 0 
N 11 56 0 
N 1 77 0 
N 69 93 0 
N 26 99 0 
N 36 27 0 
N 51 81 0 
N 43 25 0 
N 53 61 0 
N 11 26 0 
N 75 10 0 
N 5 73 0 
N 3 10 0 
N 28 11 0 
N 95 88 0 
N 8 85 0 
N 66 43 0 
N 12 45 0 
N 72 99 0 
N 13 11 0 
N 15 77 0 
N 31 59 0 
N 82 45 0 
N 95 45 0 
N 86 17 0 
N 12 43 0 
N 73 80 0 
N 75 4 0 
N 57 9 0 
N 88 87 0 
N 45 90 0 
N 97 49 0 
N 45 60 0 
N 99 81 0 
N 66 93 0 
N 91 41 0 
N 96 71 0 
N 30 33 0 
N 9 97 0 
N 47 74 0 
N 22 79 0 
N 99 84 0 
N 9 67 0 
N 1 3 0 
N 14 43 0 
N 89 39 0 
N 43 61 0 
N 89 40 0 
N 22 1 0 
N 39 88 0 
N 39 79 0 
N 73 14 0 
N 89 90 0 
N 95 24 0 
N 47 75 0 
N 3 99 0 
N 75 33 0 
N 19 41 0 
N 15 18 0 
N 68 27 0 
N 44 89 0 
N 93 64 0 
N 50 3 0 
N 81 82 0 
N 81 88 0 
N 68 31 0 
N 17 10 0 
N 85 55 0 
N 45 61 0 
N 4 67 0 
N 5 66 0 
N 97 54 0 
N 69 81 0 
N 93 71 0 
N 19 18 0 
N 23 73 0 
N 1 93 0 
N 67 67 0 
N 21 89 0 
N 57 69 0 
N 96 27 0 
N 67 77 0 
N 95 25 0 
N 45 33 0 
N 96 29 0 
N 76 7 0 
N 65 91 0 
N 63 28 0 
N 45 92 0 
N 65 7 0 
N 35 69 0 
N 64 27 0 
N 58 41 0 
N 98 85 0 
N 92 59 0 
N 26 59 0 
N 24 67 0 
N 17 8 0 
N 96 25 0 
N 27 18 0 
N 11 72 0 
N 62 71 0 
N 55 65 0 
N 89 88 0 
N 26 85 0 
N 7 55 0 
N 85 25 0 
N 99 68 0 
N 59 27 0 
N 21 45 0 
N 99 82 0 
N 75 41 0 
N 92 53 0 
N 77 27 0 
N 99 69 0 
N 89 83 0 
N 57 46 0 
N 41 27 0 
N 90 79 0 
N 69 59 0 
N 79 57 0 
N 27 29 0 
N 70 85 0 
N 5 37 0 
N 26 13 0 
N 75 57 0 
N 19 67 0 
N 95 54 0 
N 9 24 0 
N 53 51 0 
N 25 1 0 
N 30 13 0 
N 21 68 0 
N 15 67 0 
N 14 15 0 
N 83 91 0 
N 48 61 0 
N 41 89 0 
N 19 27 0 
N 11 33 0 
N 14 27 0 
N 76 45 0 
N 59 37 0 
N 52 27 0 
N 19 81 0 
N 11 67 0 
N 5 35 0 
N 94 47 0 
N 9 26 0 
N 45 77 0 
N 91 91 0 
N 53 39 0 
N 75 49 0 
N 89 78 0 
N 61 42 0 
N 91 97 0 
N 21 11 0 
N 37 90 0 
N 11 5 0 
N 41 47 0 
N 59 59 0 
N 5 27 0 
N 31 34 0 
N 51 68 0 
N 5 31 0 
N 55 74 0 
N 16 17 0 
N 39 75 0 
N 73 26 0 
N 30 77 0 
N 61 23 0 
N 89 89 0 
N 42 39 0 
N 90 11 0 
N 89 7 0 
N 46 7 0 
N 41 25 0 
N 63 89 0 
N 64 11 0 
N 45 9 0 
N 31 75 0 
N 41 39 0 
N 17 67 0 
N 16 47 0 
N 89 47 0 
N 75 93 0 
N 7 57 0 
N 25 89 0 
N 11 99 0 
N 50 61 0 
N 57 8 0 
N 69 78 0 
N 11 46 0 
N 75 5 0 
N 25 87 0 
N 99 71 0 
N 37 51 0 
N 41 2 0 
N 9 31 0 
N 30 99 0 
N 33 76 0 
N 29 7 0 
N 69 36 0 
N 3 8 0 
N 49 25 0 
N 69 76 0 
N 5 16 0 
N 93 46 0 
N 25 69 0 
N 39 14 0 
N 69 6 0 
N 63 25 0 
N 95 3 0 
N 50 89 0 
N 12 47 0 
N 47 33 0 
N 86 5 0 
N 89 45 0 
N 67 23 0 
N 90 49 0 
N 42 31 0 
N 20 99 0 
N 11 95 0 
N 77 6 0 
N 79 66 0 
N 40 31 0 
N 31 36 0 
N 56 7 0 
N 77 42 0 
N 11 18 0 
N 17 95 0 
N 90 5 0 
N 47 89 0 
N 79 91 0 
N 53 87 0 
N 77 23 0 
N 69 85 0 
N 11 49 0 
N 97 63 0 
N 15 16 0 
N 44 27 0 
N 49 32 0 
N 35 2 0 
N 29 98 0 
N 43 59 0 
N 81 20 0 
N 63 30 0 
N 45 75 0 
N 41 29 0 
N 33 35 0 
N 3 36 0 
N 76 13 0 
N 49 43 0 
N 92 43 0 
N 97 42 0 
N 27 81 0 
N 69 11 0 
N 42 79 0 
N 61 26 0 
N 29 67 0 
N 43 8 0 
N 55 48 0 
N 91 13 0 
N 57 29 0 
N 73 92 0 
N 28 3 0 
N 7 92 0 
N 43 9 0 
N 35 77 0 
N 31 66 0 
N 55 51 0 
N 63 49 0 
N 40 25 0 
N 81 47 0 
N 11 27 0 
N 85 95 0 
N 97 78 0 
N 52 89 0 
N 75 27 0 
N 91 47 0 
N 4 33 0 
N 49 3 0 
N 58 27 0 
N 81 85 0 
N 53 76 0 
N 81 89 0 
N 9 65 0 
N 9 47 0 
N 31 62 0 
N 21 85 0 
N 79 35 0 
N 37 64 0 
N 81 69 0 
N 87 44 0 
N 45 31 0 
N 75 8 0 
N 61 7 0 
N 90 7 0 
N 11 40 0 
N 91 11 0 
N 55 47 0 
N 11 52 0 
N 32 33 0 
N 69 47 0 
N 90 41 0 
N 97 79 0 
N 90 29 0 
N 19 87 0 
N 48 65 0 
N 95 67 0 
N 81 13 0 
N 41 49 0 
N 13 63 0 
N 79 22 0 
N 7 26 0 
N 25 85 0 
N 35 25 0 
N 79 15 0 
N 35 67 0 
N 68 51 0 
N 93 54 0 
N 85 45 0 
N 1 9 0 
N 50 87 0 
N 78 67 0 
N 67 5 0 
N 11 63 0 
N 29 2 0 
N 19 68 0 
N 18 45 0 
N 17 26 0 
N 70 79 0 
N 73 87 0 
N 20 65 0 
N 19 66 0 
N 60 77 0 
N 97 80 0 
N 97 27 0 
N 72 19 0 
N 69 29 0 
N 61 30 0 
N 41 61 0 
N 93 66 0 
N 76 69 0 
N 0 5 0 
N 41 83 0 
N 59 33 0 
N 11 28 0 
N 21 90 0 
N 29 63 0 
N 14 13 0 
N 8 27 0 
N 81 66 0 
N 51 75 0 
N 17 69 0 
N 45 89 0 
N 9 13 0 
N 9 3 0 
N 39 15 0 
N 87 19 0 
N 42 47 0 
N 5 67 0 
N 41 87 0 
N 41 69 0 
N 32 11 0 
N 49 60 0 
N 93 39 0 
N 89 95 0 
N 62 27 0 
N 55 41 0 
N 77 20 0 
N 22 91 0 
N 97 26 0 
N 75 23 0 
N 87 13 0 
N 41 85 0 
N 47 21 0 
N 41 15 0 
N 34 27 0 
N 41 77 0 
N 49 40 0 
N 7 63 0 
N 76 17 0 
N 36 77 0 
N 95 69 0 
C 0 0 0 
C 2 0 0 
C 4 0 0 
C 6 0 0 
C 8 0 0 
C 10 0 0 
C 12 0 0 
C 14 0 0 
C 16 0 0 
C 18 0 0 
C 20 0 0 
C 22 0 0 
C 24 0 0 
C 26 0 0 
C 28 0 0 
C 30 0 0 
C 32 0 0 
C 34 0 0 
C 36 0 0 
C 38 0 0 
C 40 0 0 
C 42 0 0 
C 44 0 0 
C 46 0 0 
C 48 0 0 
C 50 0 0 
C 52 0 0 
C 54 0 0 
C 56 0 0 
C 58 0 0 
C 60 0 0 
C 62 0 0 
C 64 0 0 
C 66 0 0 
C 68 0 0 
C 70 0 0 
C 72 0 0 
C 74 0 0 
C 76 0 0 
C 78 0 0 
C 80 0 0 
C 82 0 0 
C 84 0 0 
C 86 0 0 
C 88 0 0 
C 90 0 0 
C 92 0 0 
C 94 0 0 
C 96 0 0 
C 98 0 0 
C 100 0 0 
C 0 2 0 
C 2 2 0 
C 4 2 0 
C 6 2 0 
C 8 2 0 
C 10 2 0 
C 12 2 0 
C 14 2 0 
C 16 2 0 
C 18 2 0 
C 20 2 0 
C 22 2 0 
C 24 2 0 
C 26 2 0 
C 28 2 0 
C 30 2 0 
C 32 2 0 
C 34 2 0 
C 36 2 0 
C 38 2 0 
C 40 2 0 
C 42 2 0 
C 44 2 0 
C 46 2 0 
C 48 2 0 
C 50 2 0 
C 52 2 0 
C 54 2 0 
C 56 2 0 
C 58 2 0 
C 60 2 0 
C 62 2 0 
C 64 2 0 
C 66 2 0 
C 68 2 0 
C 70 2 0 
C 72 2 0 
C 74 2 0 
C 76 2 0 
C 78 2 0 
C 80 2 0 
C 82 2 0 
C 84 2 0 
C 86 2 0 
C 88 2 0 
C 90 2 0 
C 92 2 0 
C 94 2 0 
C 96 2 0 
C 98 2 0 
C 100 2 0 
C 0 4 0 
C 2 4 0 
C 4 4 0 
C 6 4 0 
C 8 4 0 
C 10 4 0 
C 12 4 0 
C 14 4 0 
C 16 4 0 
C 18 4 0 
C 20 4 0 
C 22 4 0 
C 24 4 0 
C 26 4 0 
C 28 4 0 
C 30 4 0 
C 32 4 0 
C 34 4 0 
C 36 4 0 
C 38 4 0 
C 40 4 0 
C 42 4 0 
C 44 4 0 
C 46 4 0 
C 48 4 0 
C 50 4 0 
C 52 4 0 
C 54 4 0 
C 56 4 0 
C 58 4 0 
C 60 4 0 
C 62 4 0 
C 64 4 0 
C 66 4 0 
C 68 4 0 
C 70 4 0 
C 72 4 0 
C 74 4 0 
C 76 4 0 
C 78 4 0 
C 80 4 0 
C 82 4 0 
C 84 4 0 
C 86 4 0 
C 88 4 0 
C 90 4 0 
C 92 4 0 
C 94 4 0 
C 96 4 0 
C 98 4 0 
C 100 4 0 
C 0 6 0 
C 2 6 0 
C 4 6 0 
C 6 6 0 
C 8 6 0 
C 10 6 0 
C 12 6 0 
C 14 6 0 
C 16 6 0 
C 18 6 0 
C 20 6 0 
C 22 6 0 
C 24 6 0 
C 26 6 0 
C 28 6 0 
C 30 6 0 
C 32 6 0 
C 34 6 0 
C 36 6 0 
C 38 6 0 
C 40 6 0 
C 42 6 0 
C 44 6 0 
C 46 6 0 
C 48 6 0 
C 50 6 0 
C 52 6 0 
C 54 6 0 
C 56 6 0 
C 58 6 0 
C 60 6 0 
C 62 6 0 
C 64 6 0 
C 66 6 0 
C 68 6 0 
C 70 6 0 
C 72 6 0 
C 74 6 0 
C 76 6 0 
C 78 6 0 
C 80 6 0 
C 82 6 0 
C 84 6 0 
C 86 6 0 
C 88 6 0 
C 90 6 0 
C 92 6 0 
C 94 6 0 
C 96 6 0 
C 98 6 0 
C 100 6 0 
C 0 8 0 
C 2 8 0 
C 4 8 0 
C 6 8 0 
C 8 8 0 
C 10 8 0 
C 12 8 0 
C 14 8 0 
C 16 8 0 
C 18 8 0 
C 20 8 0 
C 22 8 0 
C 24 8 0 
C 26 8 0 
C 28 8 0 
C 30 8 0 
C 32 8 0 
C 34 8 0 
C 36 8 0 
C 38 8 0 
C 40 8 0 
C 42 8 0 
C 44 8 0 
C 46 8 0 
C 48 8 0 
C 50 8 0 
C 52 8 0 
C 54 8 0 
C 56 8 0 
C 58 8 0 
C 60 8 0 
C 62 8 0 
C 64 8 0 
C 66 8 0 
C 68 8 0 
C 70 8 0 
C 72 8 0 
C 74 8 0 
C 76 8 0 
C 78 8 0 
C 80 8 0 
C 82 8 0 
C 84 8 0 
C 86 8 0 
C 88 8 0 
C 90 8 0 
C 92 8 0 
C 94 8 0 
C 96 8 0 
C 98 8 0 
C 100 8 0 
C 0 10 0 
C 2 10 0 
C 4 10 0 
C 6 10 0 
C 8 10 0 
C 10 10 0 
C 12 10 0 
C 14 10 0 
C 16 10 0 
C 18 10 0 
C 20 10 0 
C 22 10 0 
C 24 10 0 
C 26 10 0 
C 28 10 0 
C 30 10 0 
C 32 10 0 
C 34 10 0 
C 36 10 0 
C 38 10 0 
C 40 10 0 
C 42 10 0 
C 44 10 0 
C 46 10 0 
C 48 10 0 
C 50 10 0 
C 52 10 0 
C 54 10 0 
C 56 10 0 
C 58 10 0 
C 60 10 0 
C 62 10 0 
C 64 10 0 
C 66 10 0 
C 68 10 0 
C 70 10 0 
C 72 10 0 
C 74 10 0 
C 76 10 0 
C 78 10 0 
C 80 10 0 
C 82 10 0 
C 84 10 0 
C 86 10 0 
C 88 10 0 
C 90 10 0 
C 92 10 0 
C 94 10 0 
C 96 10 0 
C 98 10 0 
C 100 10 0 
C 0 12 0 
C 2 12 0 
C 4 12 0 
C 6 12 0 
C 8 12 0 
C 10 12 0 
C 12 12 0 
C 14 12 0 
C 16 12 0 
C 18 12 0 
C 20 12 0 
C 22 12 0 
C 24 12 0 
C 26 12 0 
C 28 12 0 
C 30 12 0 
C 32 12 0 
C 34 12 0 
C 36 12 0 
C 38 12 0 
C 40 12 0 
C 42 12 0 
C 44 12 0 
C 46 12 0 
C 48 12 0 
C 50 12 0 
C 52 12 0 
C 54 12 0 
C 56 12 0 
C 58 12 0 
C 60 12 0 
C 62 12 0 
C 64 12 0 
C 66 12 0 
C 68 12 0 
C 70 12 0 
C 72 12 0 
C 74 12 0 
C 76 12 0 
C 78 12 0 
C 80 12 0 
C 82 12 0 
C 84 12 0 
C 86 12 0 
C 88 12 0 
C 90 12 0 
C 92 12 0 
C 94 12 0 
C 96 12 0 
C 98 12 0 
C 100 12 0 
C 0 14 0 
C 2 14 0 
C 4 14 0 
C 6 14 0 
C 8 14 0 
C 10 14 0 
C 12 14 0 
C 14 14 0 
C 16 14 0 
C 18 14 0 
C 20 14 0 
C 22 14 0 
C 24 14 0 
C 26 14 0 
C 28 14 0 
C 30 14 0 
C 32 14 0 
C 34 14 0 
C 36 14 0 
C 38 14 0 
C 40 14 0 
C 42 14 0 
C 44 14 0 
C 46 14 0 
C 48 14 0 
C 50 14 0 
C 52 14 0 
C 54 14 0 
C 56 14 0 
C 58 14 0 
C 60 14 0 
C 62 14 0 
C 64 14 0 
C 66 14 0 
C 68 14 0 
C 70 14 0 
C 72 14 0 
C 74 14 0 
C 76 14 0 
C 78 14 0 
C 80 14 0 
C 82 14 0 
C 84 14 0 
C 86 14 0 
C 88 14 0 
C 90 14 0 
C 92 14 0 
C 94 14 0 
C 96 14 0 
C 98 14 0 
C 100 14 0 
C 0 16 0 
C 2 16 0 
C 4 16 0 
C 6 16 0 
C 8 16 0 
C 10 16 0 
C 12 16 0 
C 14 16 0 
C 16 16 0 
C 18 16 0 
C 20 16 0 
C 22 16 0 
C 24 16 0 
C 26 16 0 
C 28 16 0 
C 30 16 0 
C 32 16 0 
C 34 16 0 
C 36 16 0 
C 38 16 0 
C 40 16 0 
C 42 16 0 
C 44 16 0 
C 46 16 0 
C 48 16 0 
C 50 16 0 
C 52 16 0 
C 54 16 0 
C 56 16 0 
C 58 16 0 
C 60 16 0 
C 62 16 0 
C 64 16 0 
C 66 16 0 
C 68 16 0 
C 70 16 0 
C 72 16 0 
C 74 16 0 
C 76 16 0 
C 78 16 0 
C 80 16 0 
C 82 16 0 
C 84 16 0 
C 86 16 0 
C 88 16 0 
C 90 16 0 
C 92 16 0 
C 94 16 0 
C 96 16 0 
C 98 16 0 
C 100 16 0 
C 0 18 0 
C 2 18 0 
C 4 18 0 
C 6 18 0 
C 8 18 0 
C 10 18 0 
C 12 18 0 
C 14 18 0 
C 16 18 0 
C 18 18 0 
C 20 18 0 
C 22 18 0 
C 24 18 0 
C 26 18 0 
C 28 18 0 
C 30 18 0 
C 32 18 0 
C 34 18 0 
C 36 18 0 
C 38 18 0 
C 40 18 0 
C 42 18 0 
C 44 18 0 
C 46 18 0 
C 48 18 0 
C 50 18 0 
C 52 18 0 
C 54 18 0 
C 56 18 0 
C 58 18 0 
C 60 18 0 
C 62 18 0 
C 64 18 0 
C 66 18 0 
C 68 18 0 
C 70 18 0 
C 72 18 0 
C 74 18 0 
C 76 18 0 
C 78 18 0 
C 80 18 0 
C 82 18 0 
C 84 18 0 
C 86 18 0 
C 88 18 0 
C 90 18 0 
C 92 18 0 
C 94 18 0 
C 96 18 0 
C 98 18 0 
C 100 18 0 
C 0 20 0 
C 2 20 0 
C 4 20 0 
C 6 20 0 
C 8 20 0 
C 10 20 0 
C 12 20 0 
C 14 20 0 
C 16 20 0 
C 18 20 0 
C 20 20 0 
C 22 20 0 
C 24 20 0 
C 26 20 0 
C 28 20 0 
C 30 20 0 
C 32 20 0 
C 34 20 0 
C 36 20 0 
C 38 20 0 
C 40 20 0 
C 42 20 0 
C 44 20 0 
C 46 20 0 
C 48 20 0 
C 50 20 0 
C 52 20 0 
C 54 20 0 
C 56 20 0 
C 58 20 0 
C 60 20 0 
C 62 20 0 
C 64 20 0 
C 66 20 0 
C 68 20 0 
C 70 20 0 
C 72 20 0 
C 74 20 0 
C 76 20 0 
C 78 20 0 
C 80 20 0 
C 82 20 0 
C 84 20 0 
C 86 20 0 
C 88 20 0 
C 90 20 0 
C 92 20 0 
C 94 20 0 
C 96 20 0 
C 98 20 0 
C 100 20 0 
C 0 22 0 
C 2 22 0 
C 4 22 0 
C 6 22 0 
C 8 22 0 
C 10 22 0 
C 12 22 0 
C 14 22 0 
C 16 22 0 
C 18 22 0 
C 20 22 0 
C 22 22 0 
C 24 22 0 
C 26 22 0 
C 28 22 0 
C 30 22 0 
C 32 22 0 
C 34 22 0 
C 36 22 0 
C 38 22 0 
C 40 22 0 
C 42 22 0 
C 44 22 0 
C 46 22 0 
C 48 22 0 
C 50 22 0 
C 52 22 0 
C 54 22 0 
C 56 22 0 
C 58 22 0 
C 60 22 0 
C 62 22 0 
C 64 22 0 
C 66 22 0 
C 68 22 0 
C 70 22 0 
C 72 22 0 
C 74 22 0 
C 76 22 0 
C 78 22 0 
C 80 22 0 
C 82 22 0 
C 84 22 0 
C 86 22 0 
C 88 22 0 
C 90 22 0 
C 92 22 0 
C 94 22 0 
C 96 22 0 
C 98 22 0 
C 100 22 0 
C 0 24 0 
C 2 24 0 
C 4 24 0 
C 6 24 0 
C 8 24 0 
C 10 24 0 
C 12 24 0 
C 14 24 0 
C 16 24 0 
C 18 24 0 
C 20 24 0 
C 22 24 0 
C 24 24 0 
C 26 24 0 
C 28 24 0 
C 30 24 0 
C 32 24 0 
C 34 24 0 
C 36 24 0 
C 38 24 0 
C 40 24 0 
C 42 24 0 
C 44 24 0 
C 46 24 0 
C 48 24 0 
C 50 24 0 
C 52 24 0 
C 54 24 0 
C 56 24 0 
C 58 24 0 
C 60 24 0 
C 62 24 0 
C 64 24 0 
C 66 24 0 
C 68 24 0 
C 70 24 0 
C 72 24 0 
C 74 24 0 
C 76 24 0 
C 78 24 0 
C 80 24 0 
C 82 24 0 
C 84 24 0 
C 86 24 0 
C 88 24 0 
C 90 24 0 
C 92 24 0 
C 94 24 0 
C 96 24 0 
C 98 24 0 
C 100 24 0 
C 0 26 0 
C 2 26 0 
C 4 26 0 
C 6 26 0 
C 8 26 0 
C 10 26 0 
C 12 26 0 
C 14 26 0 
C 16 26 0 
C 18 26 0 
C 20 26 0 
C 22 26 0 
C 24 26 0 
C 26 26 0 
C 28 26 0 
C 30 26 0 
C 32 26 0 
C 34 26 0 
C 36 26 0 
C 38 26 0 
C 40 26 0 
C 42 26 0 
C 44 26 0 
C 46 26 0 
C 48 26 0 
C 50 26 0 
C 52 26 0 
C 54 26 0 
C 56 26 0 
C 58 26 0 
C 60 26 0 
C 62 26 0 
C 64 26 0 
C 66 26 0 
C 68 26 0 
C 70 26 0 
C 72 26 0 
C 74 26 0 
C 76 26 0 
C 78 26 0 
C 80 26 0 
C 82 26 0 
C 84 26 0 
C 86 26 0 
C 88 26 0 
C 90 26 0 
C 92 26 0 
C 94 26 0 
C 96 26 0 
C 98 26 0 
C 100 26 0 
C 0 28 0 
C 2 28 0 
C 4 28 0 
C 6 28 0 
C 8 28 0 
C 10 28 0 
C 12 28 0 
C 14 28 0 
C 16 28 0 
C 18 28 0 
C 20 28 0 
C 22 28 0 
C 24 28 0 
C 26 28 0 
C 28 28 0 
C 30 28 0 
C 32 28 0 
C 34 28 0 
C 36 28 0 
C 38 28 0 
C 40 28 0 
C 42 28 0 
C 44 28 0 
C 46 28 0 
C 48 28 0 
C 50 28 0 
C 52 28 0 
C 54 28 0 
C 56 28 0 
C 58 28 0 
C 60 28 0 
C 62 28 0 
C 64 28 0 
C 66 28 0 
C 68 28 0 
C 70 28 0 
C 72 28 0 
C 74 28 0 
C 76 28 0 
C 78 28 0 
C 80 28 0 
C 82 28 0 
C 84 28 0 
C 86 28 0 
C 88 28 0 
C 90 28 0 
C 92 28 0 
C 94 28 0 
C 96 28 0 
C 98 28 0 
C 100 28 0 
C 0 30 0 
C 2 30 0 
C 4 30 0 
C 6 30 0 
C 8 30 0 
C 10 30 0 
C 12 30 0 
C 14 30 0 
C 16 30 0 
C 18 30 0 
C 20 30 0 
C 22 30 0 
C 24 30 0 
C 26 30 0 
C 28 30 0 
C 30 30 0 
C 32 30 0 
C 34 30 0 
C 36 30 0 
C 38 30 0 
C 40 30 0 
C 42 30 0 
C 44 30 0 
C 46 30 0 
C 48 30 0 
C 50 30 0 
C 52 30 0 
C 54 30 0 
C 56 30 0 
C 58 30 0 
C 60 30 0 
C 62 30 0 
C 64 30 0 
C 66 30 0 
C 68 30 0 
C 70 30 0 
C 72 30 0 
C 74 30 0 
C 76 30 0 
C 78 30 0 
C 80 30 0 
C 82 30 0 
C 84 30 0 
C 86 30 0 
C 88 30 0 
C 90 30 0 
C 92 30 0 
C 94 30 0 
C 96 30 0 
C 98 30 0 
C 100 30 0 
C 0 32 0 
C 2 32 0 
C 4 32 0 
C 6 32 0 
C 8 32 0 
C 10 32 0 
C 12 32 0 
C 14 32 0 
C 16 32 0 
C 18 32 0 
C 20 32 0 
C 22 32 0 
C 24 32 0 
C 26 32 0 
C 28 32 0 
C 30 32 0 
C 32 32 0 
C 34 32 0 
C 36 32 0 
C 38 32 0 
C 40 32 0 
C 42 32 0 
C 44 32 0 
C 46 32 0 
C 48 32 0 
C 50 32 0 
C 52 32 0 
C 54 32 0 
C 56 32 0 
C 58 32 0 
C 60 32 0 
C 62 32 0 
C 64 32 0 
C 66 32 0 
C 68 32 0 
C 70 32 0 
C 72 32 0 
C 74 32 0 
C 76 32 0 
C 78 32 0 
C 80 32 0 
C 82 32 0 
C 84 32 0 
C 86 32 0 
C 88 32 0 
C 90 32 0 
C 92 32 0 
C 94 32 0 
C 96 32 0 
C 98 32 0 
C 100 32 0 
C 0 34 0 
C 2 34 0 
C 4 34 0 
C 6 34 0 
C 8 34 0 
C 10 34 0 
C 12 34 0 
C 14 34 0 
C 16 34 0 
C 18 34 0 
C 20 34 0 
C 22 34 0 
C 24 34 0 
C 26 34 0 
C 28 34 0 
C 30 34 0 
C 32 34 0 
C 34 34 0 
C 36 34 0 
C 38 34 0 
C 40 34 0 
C 42 34 0 
C 44 34 0 
C 46 34 0 
C 48 34 0 
C 50 34 0 
C 52 34 0 
C 54 34 0 
C 56 34 0 
C 58 34 0 
C 60 34 0 
C 62 34 0 
C 64 34 0 
C 66 34 0 
C 68 34 0 
C 70 34 0 
C 72 34 0 
C 74 34 0 
C 76 34 0 
C 78 34 0 
C 80 34 0 
C 82 34 0 
C 84 34 0 
C 86 34 0 
C 88 34 0 
C 90 34 0 
C 92 34 0 
C 94 34 0 
C 96 34 0 
C 98 34 0 
C 100 34 0 
C 0 36 0 
C 2 36 0 
C 4 36 0 
C 6 36 0 
C 8 36 0 
C 10 36 0 
C 12 36 0 
C 14 36 0 
C 16 36 0 
C 18 36 0 
C 20 36 0 
C 22 36 0 
C 24 36 0 
C 26 36 0 
C 28 36 0 
C 30 36 0 
C 32 36 0 
C 34 36 0 
C 36 36 0 
C 38 36 0 
C 40 36 0 
C 42 36 0 
C 44 36 0 
C 46 36 0 
C 48 36 0 
C 50 36 0 
C 52 36 0 
C 54 36 0 
C 56 36 0 
C 58 36 0 
C 60 36 0 
C 62 36 0 
C 64 36 0 
C 66 36 0 
C 68 36 0 
C 70 36 0 
C 72 36 0 
C 74 36 0 
C 76 36 0 
C 78 36 0 
C 80 36 0 
C 82 36 0 
C 84 36 0 
C 86 36 0 
C 88 36 0 
C 90 36 0 
C 92 36 0 
C 94 36 0 
C 96 36 0 
C 98 36 0 
C 100 36 0 
C 0 38 0 
C 2 38 0 
C 4 38 0 
C 6 38 0 
C 8 38 0 
C 10 38 0 
C 12 38 0 
C 14 38 0 
C 16 38 0 
C 18 38 0 
C 20 38 0 
C 22 38 0 
C 24 38 0 
C 26 38 0 
C 28 38 0 
C 30 38 0 
C 32 38 0 
C 34 38 0 
C 36 38 0 
C 38 38 0 
C 40 38 0 
C 42 38 0 
C 44 38 0 
C 46 38 0 
C 48 38 0 
C 50 38 0 
C 52 38 0 
C 54 38 0 
C 56 38 0 
C 58 38 0 
C 60 38 0 
C 62 38 0 
C 64 38 0 
C 66 38 0 
C 68 38 0 
C 70 38 0 
C 72 38 0 
C 74 38 0 
C 76 38 0 
C 78 38 0 
C 80 38 0 
C 82 38 0 
C 84 38 0 
C 86 38 0 
C 88 38 0 
C 90 38 0 
C 92 38 0 
C 94 38 0 
C 96 38 0 
C 98 38 0 
C 100 38 0 
C 0 40 0 
C 2 40 0 
C 4 40 0 
C 6 40 0 
C 8 40 0 
C 10 40 0 
C 12 40 0 
C 14 40 0 
C 16 40 0 
C 18 40 0 
C 20 40 0 
C 22 40 0 
C 24 40 0 
C 26 40 0 
C 28 40 0 
C 30 40 0 
C 32 40 0 
C 34 40 0 
C 36 40 0 
C 38 40 0 
C 40 40 0 
C 42 40 0 
C 44 40 0 
C 46 40 0 
C 48 40 0 
C 50 40 0 
C 52 40 0 
C 54 40 0 
C 56 40 0 
C 58 40 0 
C 60 40 0 
C 62 40 0 
C 64 40 0 
C 66 40 0 
C 68 40 0 
C 70 40 0 
C 72 40 0 
C 74 40 0 
C 76 40 0 
C 78 40 0 
C 80 40 0 
C 82 40 0 
C 84 40 0 
C 86 40 0 
C 88 40 0 
C 90 40 0 
C 92 40 0 
C 94 40 0 
C 96 40 0 
C 98 40 0 
C 100 40 0 
C 0 42 0 
C 2 42 0 
C 4 42 0 
C 6 42 0 
C 8 42 0 
C 10 42 0 
C 12 42 0 
C 14 42 0 
C 16 42 0 
C 18 42 0 
C 20 42 0 
C 22 42 0 
C 24 42 0 
C 26 42 0 
C 28 42 0 
C 30 42 0 
C 32 42 0 
C 34 42 0 
C 36 42 0 
C 38 42 0 
C 40 42 0 
C 42 42 0 
C 44 42 0 
C 46 42 0 
C 48 42 0 
C 50 42 0 
C 52 42 0 
C 54 42 0 
C 56 42 0 
C 58 42 0 
C 60 42 0 
C 62 42 0 
C 64 42 0 
C 66 42 0 
C 68 42 0 
C 70 42 0 
C 72 42 0 
C 74 42 0 
C 76 42 0 
C 78 42 0 
C 80 42 0 
C 82 42 0 
C 84 42 0 
C 86 42 0 
C 88 42 0 
C 90 42 0 
C 92 42 0 
C 94 42 0 
C 96 42 0 
C 98 42 0 
C 100 42 0 
C 0 44 0 
C 2 44 0 
C 4 44 0 
C 6 44 0 
C 8 44 0 
C 10 44 0 
C 12 44 0 
C 14 44 0 
C 16 44 0 
C 18 44 0 
C 20 44 0 
C 22 44 0 
C 24 44 0 
C 26 44 0 
C 28 44 0 
C 30 44 0 
C 32 44 0 
C 34 44 0 
C 36 44 0 
C 38 44 0 
C 40 44 0 
C 42 44 0 
C 44 44 0 
C 46 44 0 
C 48 44 0 
C 50 44 0 
C 52 44 0 
C 54 44 0 
C 56 44 0 
C 58 44 0 
C 60 44 0 
C 62 44 0 
C 64 44 0 
C 66 44 0 
C 68 44 0 
C 70 44 0 
C 72 44 0 
C 74 44 0 
C 76 44 0 
C 78 44 0 
C 80 44 0 
C 82 44 0 
C 84 44 0 
C 86 44 0 
C 88 44 0 
C 90 44 0 
C 92 44 0 
C 94 44 0 
C 96 44 0 
C 98 44 0 
C 100 44 0 
C 0 46 0 
C 2 46 0 
C 4 46 0 
C 6 46 0 
C 8 46 0 
C 10 46 0 
C 12 46 0 
C 14 46 0 
C 16 46 0 
C 18 46 0 
C 20 46 0 
C 22 46 0 
C 24 46 0 
C 26 46 0 
C 28 46 0 
C 30 46 0 
C 32 46 0 
C 34 46 0 
C 36 46 0 
C 38 46 0 
C 40 46 0 
C 42 46 0 
C 44 46 0 
C 46 46 0 
C 48 46 0 
C 50 46 0 
C 52 46 0 
C 54 46 0 
C 56 46 0 
C 58 46 0 
C 60 46 0 
C 62 46 0 
C 64 46 0 
C 66 46 0 
C 68 46 0 
C 70 46 0 
C 72 46 0 
C 74 46 0 
C 76 46 0 
C 78 46 0 
C 80 46 0 
C 82 46 0 
C 84 46 0 
C 86 46 0 
C 88 46 0 
C 90 46 0 
C 92 46 0 
C 94 46 0 
C 96 46 0 
C 98 46 0 
C 100 46 0 
C 0 48 0 
C 2 48 0 
C 4 48 0 
C 6 48 0 
C 8 48 0 
C 10 48 0 
C 12 48 0 
C 14 48 0 
C 16 48 0 
C 18 48 0 
C 20 48 0 
C 22 48 0 
C 24 48 0 
C 26 48 0 
C 28 48 0 
C 30 48 0 
C 32 48 0 
C 34 48 0 
C 36 48 0 
C 38 48 0 
C 40 48 0 
C 42 48 0 
C 44 48 0 
C 46 48 0 
C 48 48 0 
C 50 48 0 
C 52 48 0 
C 54 48 0 
C 56 48 0 
C 58 48 0 
C 60 48 0 
C 62 48 0 
C 64 48 0 
C 66 48 0 
C 68 48 0 
C 70 48 0 
C 72 48 0 
C 74 48 0 
C 76 48 0 
C 78 48 0 
C 80 48 0 
C 82 48 0 
C 84 48 0 
C 86 48 0 
C 88 48 0 
C 90 48 0 
C 92 48 0 
C 94 48 0 
C 96 48 0 
C 98 48 0 
C 100 48 0 
C 0 50 0 
C 2 50 0 
C 4 50 0 
C 6 50 0 
C 8 50 0 
C 10 50 0 
C 12 50 0 
C 14 50 0 
C 16 50 0 
C 18 50 0 
C 20 50 0 
C 22 50 0 
C 24 50 0 
C 26 50 0 
C 28 50 0 
C 30 50 0 
C 32 50 0 
C 34 50 0 
C 36 50 0 
C 38 50 0 
C 40 50 0 
C 42 50 0 
C 44 50 0 
C 46 50 0 
C 48 50 0 
C 50 50 0 
C 52 50 0 
C 54 50 0 
C 56 50 0 
C 58 50 0 
C 60 50 0 
C 62 50 0 
C 64 50 0 
C 66 50 0 
C 68 50 0 
C 70 50 0 
C 72 50 0 
C 74 50 0 
C 76 50 0 
C 78 50 0 
C 80 50 0 
C 82 50 0 
C 84 50 0 
C 86 50 0 
C 88 50 0 
C 90 50 0 
C 92 50 0 
C 94 50 0 
C 96 50 0 
C 98 50 0 
C 100 50 0 
C 0 52 0 
C 2 52 0 
C 4 52 0 
C 6 52 0 
C 8 52 0 
C 10 52 0 
C 12 52 0 
C 14 52 0 
C 16 52 0 
C 18 52 0 
C 20 52 0 
C 22 52 0 
C 24 52 0 
C 26 52 0 
C 28 52 0 
C 30 52 0 
C 32 52 0 
C 34 52 0 
C 36 52 0 
C 38 52 0 
C 40 52 0 
C 42 52 0 
C 44 52 0 
C 46 52 0 
C 48 52 0 
C 50 52 0 
C 52 52 0 
C 54 52 0 
C 56 52 0 
C 58 52 0 
C 60 52 0 
C 62 52 0 
C 64 52 0 
C 66 52 0 
C 68 52 0 
C 70 52 0 
C 72 52 0 
C 74 52 0 
C 76 52 0 
C 78 52 0 
C 80 52 0 
C 82 52 0 
C 84 52 0 
C 86 52 0 
C 88 52 0 
C 90 52 0 
C 92 52 0 
C 94 52 0 
C 96 52 0 
C 98 52 0 
C 100 52 0 
C 0 54 0 
C 2 54 0 
C 4 54 0 
C 6 54 0 
C 8 54 0 
C 10 54 0 
C 12 54 0 
C 14 54 0 
C 16 54 0 
C 18 54 0 
C 20 54 0 
C 22 54 0 
C 24 54 0 
C 26 54 0 
C 28 54 0 
C 30 54 0 
C 32 54 0 
C 34 54 0 
C 36 54 0 
C 38 54 0 
C 40 54 0 
C 42 54 0 
C 44 54 0 
C 46 54 0 
C 48 54 0 
C 50 54 0 
C 52 54 0 
C 54 54 0 
C 56 54 0 
C 58 54 0 
C 60 54 0 
C 62 54 0 
C 64 54 0 
C 66 54 0 
C 68 54 0 
C 70 54 0 
C 72 54 0 
C 74 54 0 
C 76 54 0 
C 78 54 0 
C 80 54 0 
C 82 54 0 
C 84 54 0 
C 86 54 0 
C 88 54 0 
C 90 54 0 
C 92 54 0 
C 94 54 0 
C 96 54 0 
C 98 54 0 
C 100 54 0 
C 0 56 0 
C 2 56 0 
C 4 56 0 
C 6 56 0 
C 8 56 0 
C 10 56 0 
C 12 56 0 
C 14 56 0 
C 16 56 0 
C 18 56 0 
C 20 56 0 
C 22 56 0 
C 24 56 0 
C 26 56 0 
C 28 56 0 
C 30 56 0 
C 32 56 0 
C 34 56 0 
C 36 56 0 
C 38 56 0 
C 40 56 0 
C 42 56 0 
C 44 56 0 
C 46 56 0 
C 48 56 0 
C 50 56 0 
C 52 56 0 
C 54 56 0 
C 56 56 0 
C 58 56 0 
C 60 56 0 
C 62 56 0 
C 64 56 0 
C 66 56 0 
C 68 56 0 
C 70 56 0 
C 72 56 0 
C 74 56 0 
C 76 56 0 
C 78 56 0 
C 80 56 0 
C 82 56 0 
C 84 56 0 
C 86 56 0 
C 88 56 0 
C 90 56 0 
C 92 56 0 
C 94 56 0 
C 96 56 0 
C 98 56 0 
C 100 56 0 
C 0 58 0 
C 2 58 0 
C 4 58 0 
C 6 58 0 
C 8 58 0 
C 10 58 0 
C 12 58 0 
C 14 58 0 
C 16 58 0 
C 18 58 0 
C 20 58 0 
C 22 58 0 
C 24 58 0 
C 26 58 0 
C 28 58 0 
C 30 58 0 
C 32 58 0 
C 34 58 0 
C 36 58 0 
C 38 58 0 
C 40 58 0 
C 42 58 0 
C 44 58 0 
C 46 58 0 
C 48 58 0 
C 50 58 0 
C 52 58 0 
C 54 58 0 
C 56 58 0 
C 58 58 0 
C 60 58 0 
C 62 58 0 
C 64 58 0 
C 66 58 0 
C 68 58 0 
C 70 58 0 
C 72 58 0 
C 74 58 0 
C 76 58 0 
C 78 58 0 
C 80 58 0 
C 82 58 0 
C 84 58 0 
C 86 58 0 
C 88 58 0 
C 90 58 0 
C 92 58 0 
C 94 58 0 
C 96 58 0 
C 98 58 0 
C 100 58 0 
C 0 60 0 
C 2 60 0 
C 4 60 0 
C 6 60 0 
C 8 60 0 
C 10 60 0 
C 12 60 0 
C 14 60 0 
C 16 60 0 
C 18 60 0 
C 20 60 0 
C 22 60 0 
C 24 60 0 
C 26 60 0 
C 28 60 0 
C 30 60 0 
C 32 60 0 
C 34 60 0 
C 36 60 0 
C 38 60 0 
C 40 60 0 
C 42 60 0 
C 44 60 0 
C 46 60 0 
C 48 60 0 
C 50 60 0 
C 52 60 0 
C 54 60 0 
C 56 60 0 
C 58 60 0 
C 60 60 0 
C 62 60 0 
C 64 60 0 
C 66 60 0 
C 68 60 0 
C 70 60 0 
C 72 60 0 
C 74 60 0 
C 76 60 0 
C 78 60 0 
C 80 60 0 
C 82 60 0 
C 84 60 0 
C 86 60 0 
C 88 60 0 
C 90 60 0 
C 92 60 0 
C 94 60 0 
C 96 60 0 
C 98 60 0 
C 100 60 0 
C 0 62 0 
C 2 62 0 
C 4 62 0 
C 6 62 0 
C 8 62 0 
C 10 62 0 
C 12 62 0 
C 14 62 0 
C 16 62 0 
C 18 62 0 
C 20 62 0 
C 22 62 0 
C 24 62 0 
C 26 62 0 
C 28 62 0 
C 30 62 0 
C 32 62 0 
C 34 62 0 
C 36 62 0 
C 38 62 0 
C 40 62 0 
C 42 62 0 
C 44 62 0 
C 46 62 0 
C 48 62 0 
C 50 62 0 
C 52 62 0 
C 54 62 0 
C 56 62 0 
C 58 62 0 
C 60 62 0 
C 62 62 0 
C 64 62 0 
C 66 62 0 
C 68 62 0 
C 70 62 0 
C 72 62 0 
C 74 62 0 
C 76 62 0 
C 78 62 0 
C 80 62 0 
C 82 62 0 
C 84 62 0 
C 86 62 0 
C 88 62 0 
C 90 62 0 
C 92 62 0 
C 94 62 0 
C 96 62 0 
C 98 62 0 
C 100 62 0 
C 0 64 0 
C 2 64 0 
C 4 64 0 
C 6 64 0 
C 8 64 0 
C 10 64 0 
C 12 64 0 
C 14 64 0 
C 16 64 0 
C 18 64 0 
C 20 64 0 
C 22 64 0 
C 24 64 0 
C 26 64 0 
C 28 64 0 
C 30 64 0 
C 32 64 0 
C 34 64 0 
C 36 64 0 
C 38 64 0 
C 40 64 0 
C 42 64 0 
C 44 64 0 
C 46 64 0 
C 48 64 0 
C 50 64 0 
C 52 64 0 
C 54 64 0 
C 56 64 0 
C 58 64 0 
C 60 64 0 
C 62 64 0 
C 64 64 0 
C 66 64 0 
C 68 64 0 
C 70 64 0 
C 72 64 0 
C 74 64 0 
C 76 64 0 
C 78 64 0 
C 80 64 0 
C 82 64 0 
C 84 64 0 
C 86 64 0 
C 88 64 0 
C 90 64 0 
C 92 64 0 
C 94 64 0 
C 96 64 0 
C 98 64 0 
C 100 64 0 
C 0 66 0 
C 2 66 0 
C 4 66 0 
C 6 66 0 
C 8 66 0 
C 10 66 0 
C 12 66 0 
C 14 66 0 
C 16 66 0 
C 18 66 0 
C 20 66 0 
C 22 66 0 
C 24 66 0 
C 26 66 0 
C 28 66 0 
C 30 66 0 
C 32 66 0 
C 34 66 0 
C 36 66 0 
C 38 66 0 
C 40 66 0 
C 42 66 0 
C 44 66 0 
C 46 66 0 
C 48 66 0 
C 50 66 0 
C 52 66 0 
C 54 66 0 
C 56 66 0 
C 58 66 0 
C 60 66 0 
C 62 66 0 
C 64 66 0 
C 66 66 0 
C 68 66 0 
C 70 66 0 
C 72 66 0 
C 74 66 0 
C 76 66 0 
C 78 66 0 
C 80 66 0 
C 82 66 0 
C 84 66 0 
C 86 66 0 
C 88 66 0 
C 90 66 0 
C 92 66 0 
C 94 66 0 
C 96 66 0 
C 98 66 0 
C 100 66 0 
C 0 68 0 
C 2 68 0 
C 4 68 0 
C 6 68 0 
C 8 68 0 
C 10 68 0 
C 12 68 0 
C 14 68 0 
C 16 68 0 
C 18 68 0 
C 20 68 0 
C 22 68 0 
C 24 68 0 
C 26 68 0 
C 28 68 0 
C 30 68 0 
C 32 68 0 
C 34 68 0 
C 36 68 0 
C 38 68 0 
C 40 68 0 
C 42 68 0 
C 44 68 0 
C 46 68 0 
C 48 68 0 
C 50 68 0 
C 52 68 0 
C 54 68 0 
C 56 68 0 
C 58 68 0 
C 60 68 0 
C 62 68 0 
C 64 68 0 
C 66 68 0 
C 68 68 0 
C 70 68 0 
C 72 68 0 
C 74 68 0 
C 76 68 0 
C 78 68 0 
C 80 68 0 
C 82 68 0 
C 84 68 0 
C 86 68 0 
C 88 68 0 
C 90 68 0 
C 92 68 0 
C 94 68 0 
C 96 68 0 
C 98 68 0 
C 100 68 0 
C 0 70 0 
C 2 70 0 
C 4 70 0 
C 6 70 0 
C 8 70 0 
C 10 70 0 
C 12 70 0 
C 14 70 0 
C 16 70 0 
C 18 70 0 
C 20 70 0 
C 22 70 0 
C 24 70 0 
C 26 70 0 
C 28 70 0 
C 30 70 0 
C 32 70 0 
C 34 70 0 
C 36 70 0 
C 38 70 0 
C 40 70 0 
C 42 70 0 
C 44 70 0 
C 46 70 0 
C 48 70 0 
C 50 70 0 
C 52 70 0 
C 54 70 0 
C 56 70 0 
C 58 70 0 
C 60 70 0 
C 62 70 0 
C 64 70 0 
C 66 70 0 
C 68 70 0 
C 70 70 0 
C 72 70 0 
C 74 70 0 
C 76 70 0 
C 78 70 0 
C 80 70 0 
C 82 70 0 
C 84 70 0 
C 86 70 0 
C 88 70 0 
C 90 70 0 
C 92 70 0 
C 94 70 0 
C 96 70 0 
C 98 70 0 
C 100 70 0 
C 0 72 0 
C 2 72 0 
C 4 72 0 
C 6 72 0 
C 8 72 0 
C 10 72 0 
C 12 72 0 
C 14 72 0 
C 16 72 0 
C 18 72 0 
C 20 72 0 
C 22 72 0 
C 24 72 0 
C 26 72 0 
C 28 72 0 
C 30 72 0 
C 32 72 0 
C 34 72 0 
C 36 72 0 
C 38 72 0 
C 40 72 0 
C 42 72 0 
C 44 72 0 
C 46 72 0 
C 48 72 0 
C 50 72 0 
C 52 72 0 
C 54 72 0 
C 56 72 0 
C 58 72 0 
C 60 72 0 
C 62 72 0 
C 64 72 0 
C 66 72 0 
C 68 72 0 
C 70 72 0 
C 72 72 0 
C 74 72 0 
C 76 72 0 
C 78 72 0 
C 80 72 0 
C 82 72 0 
C 84 72 0 
C 86 72 0 
C 88 72 0 
C 90 72 0 
C 92 72 0 
C 94 72 0 
C 96 72 0 
C 98 72 0 
C 100 72 0 
C 0 74 0 
C 2 74 0 
C 4 74 0 
C 6 74 0 
C 8 74 0 
C 10 74 0 
C 12 74 0 
C 14 74 0 
C 16 74 0 
C 18 74 0 
C 20 74 0 
C 22 74 0 
C 24 74 0 
C 26 74 0 
C 28 74 0 
C 30 74 0 
C 32 74 0 
C 34 74 0 
C 36 74 0 
C 38 74 0 
C 40 74 0 
C 42 74 0 
C 44 74 0 
C 46 74 0 
C 48 74 0 
C 50 74 0 
C 52 74 0 
C 54 74 0 
C 56 74 0 
C 58 74 0 
C 60 74 0 
C 62 74 0 
C 64 74 0 
C 66 74 0 
C 68 74 0 
C 70 74 0 
C 72 74 0 
C 74 74 0 
C 76 74 0 
C 78 74 0 
C 80 74 0 
C 82 74 0 
C 84 74 0 
C 86 74 0 
C 88 74 0 
C 90 74 0 
C 92 74 0 
C 94 74 0 
C 96 74 0 
C 98 74 0 
C 100 74 0 
C 0 76 0 
C 2 76 0 
C 4 76 0 
C 6 76 0 
C 8 76 0 
C 10 76 0 
C 12 76 0 
C 14 76 0 
C 16 76 0 
C 18 76 0 
C 20 76 0 
C 22 76 0 
C 24 76 0 
C 26 76 0 
C 28 76 0 
C 30 76 0 
C 32 76 0 
C 34 76 0 
C 36 76 0 
C 38 76 0 
C 40 76 0 
C 42 76 0 
C 44 76 0 
C 46 76 0 
C 48 76 0 
C 50 76 0 
C 52 76 0 
C 54 76 0 
C 56 76 0 
C 58 76 0 
C 60 76 0 
C 62 76 0 
C 64 76 0 
C 66 76 0 
C 68 76 0 
C 70 76 0 
C 72 76 0 
C 74 76 0 
C 76 76 0 
C 78 76 0 
C 80 76 0 
C 82 76 0 
C 84 76 0 
C 86 76 0 
C 88 76 0 
C 90 76 0 
C 92 76 0 
C 94 76 0 
C 96 76 0 
C 98 76 0 
C 100 76 0 
C 0 78 0 
C 2 78 0 
C 4 78 0 
C 6 78 0 
C 8 78 0 
C 10 78 0 
C 12 78 0 
C 14 78 0 
C 16 78 0 
C 18 78 0 
C 20 78 0 
C 22 78 0 
C 24 78 0 
C 26 78 0 
C 28 78 0 
C 30 78 0 
C 32 78 0 
C 34 78 0 
C 36 78 0 
C 38 78 0 
C 40 78 0 
C 42 78 0 
C 44 78 0 
C 46 78 0 
C 48 78 0 
C 50 78 0 
C 52 78 0 
C 54 78 0 
C 56 78 0 
C 58 78 0 
C 60 78 0 
C 62 78 0 
C 64 78 0 
C 66 78 0 
C 68 78 0 
C 70 78 0 
C 72 78 0 
C 74 78 0 
C 76 78 0 
C 78 78 0 
C 80 78 0 
C 82 78 0 
C 84 78 0 
C 86 78 0 
C 88 78 0 
C 90 78 0 
C 92 78 0 
C 94 78 0 
C 96 78 0 
C 98 78 0 
C 100 78 0 
C 0 80 0 
C 2 80 0 
C 4 80 0 
C 6 80 0 
C 8 80 0 
C 10 80 0 
C 12 80 0 
C 14 80 0 
C 16 80 0 
C 18 80 0 
C 20 80 0 
C 22 80 0 
C 24 80 0 
C 26 80 0 
C 28 80 0 
C 30 80 0 
C 32 80 0 
C 34 80 0 
C 36 80 0 
C 38 80 0 
C 40 80 0 
C 42 80 0 
C 44 80 0 
C 46 80 0 
C 48 80 0 
C 50 80 0 
C 52 80 0 
C 54 80 0 
C 56 80 0 
C 58 80 0 
C 60 80 0 
C 62 80 0 
C 64 80 0 
C 66 80 0 
C 68 80 0 
C 70 80 0 
C 72 80 0 
C 74 80 0 
C 76 80 0 
C 78 80 0 
C 80 80 0 
C 82 80 0 
C 84 80 0 
C 86 80 0 
C 88 80 0 
C 90 80 0 
C 92 80 0 
C 94 80 0 
C 96 80 0 
C 98 80 0 
C 100 80 0 
C 0 82 0 
C 2 82 0 
C 4 82 0 
C 6 82 0 
C 8 82 0 
C 10 82 0 
C 12 82 0 
C 14 82 0 
C 16 82 0 
C 18 82 0 
C 20 82 0 
C 22 82 0 
C 24 82 0 
C 26 82 0 
C 28 82 0 
C 30 82 0 
C 32 82 0 
C 34 82 0 
C 36 82 0 
C 38 82 0 
C 40 82 0 
C 42 82 0 
C 44 82 0 
C 46 82 0 
C 48 82 0 
C 50 82 0 
C 52 82 0 
C 54 82 0 
C 56 82 0 
C 58 82 0 
C 60 82 0 
C 62 82 0 
C 64 82 0 
C 66 82 0 
C 68 82 0 
C 70 82 0 
C 72 82 0 
C 74 82 0 
C 76 82 0 
C 78 82 0 
C 80 82 0 
C 82 82 0 
C 84 82 0 
C 86 82 0 
C 88 82 0 
C 90 82 0 
C 92 82 0 
C 94 82 0 
C 96 82 0 
C 98 82 0 
C 100 82 0 
C 0 84 0 
C 2 84 0 
C 4 84 0 
C 6 84 0 
C 8 84 0 
C 10 84 0 
C 12 84 0 
C 14 84 0 
C 16 84 0 
C 18 84 0 
C 20 84 0 
C 22 84 0 
C 24 84 0 
C 26 84 0 
C 28 84 0 
C 30 84 0 
C 32 84 0 
C 34 84 0 
C 36 84 0 
C 38 84 0 
C 40 84 0 
C 42 84 0 
C 44 84 0 
C 46 84 0 
C 48 84 0 
C 50 84 0 
C 52 84 0 
C 54 84 0 
C 56 84 0 
C 58 84 0 
C 60 84 0 
C 62 84 0 
C 64 84 0 
C 66 84 0 
C 68 84 0 
C 70 84 0 
C 72 84 0 
C 74 84 0 
C 76 84 0 
C 78 84 0 
C 80 84 0 
C 82 84 0 
C 84 84 0 
C 86 84 0 
C 88 84 0 
C 90 84 0 
C 92 84 0 
C 94 84 0 
C 96 84 0 
C 98 84 0 
C 100 84 0 
C 0 86 0 
C 2 86 0 
C 4 86 0 
C 6 86 0 
C 8 86 0 
C 10 86 0 
C 12 86 0 
C 14 86 0 
C 16 86 0 
C 18 86 0 
C 20 86 0 
C 22 86 0 
C 24 86 0 
C 26 86 0 
C 28 86 0 
C 30 86 0 
C 32 86 0 
C 34 86 0 
C 36 86 0 
C 38 86 0 
C 40 86 0 
C 42 86 0 
C 44 86 0 
C 46 86 0 
C 48 86 0 
C 50 86 0 
C 52 86 0 
C 54 86 0 
C 56 86 0 
C 58 86 0 
C 60 86 0 
C 62 86 0 
C 64 86 0 
C 66 86 0 
C 68 86 0 
C 70 86 0 
C 72 86 0 
C 74 86 0 
C 76 86 0 
C 78 86 0 
C 80 86 0 
C 82 86 0 
C 84 86 0 
C 86 86 0 
C 88 86 0 
C 90 86 0 
C 92 86 0 
C 94 86 0 
C 96 86 0 
C 98 86 0 
C 100 86 0 
C 0 88 0 
C 2 88 0 
C 4 88 0 
C 6 88 0 
C 8 88 0 
C 10 88 0 
C 12 88 0 
C 14 88 0 
C 16 88 0 
C 18 88 0 
C 20 88 0 
C 22 88 0 
C 24 88 0 
C 26 88 0 
C 28 88 0 
C 30 88 0 
C 32 88 0 
C 34 88 0 
C 36 88 0 
C 38 88 0 
C 40 88 0 
C 42 88 0 
C 44 88 0 
C 46 88 0 
C 48 88 0 
C 50 88 0 
C 52 88 0 
C 54 88 0 
C 56 88 0 
C 58 88 0 
C 60 88 0 
C 62 88 0 
C 64 88 0 
C 66 88 0 
C 68 88 0 
C 70 88 0 
C 72 88 0 
C 74 88 0 
C 76 88 0 
C 78 88 0 
C 80 88 0 
C 82 88 0 
C 84 88 0 
C 86 88 0 
C 88 88 0 
C 90 88 0 
C 92 88 0 
C 94 88 0 
C 96 88 0 
C 98 88 0 
C 100 88 0 
C 0 90 0 
C 2 90 0 
C 4 90 0 
C 6 90 0 
C 8 90 0 
C 10 90 0 
C 12 90 0 
C 14 90 0 
C 16 90 0 
C 18 90 0 
C 20 90 0 
C 22 90 0 
C 24 90 0 
C 26 90 0 
C 28 90 0 
C 30 90 0 
C 32 90 0 
C 34 90 0 
C 36 90 0 
C 38 90 0 
C 40 90 0 
C 42 90 0 
C 44 90 0 
C 46 90 0 
C 48 90 0 
C 50 90 0 
C 52 90 0 
C 54 90 0 
C 56 90 0 
C 58 90 0 
C 60 90 0 
C 62 90 0 
C 64 90 0 
C 66 90 0 
C 68 90 0 
C 70 90 0 
C 72 90 0 
C 74 90 0 
C 76 90 0 
C 78 90 0 
C 80 90 0 
C 82 90 0 
C 84 90 0 
C 86 90 0 
C 88 90 0 
C 90 90 0 
C 92 90 0 
C 94 90 0 
C 96 90 0 
C 98 90 0 
C 100 90 0 
C 0 92 0 
C 2 92 0 
C 4 92 0 
C 6 92 0 
C 8 92 0 
C 10 92 0 
C 12 92 0 
C 14 92 0 
C 16 92 0 
C 18 92 0 
C 20 92 0 
C 22 92 0 
C 24 92 0 
C 26 92 0 
C 28 92 0 
C 30 92 0 
C 32 92 0 
C 34 92 0 
C 36 92 0 
C 38 92 0 
C 40 92 0 
C 42 92 0 
C 44 92 0 
C 46 92 0 
C 48 92 0 
C 50 92 0 
C 52 92 0 
C 54 92 0 
C 56 92 0 
C 58 92 0 
C 60 92 0 
C 62 92 0 
C 64 92 0 
C 66 92 0 
C 68 92 0 
C 70 92 0 
C 72 92 0 
C 74 92 0 
C 76 92 0 
C 78 92 0 
C 80 92 0 
C 82 92 0 
C 84 92 0 
C 86 92 0 
C 88 92 0 
C 90 92 0 
C 92 92 0 
C 94 92 0 
C 96 92 0 
C 98 92 0 
C 100 92 0 
C 0 94 0 
C 2 94 0 
C 4 94 0 
C 6 94 0 
C 8 94 0 
C 10 94 0 
C 12 94 0 
C 14 94 0 
C 16 94 0 
C 18 94 0 
C 20 94 0 
C 22 94 0 
C 24 94 0 
C 26 94 0 
C 28 94 0 
C 30 94 0 
C 32 94 0 
C 34 94 0 
C 36 94 0 
C 38 94 0 
C 40 94 0 
C 42 94 0 
C 44 94 0 
C 46 94 0 
C 48 94 0 
C 50 94 0 
C 52 94 0 
C 54 94 0 
C 56 94 0 
C 58 94 0 
C 60 94 0 
C 62 94 0 
C 64 94 0 
C 66 94 0 
C 68 94 0 
C 70 94 0 
C 72 94 0 
C 74 94 0 
C 76 94 0 
C 78 94 0 
C 80 94 0 
C 82 94 0 
C 84 94 0 
C 86 94 0 
C 88 94 0 
C 90 94 0 
C 92 94 0 
C 94 94 0 
C 96 94 0 
C 98 94 0 
C 100 94 0 
C 0 96 0 
C 2 96 0 
C 4 96 0 
C 6 96 0 
C 8 96 0 
C 10 96 0 
C 12 96 0 
C 14 96 0 
C 16 96 0 
C 18 96 0 
C 20 96 0 
C 22 96 0 
C 24 96 0 
C 26 96 0 
C 28 96 0 
C 30 96 0 
C 32 96 0 
C 34 96 0 
C 36 96 0 
C 38 96 0 
C 40 96 0 
C 42 96 0 
C 44 96 0 
C 46 96 0 
C 48 96 0 
C 50 96 0 
C 52 96 0 
C 54 96 0 
C 56 96 0 
C 58 96 0 
C 60 96 0 
C 62 96 0 
C 64 96 0 
C 66 96 0 
C 68 96 0 
C 70 96 0 
C 72 96 0 
C 74 96 0 
C 76 96 0 
C 78 96 0 
C 80 96 0 
C 82 96 0 
C 84 96 0 
C 86 96 0 
C 88 96 0 
C 90 96 0 
C 92 96 0 
C 94 96 0 
C 96 96 0 
C 98 96 0 
C 100 96 0 
C 0 98 0 
C 2 98 0 
C 4 98 0 
C 6 98 0 
C 8 98 0 
C 10 98 0 
C 12 98 0 
C 14 98 0 
C 16 98 0 
C 18 98 0 
C 20 98 0 
C 22 98 0 
C 24 98 0 
C 26 98 0 
C 28 98 0 
C 30 98 0 
C 32 98 0 
C 34 98 0 
C 36 98 0 
C 38 98 0 
C 40 98 0 
C 42 98 0 
C 44 98 0 
C 46 98 0 
C 48 98 0 
C 50 98 0 
C 52 98 0 
C 54 98 0 
C 56 98 0 
C 58 98 0 
C 60 98 0 
C 62 98 0 
C 64 98 0 
C 66 98 0 
C 68 98 0 
C 70 98 0 
C 72 98 0 
C 74 98 0 
C 76 98 0 
C 78 98 0 
C 80 98 0 
C 82 98 0 
C 84 98 0 
C 86 98 0 
C 88 98 0 
C 90 98 0 
C 92 98 0 
C 94 98 0 
C 96 98 0 
C 98 98 0 
C 100 98 0 
C 0 100 0 
C 2 100 0 
C 4 100 0 
C 6 100 0 
C 8 100 0 
C 10 100 0 
C 12 100 0 
C 14 100 0 
C 16 100 0 
C 18 100 0 
C 20 100 0 
C 22 100 0 
C 24 100 0 
C 26 100 0 
C 28 100 0 
C 30 100 0 
C 32 100 0 
C 34 100 0 
C 36 100 0 
C 38 100 0 
C 40 100 0 
C 42 100 0 
C 44 100 0 
C 46 100 0 
C 48 100 0 
C 50 100 0 
C 52 100 0 
C 54 100 0 
C 56 100 0 
C 58 100 0 
C 60 100 0 
C 62 100 0 
C 64 100 0 
C 66 100 0 
C 68 100 0 
C 70 100 0 
C 72 100 0 
C 74 100 0 
C 76 100 0 
C 78 100 0 
C 80 100 0 
C 82 100 0 
C 84 100 0 
C 86 100 0 
C 88 100 0 
C 90 100 0 
C 92 100 0 
C 94 100 0 
C 96 100 0 
C 98 100 0 
C 100 100 0 
O 1 99 0 
O 43 27 0 
O 0 93 0 
O 77 99 0 
O 69 95 0 
O 48 77 0 
O 99 89 0 
O 0 99 0 
O 99 98 0 
3107
Atoms. Timestep: 10
N 84 19 0 
N 21 53 0 
N 17 67 0 
N 49 93 0 
N 35 21 0 
N 59 25 0 
N 86 67 0 
N 7 55 0 
N 13 47 0 
N 51 27 0 
N 13 7 0 
N 59 29 0 
N 65 13 0 
N 81 85 0 
N 57 89 0 
N 47 61 0 
N 41 77 0 
N 6 91 0 
N 2 13 0 
N 85 23 0 
N 13 40 0 
N 77 12 0 
N 15 27 0 
N 48 77 0 
N 67 99 0 
N 10 93 0 
N 89 12 0 
N 67 98 0 
N 3 35 0 
N 34 47 0 
N 75 33 0 
N 59 19 0 
N 23 68 0 
N 95 49 0 
N 28 19 0 
N 77 54 0 
N 95 75 0 
N 67 11 0 
N 67 92 0 
N 97 6 0 
N 44 11 0 
N 27 99 0 
N 88 27 0 
N 29 63 0 
N 51 41 0 
N 61 25 0 
N 50 77 0 
N 50 33 0 
N 93 79 0 
N 29 15 0 
N 56 25 0 
N 43 37 0 
N 8 21 0 
N 21 27 0 
N 99 75 0 
N 17 80 0 
N 51 70 0 
N 86 9 0 
N 5 23 0 
N 69 72 0 
N 99 66 0 
N 75 99 0 
N 6 33 0 
N 72 89 0 
N 73 14 0 
N 7 63 0 
N 73 64 0 
N 84 27 0 
N 40 23 0 
N 62 29 0 
N 43 25 0 
N 5 98 0 
N 7 47 0 
N 21 76 0 
N 41 85 0 
N 37 26 0 
N 52 89 0 
N 5 33 0 
N 29 48 0 
N 73 11 0 
N 59 43 0 
N 95 24 0 
N 71 93 0 
N 91 45 0 
N 3 32 0 
N 7 23 0 
N 37 70 0 
N 7 80 0 
N 19 29 0 
N 85 84 0 
N 65 83 0 
N 99 95 0 
N 13 19 0 
N 91 64 0 
N 89 10 0 
N 73 7 0 
N 69 57 0 
N 95 14 0 
N 69 68 0 
N 9 30 0 
N 45 67 0 
N 61 95 0 
N 43 38 0 
N 86 15 0 
N 93 93 0 
N 53 87 0 
N 69 69 0 
N 69 53 0 
N 27 93 0 
N 23 77 0 
N 27 46 0 
N 73 69 0 
N 21 77 0 
N 83 12 0 
N 45 69 0 
N 47 47 0 
N 11 57 0 
N 1 78 0 
N 69 94 0 
N 25 99 0 
N 36 27 0 
N 51 80 0 
N 44 25 0 
N 53 62 0 
N 11 27 0 
N 75 11 0 
N 6 73 0 
N 3 11 0 
N 27 11 0 
N 95 89 0 
N 9 85 0 
N 67 43 0 
N 13 45 0 
N 73 99 0 
N 12 11 0 
N 16 77 0 
N 31 60 0 
N 81 45 0 
N 96 45 0 
N 85 17 0 
N 11 43 0 
N 73 81 0 
N 75 5 0 
N 58 9 0 
N 89 87 0 
N 45 90 0 
N 97 50 0 
N 45 61 0 
N 99 82 0 
N 65 93 0 
N 91 42 0 
N 97 71 0 
N 29 33 0 
N 9 98 0 
N 47 75 0 
N 23 79 0 
N 99 84 0 
N 9 68 0 
N 1 4 0 
N 13 43 0 
N 89 38 0 
N 43 62 0 
N 89 40 0 
N 21 1 0 
N 39 87 0 
N 39 78 0 
N 73 15 0 
N 89 90 0 
N 95 25 0 
N 47 76 0 
N 2 99 0 
N 76 33 0 
N 19 40 0 
N 15 19 0 
N 69 27 0 
N 45 89 0 
N 93 65 0 
N 51 3 0 
N 81 83 0 
N 81 89 0 
N 69 31 0 
N 17 11 0 
N 85 54 0 
N 46 61 0 
N 4 67 0 
N 5 67 0 
N 97 55 0 
N 69 82 0 
N 93 72 0 
N 19 19 0 
N 23 74 0 
N 0 93 0 
N 67 68 0 
N 22 89 0 
N 57 70 0 
N 95 27 0 
N 66 77 0 
N 95 26 0 
N 45 34 0 
N 95 29 0 
N 76 7 0 
N 66 91 0 
N 63 27 0 
N 45 93 0 
N 65 8 0 
N 36 69 0 
N 65 27 0 
N 57 41 0 
N 99 85 0 
N 93 59 0 
N 27 59 0 
N 25 67 0 
N 17 9 0 
N 96 25 0 
N 27 19 0 
N 11 73 0 
N 61 71 0 
N 55 66 0 
N 89 89 0 
N 27 85 0 
N 7 56 0 
N 85 26 0 
N 99 69 0 
N 60 27 0 
N 20 45 0 
N 99 83 0 
N 76 41 0 
N 93 53 0 
N 77 28 0 
N 99 70 0 
N 90 83 0 
N 57 47 0 
N 42 27 0 
N 91 79 0 
N 69 60 0 
N 78 57 0 
N 27 30 0 
N 69 85 0 
N 4 37 0 
N 25 13 0 
N 76 57 0 
N 19 68 0 
N 95 55 0 
N 9 24 0 
N 53 52 0 
N 25 2 0 
N 29 13 0 
N 21 69 0 
N 15 68 0 
N 13 15 0 
N 82 91 0 
N 48 61 0 
N 41 88 0 
N 19 26 0 
N 11 34 0 
N 13 27 0 
N 77 45 0 
N 58 37 0 
N 53 27 0 
N 20 81 0 
N 12 67 0 
N 4 35 0 
N 95 47 0 
N 9 25 0 
N 46 77 0 
N 92 91 0 
N 53 40 0 
N 75 48 0 
N 89 79 0 
N 61 43 0 
N 91 96 0 
N 20 11 0 
N 37 89 0 
N 11 6 0 
N 41 48 0 
N 58 59 0 
N 5 28 0 
N 31 35 0 
N 51 68 0 
N 4 31 0 
N 55 75 0 
N 16 17 0 
N 40 75 0 
N 73 27 0 
N 31 77 0 
N 61 24 0 
N 90 89 0 
N 43 39 0 
N 90 11 0 
N 89 8 0 
N 47 7 0 
N 41 24 0 
N 63 90 0 
N 65 11 0 
N 45 10 0 
N 32 75 0 
N 41 40 0 
N 18 67 0 
N 17 47 0 
N 90 47 0 
N 76 93 0 
N 7 58 0 
N 26 89 0 
N 10 99 0 
N 50 61 0 
N 57 8 0 
N 69 78 0 
N 11 45 0 
N 75 6 0 
N 25 88 0 
N 99 72 0 
N 37 52 0 
N 41 3 0 
N 9 32 0 
N 30 99 0 
N 33 77 0 
N 28 7 0 
N 69 37 0 
N 3 9 0 
N 49 26 0 
N 69 77 0 
N 5 17 0 
N 93 47 0 
N 25 70 0 
N 39 15 0 
N 69 7 0 
N 64 25 0 
N 94 3 0 
N 49 89 0 
N 11 47 0 
N 48 33 0 
N 85 5 0 
N 89 46 0 
N 67 24 0 
N 91 49 0 
N 41 31 0 
N 19 99 0 
N 10 95 0 
N 77 7 0 
N 79 67 0 
N 39 31 0 
N 31 37 0 
N 57 7 0 
N 77 43 0 
N 11 19 0 
N 16 95 0 
N 89 5 0 
N 47 88 0 
N 79 92 0 
N 53 86 0 
N 77 24 0 
N 69 86 0 
N 11 48 0 
N 98 63 0 
N 15 17 0 
N 43 27 0 
N 49 31 0 
N 35 3 0 
N 29 99 0 
N 44 59 0 
N 81 21 0 
N 63 29 0 
N 46 75 0 
N 42 29 0 
N 33 34 0 
N 3 37 0 
N 77 13 0 
N 49 42 0 
N 93 43 0 
N 97 43 0 
N 27 80 0 
N 69 12 0 
N 43 79 0 
N 61 26 0 
N 30 67 0 
N 43 9 0 
N 55 47 0 
N 91 14 0 
N 56 29 0 
N 73 93 0 
N 27 3 0 
N 7 93 0 
N 43 10 0 
N 36 77 0 
N 31 67 0 
N 54 51 0 
N 62 49 0 
N 40 25 0 
N 80 47 0 
N 12 27 0 
N 85 96 0 
N 97 79 0 
N 51 89 0 
N 75 28 0 
N 91 48 0 
N 3 33 0 
N 48 3 0 
N 57 27 0 
N 81 86 0 
N 53 75 0 
N 81 90 0 
N 10 65 0 
N 10 47 0 
N 31 63 0 
N 22 85 0 
N 79 36 0 
N 37 65 0 
N 81 70 0 
N 87 45 0 
N 44 31 0 
N 75 9 0 
N 62 7 0 
N 90 7 0 
N 11 39 0 
N 91 12 0 
N 55 46 0 
N 11 53 0 
N 33 33 0 
N 68 47 0 
N 89 41 0 
N 97 80 0 
N 89 29 0 
N 19 88 0 
N 48 65 0 
N 96 67 0 
N 81 14 0 
N 42 49 0 
N 13 64 0 
N 79 23 0 
N 7 26 0 
N 25 86 0 
N 35 26 0 
N 79 16 0 
N 36 67 0 
N 69 51 0 
N 93 55 0 
N 86 45 0 
N 1 10 0 
N 49 87 0 
N 77 67 0 
N 68 5 0 
N 12 63 0 
N 29 3 0 
N 19 69 0 
N 19 45 0 
N 17 27 0 
N 69 79 0 
N 72 87 0 
N 21 65 0 
N 19 66 0 
N 59 77 0 
N 97 81 0 
N 97 28 0 
N 73 19 0 
N 69 28 0 
N 61 30 0 
N 42 61 0 
N 93 67 0 
N 77 69 0 
N 0 5 0 
N 41 82 0 
N 59 32 0 
N 11 28 0 
N 21 90 0 
N 29 64 0 
N 13 13 0 
N 7 27 0 
N 81 67 0 
N 51 76 0 
N 18 69 0 
N 45 88 0 
N 8 13 0 
N 8 3 0 
N 40 15 0 
N 86 19 0 
N 43 47 0 
N 5 68 0 
N 42 87 0 
N 41 70 0 
N 33 11 0 
N 49 61 0 
N 92 39 0 
N 88 95 0 
N 61 27 0 
N 54 41 0 
N 77 21 0 
N 21 91 0 
N 97 26 0 
N 76 23 0 
N 86 13 0 
N 42 85 0 
N 46 21 0 
N 42 15 0 
N 35 27 0 
N 42 77 0 
N 49 39 0 
N 8 63 0 
N 77 17 0 
N 37 77 0 
N 96 69 0 
C 0 0 0 
C 2 0 0 
C 4 0 0 
C 6 0 0 
C 8 0 0 
C 10 0 0 
C 12 0 0 
C 14 0 0 
C 16 0 0 
C 18 0 0 
C 20 0 0 
C 22 0 0 
C 24 0 0 
C 26 0 0 
C 28 0 0 
C 30 0 0 
C 32 0 0 
C 34 0 0 
C 36 0 0 
C 38 0 0 
C 40 0 0 
C 42 0 0 
C 44 0 0 
C 46 0 0 
C 48 0 0 
C 50 0 0 
C 52 0 0 
C 54 0 0 
C 56 0 0 
C 58 0 0 
C 60 0 0 
C 62 0 0 
C 64 0 0 
C 66 0 0 
C 68 0 0 
C 70 0 0 
C 72 0 0 
C 74 0 0 
C 76 0 0 
C 78 0 0 
C 80 0 0 
C 82 0 0 
C 84 0 0 
C 86 0 0 
C 88 0 0 
C 90 0 0 
C 92 0 0 
C 94 0 0 
C 96 0 0 
C 98 0 0 
C 100 0 0 
C 0 2 0 
C 2 2 0 
C 4 2 0 
C 6 2 0 
C 8 2 0 
C 10 2 0 
C 12 2 0 
C 14 2 0 
C 16 2 0 
C 18 2 0 
C 20 2 0 
C 22 2 0 
C 24 2 0 
C 26 2 0 
C 28 2 0 
C 30 2 0 
C 32 2 0 
C 34 2 0 
C 36 2 0 
C 38 2 0 
C 40 2 0 
C 42 2 0 
C 44 2 0 
C 46 2 0 
C 48 2 0 
C 50 2 0 
C 52 2 0 
C 54 2 0 
C 56 2 0 
C 58 2 0 
C 60 2 0 
C 62 2 0 
C 64 2 0 
C 66 2 0 
C 68 2 0 
C 70 2 0 
C 72 2 0 
C 74 2 0 
C 76 2 0 
C 78 2 0 
C 80 2 0 
C 82 2 0 
C 84 2 0 
C 86 2 0 
C 88 2 0 
C 90 2 0 
C 92 2 0 
C 94 2 0 
C 96 2 0 
C 98 2 0 
C 100 2 0 
C 0 4 0 
C 2 4 0 
C 4 4 0 
C 6 4 0 
C 8 4 0 
C 10 4 0 
C 12 4 0 
C 14 4 0 
C 16 4 0 
C 18 4 0 
C 20 4 0 
C 22 4 0 
C 24 4 0 
C 26 4 0 
C 28 4 0 
C 30 4 0 
C 32 4 0 
C 34 4 0 
C 36 4 0 
C 38 4 0 
C 40 4 0 
C 42 4 0 
C 44 4 0 
C 46 4 0 
C 48 4 0 
C 50 4 0 
C 52 4 0 
C 54 4 0 
C 56 4 0 
C 58 4 0 
C 60 4 0 
C 62 4 0 
C 64 4 0 
C 66 4 0 
C 68 4 0 
C 70 4 0 
C 72 4 0 
C 74 4 0 
C 76 4 0 
C 78 4 0 
C 80 4 0 
C 82 4 0 
C 84 4 0 
C 86 4 0 
C 88 4 0 
C 90 4 0 
C 92 4 0 
C 94 4 0 
C 96 4 0 
C 98 4 0 
C 100 4 0 
C 0 6 0 
C 2 6 0 
C 4 6 0 
C 6 6 0 
C 8 6 0 
C 10 6 0 
C 12 6 0 
C 14 6 0 
C 16 6 0 
C 18 6 0 
C 20 6 0 
C 22 6 0 
C 24 6 0 
C 26 6 0 
C 28 6 0 
C 30 6 0 
C 32 6 0 
C 34 6 0 
C 36 6 0 
C 38 6 0 
C 40 6 0 
C 42 6 0 
C 44 6 0 
C 46 6 0 
C 48 6 0 
C 50 6 0 
C 52 6 0 
C 54 6 0 
C 56 6 0 
C 58 6 0 
C 60 6 0 
C 62 6 0 
C 64 6 0 
C 66 6 0 
C 68 6 0 
C 70 6 0 
C 72 6 0 
C 74 6 0 
C 76 6 0 
C 78 6 0 
C 80 6 0 
C 82 6 0 
C 84 6 0 
C 86 6 0 
C 88 6 0 
C 90 6 0 
C 92 6 0 
C 94 6 0 
C 96 6 0 
C 98 6 0 
C 100 6 0 
C 0 8 0 
C 2 8 0 
C 4 8 0 
C 6 8 0 
C 8 8 0 
C 10 8 0 
C 12 8 0 
C 14 8 0 
C 16 8 0 
C 18 8 0 
C 20 8 0 
C 22 8 0 
C 24 8 0 
C 26 8 0 
C 28 8 0 
C 30 8 0 
C 32 8 0 
C 34 8 0 
C 36 8 0 
C 38 8 0 
C 40 8 0 
C 42 8 0 
C 44 8 0 
C 46 8 0 
C 48 8 0 
C 50 8 0 
C 52 8 0 
C 54 8 0 
C 56 8 0 
C 58 8 0 
C 60 8 0 
C 62 8 0 
C 64 8 0 
C 66 8 0 
C 68 8 0 
C 70 8 0 
C 72 8 0 
C 74 8 0 
C 76 8 0 
C 78 8 0 
C 80 8 0 
C 82 8 0 
C 84 8 0 
C 86 8 0 
C 88 8 0 
C 90 8 0 
C 92 8 0 
C 94 8 0 
C 96 8 0 
C 98 8 0 
C 100 8 0 
C 0 10 0 
C 2 10 0 
C 4 10 0 
C 6 10 0 
C 8 10 0 
C 10 10 0 
C 12 10 0 
C 14 10 0 
C 16 10 0 
C 18 10 0 
C 20 10 0 
C 22 10 0 
C 24 10 0 
C 26 10 0 
C 28 10 0 
C 30 10 0 
C 32 10 0 
C 34 10 0 
C 36 10 0 
C 38 10 0 
C 40 10 0 
C 42 10 0 
C 44 10 0 
C 46 10 0 
C 48 10 0 
C 50 10 0 
C 52 10 0 
C 54 10 0 
C 56 10 0 
C 58 10 0 
C 60 10 0 
C 62 10 0 
C 64 10 0 
C 66 10 0 
C 68 10 0 
C 70 10 0 
C 72 10 0 
C 74 10 0 
C 76 10 0 
C 78 10 0 
C 80 10 0 
C 82 10 0 
C 84 10 0 
C 86 10 0 
C 88 10 0 
C 90 10 0 
C 92 10 0 
C 94 10 0 
C 96 10 0 
C 98 10 0 
C 100 10 0 
C 0 12 0 
C 2 12 0 
C 4 12 0 
C 6 12 0 
C 8 12 0 
C 10 12 0 
C 12 12 0 
C 14 12 0 
C 16 12 0 
C 18 12 0 
C 20 12 0 
C 22 12 0 
C 24 12 0 
C 26 12 0 
C 28 12 0 
C 30 12 0 
C 32 12 0 
C 34 12 0 
C 36 12 0 
C 38 12 0 
C 40 12 0 
C 42 12 0 
C 44 12 0 
C 46 12 0 
C 48 12 0 
C 50 12 0 
C 52 12 0 
C 54 12 0 
C 56 12 0 
C 58 12 0 
C 60 12 0 
C 62 12 0 
C 64 12 0 
C 66 12 0 
C 68 12 0 
C 70 12 0 
C 72 12 0 
C 74 12 0 
C 76 12 0 
C 78 12 0 
C 80 12 0 
C 82 12 0 
C 84 12 0 
C 86 12 0 
C 88 12 0 
C 90 12 0 
C 92 12 0 
C 94 12 0 
C 96 12 0 
C 98 12 0 
C 100 12 0 
C 0 14 0 
C 2 14 0 
C 4 14 0 
C 6 14 0 
C 8 14 0 
C 10 14 0 
C 12 14 0 
C 14 14 0 
C 16 14 0 
C 18 14 0 
C 20 14 0 
C 22 14 0 
C 24 14 0 
C 26 14 0 
C 28 14 0 
C 30 14 0 
C 32 14 0 
C 34 14 0 
C 36 14 0 
C 38 14 0 
C 40 14 0 
C 42 14 0 
C 44 14 0 
C 46 14 0 
C 48 14 0 
C 50 14 0 
C 52 14 0 
C 54 14 0 
C 56 14 0 
C 58 14 0 
C 60 14 0 
C 62 14 0 
C 64 14 0 
C 66 14 0 
C 68 14 0 
C 70 14 0 
C 72 14 0 
C 74 14 0 
C 76 14 0 
C 78 14 0 
C 80 14 0 
C 82 14 0 
C 84 14 0 
C 86 14 0 
C 88 14 0 
C 90 14 0 
C 92 14 0 
C 94 14 0 
C 96 14 0 
C 98 14 0 
C 100 14 0 
C 0 16 0 
C 2 16 0 
C 4 16 0 
C 6 16 0 
C 8 16 0 
C 10 16 0 
C 12 16 0 
C 14 16 0 
C 16 16 0 
C 18 16 0 
C 20 16 0 
C 22 16 0 
C 24 16 0 
C 26 16 0 
C 28 16 0 
C 30 16 0 
C 32 16 0 
C 34 16 0 
C 36 16 0 
C 38 16 0 
C 40 16 0 
C 42 16 0 
C 44 16 0 
C 46 16 0 
C 48 16 0 
C 50 16 0 
C 52 16 0 
C 54 16 0 
C 56 16 0 
C 58 16 0 
C 60 16 0 
C 62 16 0 
C 64 16 0 
C 66 16 0 
C 68 16 0 
C 70 16 0 
C 72 16 0 
C 74 16 0 
C 76 16 0 
C 78 16 0 
C 80 16 0 
C 82 16 0 
C 84 16 0 
C 86 16 0 
C 88 16 0 
C 90 16 0 
C 92 16 0 
C 94 16 0 
C 96 16 0 
C 98 16 0 
C 100 16 0 
C 0 18 0 
C 2 18 0 
C 4 18 0 
C 6 18 0 
C 8 18 0 
C 10 18 0 
C 12 18 0 
C 14 18 0 
C 16 18 0 
C 18 18 0 
C 20 18 0 
C 22 18 0 
C 24 18 0 
C 26 18 0 
C 28 18 0 
C 30 18 0 
C 32 18 0 
C 34 18 0 
C 36 18 0 
C 38 18 0 
C 40 18 0 
C 42 18 0 
C 44 18 0 
C 46 18 0 
C 48 18 0 
C 50 18 0 
C 52 18 0 
C 54 18 0 
C 56 18 0 
C 58 18 0 
C 60 18 0 
C 62 18 0 
C 64 18 0 
C 66 18 0 
C 68 18 0 
C 70 18 0 
C 72 18 0 
C 74 18 0 
C 76 18 0 
C 78 18 0 
C 80 18 0 
C 82 18 0 
C 84 18 0 
C 86 18 0 
C 88 18 0 
C 90 18 0 
C 92 18 0 
C 94 18 0 
C 96 18 0 
C 98 18 0 
C 100 18 0 
C 0 20 0 
C 2 20 0 
C 4 20 0 
C 6 20 0 
C 8 20 0 
C 10 20 0 
C 12 20 0 
C 14 20 0 
C 16 20 0 
C 18 20 0 
C 20 20 0 
C 22 20 0 
C 24 20 0 
C 26 20 0 
C 28 20 0 
C 30 20 0 
C 32 20 0 
C 34 20 0 
C 36 20 0 
C 38 20 0 
C 40 20 0 
C 42 20 0 
C 44 20 0 
C 46 20 0 
C 48 20 0 
C 50 20 0 
C 52 20 0 
C 54 20 0 
C 56 20 0 
C 58 20 0 
C 60 20 0 
C 62 20 0 
C 64 20 0 
C 66 20 0 
C 68 20 0 
C 70 20 0 
C 72 20 0 
C 74 20 0 
C 76 20 0 
C 78 20 0 
C 80 20 0 
C 82 20 0 
C 84 20 0 
C 86 20 0 
C 88 20 0 
C 90 20 0 
C 92 20 0 
C 94 20 0 
C 96 20 0 
C 98 20 0 
C 100 20 0 
C 0 22 0 
C 2 22 0 
C 4 22 0 
C 6 22 0 
C 8 22 0 
C 10 22 0 
C 12 22 0 
C 14 22 0 
C 16 22 0 
C 18 22 0 
C 20 22 0 
C 22 22 0 
C 24 22 0 
C 26 22 0 
C 28 22 0 
C 30 22 0 
C 32 22 0 
C 34 22 0 
C 36 22 0 
C 38 22 0 
C 40 22 0 
C 42 22 0 
C 44 22 0 
C 46 22 0 
C 48 22 0 
C 50 22 0 
C 52 22 0 
C 54 22 0 
C 56 22 0 
C 58 22 0 
C 60 22 0 
C 62 22 0 
C 64 22 0 
C 66 22 0 
C 68 22 0 
C 70 22 0 
C 72 22 0 
C 74 22 0 
C 76 22 0 
C 78 22 0 
C 80 22 0 
C 82 22 0 
C 84 22 0 
C 86 22 0 
C 88 22 0 
C 90 22 0 
C 92 22 0 
C 94 22 0 
C 96 22 0 
C 98 22 0 
C 100 22 0 
C 0 24 0 
C 2 24 0 
C 4 24 0 
C 6 24 0 
C 8 24 0 
C 10 24 0 
C 12 24 0 
C 14 24 0 
C 16 24 0 
C 18 24 0 
C 20 24 0 
C 22 24 0 
C 24 24 0 
C 26 24 0 
C 28 24 0 
C 30 24 0 
C 32 24 0 
C 34 24 0 
C 36 24 0 
C 38 24 0 
C 40 24 0 
C 42 24 0 
C 44 24 0 
C 46 24 0 
C 48 24 0 
C 50 24 0 
C 52 24 0 
C 54 24 0 
C 56 24 0 
C 58 24 0 
C 60 24 0 
C 62 24 0 
C 64 24 0 
C 66 24 0 
C 68 24 0 
C 70 24 0 
C 72 24 0 
C 74 24 0 
C 76 24 0 
C 78 24 0 
C 80 24 0 
C 82 24 0 
C 84 24 0 
C 86 24 0 
C 88 24 0 
C 90 24 0 
C 92 24 0 
C 94 24 0 
C 96 24 0 
C 98 24 0 
C 100 24 0 
C 0 26 0 
C 2 26 0 
C 4 26 0 
C 6 26 0 
C 8 26 0 
C 10 26 0 
C 12 26 0 
C 14 26 0 
C 16 26 0 
C 18 26 0 
C 20 26 0 
C 22 26 0 
C 24 26 0 
C 26 26 0 
C 28 26 0 
C 30 26 0 
C 32 26 0 
C 34 26 0 
C 36 26 0 
C 38 26 0 
C 40 26 0 
C 42 26 0 
C 44 26 0 
C 46 26 0 
C 48 26 0 
C 50 26 0 
C 52 26 0 
C 54 26 0 
C 56 26 0 
C 58 26 0 
C 60 26 0 
C 62 26 0 
C 64 26 0 
C 66 26 0 
C 68 26 0 
C 70 26 0 
C 72 26 0 
C 74 26 0 
C 76 26 0 
C 78 26 0 
C 80 26 0 
C 82 26 0 
C 84 26 0 
C 86 26 0 
C 88 26 0 
C 90 26 0 
C 92 26 0 
C 94 26 0 
C 96 26 0 
C 98 26 0 
C 100 26 0 
C 0 28 0 
C 2 28 0 
C 4 28 0 
C 6 28 0 
C 8 28 0 
C 10 28 0 
C 12 28 0 
C 14 28 0 
C 16 28 0 
C 18 28 0 
C 20 28 0 
C 22 28 0 
C 24 28 0 
C 26 28 0 
C 28 28 0 
C 30 28 0 
C 32 28 0 
C 34 28 0 
C 36 28 0 
C 38 28 0 
C 40 28 0 
C 42 28 0 
C 44 28 0 
C 46 28 0 
C 48 28 0 
C 50 28 0 
C 52 28 0 
C 54 28 0 
C 56 28 0 
C 58 28 0 
C 60 28 0 
C 62 28 0 
C 64 28 0 
C 66 28 0 
C 68 28 0 
C 70 28 0 
C 72 28 0 
C 74 28 0 
C 76 28 0 
C 78 28 0 
C 80 28 0 
C 82 28 0 
C 84 28 0 
C 86 28 0 
C 88 28 0 
C 90 28 0 
C 92 28 0 
C 94 28 0 
C 96 28 0 
C 98 28 0 
C 100 28 0 
C 0 30 0 
C 2 30 0 
C 4 30 0 
C 6 30 0 
C 8 30 0 
C 10 30 0 
C 12 30 0 
C 14 30 0 
C 16 30 0 
C 18 30 0 
C 20 30 0 
C 22 30 0 
C 24 30 0 
C 26 30 0 
C 28 30 0 
C 30 30 0 
C 32 30 0 
C 34 30 0 
C 36 30 0 
C 38 30 0 
C 40 30 0 
C 42 30 0 
C 44 30 0 
C 46 30 0 
C 48 30 0 
C 50 30 0 
C 52 30 0 
C 54 30 0 
C 56 30 0 
C 58 30 0 
C 60 30 0 
C 62 30 0 
C 64 30 0 
C 66 30 0 
C 68 30 0 
C 70 30 0 
C 72 30 0 
C 74 30 0 
C 76 30 0 
C 78 30 0 
C 80 30 0 
C 82 30 0 
C 84 30 0 
C 86 30 0 
C 88 30 0 
C 90 30 0 
C 92 30 0 
C 94 30 0 
C 96 30 0 
C 98 30 0 
C 100 30 0 
C 0 32 0 
C 2 32 0 
C 4 32 0 
C 6 32 0 
C 8 32 0 
C 10 32 0 
C 12 32 0 
C 14 32 0 
C 16 32 0 
C 18 32 0 
C 20 32 0 
C 22 32 0 
C 24 32 0 
C 26 32 0 
C 28 32 0 
C 30 32 0 
C 32 32 0 
C 34 32 0 
C 36 32 0 
C 38 32 0 
C 40 32 0 
C 42 32 0 
C 44 32 0 
C 46 32 0 
C 48 32 0 
C 50 32 0 
C 52 32 0 
C 54 32 0 
C 56 32 0 
C 58 32 0 
C 60 32 0 
C 62 32 0 
C 64 32 0 
C 66 32 0 
C 68 32 0 
C 70 32 0 
C 72 32 0 
C 74 32 0 
C 76 32 0 
C 78 32 0 
C 80 32 0 
C 82 32 0 
C 84 32 0 
C 86 32 0 
C 88 32 0 
C 90 32 0 
C 92 32 0 
C 94 32 0 
C 96 32 0 
C 98 32 0 
C 100 32 0 
C 0 34 0 
C 2 34 0 
C 4 34 0 
C 6 34 0 
C 8 34 0 
C 10 34 0 
C 12 34 0 
C 14 34 0 
C 16 34 0 
C 18 34 0 
C 20 34 0 
C 22 34 0 
C 24 34 0 
C 26 34 0 
C 28 34 0 
C 30 34 0 
C 32 34 0 
C 34 34 0 
C 36 34 0 
C 38 34 0 
C 40 34 0 
C 42 34 0 
C 44 34 0 
C 46 34 0 
C 48 34 0 
C 50 34 0 
C 52 34 0 
C 54 34 0 
C 56 34 0 
C 58 34 0 
C 60 34 0 
C 62 34 0 
C 64 34 0 
C 66 34 0 
C 68 34 0 
C 70 34 0 
C 72 34 0 
C 74 34 0 
C 76 34 0 
C 78 34 0 
C 80 34 0 
C 82 34 0 
C 84 34 0 
C 86 34 0 
C 88 34 0 
C 90 34 0 
C 92 34 0 
C 94 34 0 
C 96 34 0 
C 98 34 0 
C 100 34 0 
C 0 36 0 
C 2 36 0 
C 4 36 0 
C 6 36 0 
C 8 36 0 
C 10 36 0 
C 12 36 0 
C 14 36 0 
C 16 36 0 
C 18 36 0 
C 20 36 0 
C 22 36 0 
C 24 36 0 
C 26 36 0 
C 28 36 0 
C 30 36 0 
C 32 36 0 
C 34 36 0 
C 36 36 0 
C 38 36 0 
C 40 36 0 
C 42 36 0 
C 44 36 0 
C 46 36 0 
C 48 36 0 
C 50 36 0 
C 52 36 0 
C 54 36 0 
C 56 36 0 
C 58 36 0 
C 60 36 0 
C 62 36 0 
C 64 36 0 
C 66 36 0 
C 68 36 0 
C 70 36 0 
C 72 36 0 
C 74 36 0 
C 76 36 0 
C 78 36 0 
C 80 36 0 
C 82 36 0 
C 84 36 0 
C 86 36 0 
C 88 36 0 
C 90 36 0 
C 92 36 0 
C 94 36 0 
C 96 36 0 
C 98 36 0 
C 100 36 0 
C 0 38 0 
C 2 38 0 
C 4 38 0 
C 6 38 0 
C 8 38 0 
C 10 38 0 
C 12 38 0 
C 14 38 0 
C 16 38 0 
C 18 38 0 
C 20 38 0 
C 22 38 0 
C 24 38 0 
C 26 38 0 
C 28 38 0 
C 30 38 0 
C 32 38 0 
C 34 38 0 
C 36 38 0 
C 38 38 0 
C 40 38 0 
C 42 38 0 
C 44 38 0 
C 46 38 0 
C 48 38 0 
C 50 38 0 
C 52 38 0 
C 54 38 0 
C 56 38 0 
C 58 38 0 
C 60 38 0 
C 62 38 0 
C 64 38 0 
C 66 38 0 
C 68 38 0 
C 70 38 0 
C 72 38 0 
C 74 38 0 
C 76 38 0 
C 78 38 0 
C 80 38 0 
C 82 38 0 
C 84 38 0 
C 86 38 0 
C 88 38 0 
C 90 38 0 
C 92 38 0 
C 94 38 0 
C 96 38 0 
C 98 38 0 
C 100 38 0 
C 0 40 0 
C 2 40 0 
C 4 40 0 
C 6 40 0 
C 8 40 0 
C 10 40 0 
C 12 40 0 
C 14 40 0 
C 16 40 0 
C 18 40 0 
C 20 40 0 
C 22 40 0 
C 24 40 0 
C 26 40 0 
C 28 40 0 
C 30 40 0 
C 32 40 0 
C 34 40 0 
C 36 40 0 
C 38 40 0 
C 40 40 0 
C 42 40 0 
C 44 40 0 
C 46 40 0 
C 48 40 0 
C 50 40 0 
C 52 40 0 
C 54 40 0 
C 56 40 0 
C 58 40 0 
C 60 40 0 
C 62 40 0 
C 64 40 0 
C 66 40 0 
C 68 40 0 
C 70 40 0 
C 72 40 0 
C 74 40 0 
C 76 40 0 
C 78 40 0 
C 80 40 0 
C 82 40 0 
C 84 40 0 
C 86 40 0 
C 88 40 0 
C 90 40 0 
C 92 40 0 
C 94 40 0 
C 96 40 0 
C 98 40 0 
C 100 40 0 
C 0 42 0 
C 2 42 0 
C 4 42 0 
C 6 42 0 
C 8 42 0 
C 10 42 0 
C 12 42 0 
C 14 42 0 
C 16 42 0 
C 18 42 0 
C 20 42 0 
C 22 42 0 
C 24 42 0 
C 26 42 0 
C 28 42 0 
C 30 42 0 
C 32 42 0 
C 34 42 0 
C 36 42 0 
C 38 42 0 
C 40 42 0 
C 42 42 0 
C 44 42 0 
C 46 42 0 
C 48 42 0 
C 50 42 0 
C 52 42 0 
C 54 42 0 
C 56 42 0 
C 58 42 0 
C 60 42 0 
C 62 42 0 
C 64 42 0 
C 66 42 0 
C 68 42 0 
C 70 42 0 
C 72 42 0 
C 74 42 0 
C 76 42 0 
C 78 42 0 
C 80 42 0 
C 82 42 0 
C 84 42 0 
C 86 42 0 
C 88 42 0 
C 90 42 0 
C 92 42 0 
C 94 42 0 
C 96 42 0 
C 98 42 0 
C 100 42 0 
C 0 44 0 
C 2 44 0 
C 4 44 0 
C 6 44 0 
C 8 44 0 
C 10 44 0 
C 12 44 0 
C 14 44 0 
C 16 44 0 
C 18 44 0 
C 20 44 0 
C 22 44 0 
C 24 44 0 
C 26 44 0 
C 28 44 0 
C 30 44 0 
C 32 44 0 
C 34 44 0 
C 36 44 0 
C 38 44 0 
C 40 44 0 
C 42 44 0 
C 44 44 0 
C 46 44 0 
C 48 44 0 
C 50 44 0 
C 52 44 0 
C 54 44 0 
C 56 44 0 
C 58 44 0 
C 60 44 0 
C 62 44 0 
C 64 44 0 
C 66 44 0 
C 68 44 0 
C 70 44 0 
C 72 44 0 
C 74 44 0 
C 76 44 0 
C 78 44 0 
C 80 44 0 
C 82 44 0 
C 84 44 0 
C 86 44 0 
C 88 44 0 
C 90 44 0 
C 92 44 0 
C 94 44 0 
C 96 44 0 
C 98 44 0 
C 100 44 0 
C 0 46 0 
C 2 46 0 
C 4 46 0 
C 6 46 0 
C 8 46 0 
C 10 46 0 
C 12 46 0 
C 14 46 0 
C 16 46 0 
C 18 46 0 
C 20 46 0 
C 22 46 0 
C 24 46 0 
C 26 46 0 
C 28 46 0 
C 30 46 0 
C 32 46 0 
C 34 46 0 
C 36 46 0 
C 38 46 0 
C 40 46 0 
C 42 46 0 
C 44 46 0 
C 46 46 0 
C 48 46 0 
C 50 46 0 
C 52 46 0 
C 54 46 0 
C 56 46 0 
C 58 46 0 
C 60 46 0 
C 62 46 0 
C 64 46 0 
C 66 46 0 
C 68 46 0 
C 70 46 0 
C 72 46 0 
C 74 46 0 
C 76 46 0 
C 78 46 0 
C 80 46 0 
C 82 46 0 
C 84 46 0 
C 86 46 0 
C 88 46 0 
C 90 46 0 
C 92 46 0 
C 94 46 0 
C 96 46 0 
C 98 46 0 
C 100 46 0 
C 0 48 0 
C 2 48 0 
C 4 48 0 
C 6 48 0 
C 8 48 0 
C 10 48 0 
C 12 48 0 
C 14 48 0 
C 16 48 0 
C 18 48 0 
C 20 48 0 
C 22 48 0 
C 24 48 0 
C 26 48 0 
C 28 48 0 
C 30 48 0 
C 32 48 0 
C 34 48 0 
C 36 48 0 
C 38 48 0 
C 40 48 0 
C 42 48 0 
C 44 48 0 
C 46 48 0 
C 48 48 0 
C 50 48 0 
C 52 48 0 
C 54 48 0 
C 56 48 0 
C 58 48 0 
C 60 48 0 
C 62 48 0 
C 64 48 0 
C 66 48 0 
C 68 48 0 
C 70 48 0 
C 72 48 0 
C 74 48 0 
C 76 48 0 
C 78 48 0 
C 80 48 0 
C 82 48 0 
C 84 48 0 
C 86 48 0 
C 88 48 0 
C 90 48 0 
C 92 48 0 
C 94 48 0 
C 96 48 0 
C 98 48 0 
C 100 48 0 
C 0 50 0 
C 2 50 0 
C 4 50 0 
C 6 50 0 
C 8 50 0 
C 10 50 0 
C 12 50 0 
C 14 50 0 
C 16 50 0 
C 18 50 0 
C 20 50 0 
C 22 50 0 
C 24 50 0 
C 26 50 0 
C 28 50 0 
C 30 50 0 
C 32 50 0 
C 34 50 0 
C 36 50 0 
C 38 50 0 
C 40 50 0 
C 42 50 0 
C 44 50 0 
C 46 50 0 
C 48 50 0 
C 50 50 0 
C 52 50 0 
C 54 50 0 
C 56 50 0 
C 58 50 0 
C 60 50 0 
C 62 50 0 
C 64 50 0 
C 66 50 0 
C 68 50 0 
C 70 50 0 
C 72 50 0 
C 74 50 0 
C 76 50 0 
C 78 50 0 
C 80 50 0 
C 82 50 0 
C 84 50 0 
C 86 50 0 
C 88 50 0 
C 90 50 0 
C 92 50 0 
C 94 50 0 
C 96 50 0 
C 98 50 0 
C 100 50 0 
C 0 52 0 
C 2 52 0 
C 4 52 0 
C 6 52 0 
C 8 52 0 
C 10 52 0 
C 12 52 0 
C 14 52 0 
C 16 52 0 
C 18 52 0 
C 20 52 0 
C 22 52 0 
C 24 52 0 
C 26 52 0 
C 28 52 0 
C 30 52 0 
C 32 52 0 
C 34 52 0 
C 36 52 0 
C 38 52 0 
C 40 52 0 
C 42 52 0 
C 44 52 0 
C 46 52 0 
C 48 52 0 
C 50 52 0 
C 52 52 0 
C 54 52 0 
C 56 52 0 
C 58 52 0 
C 60 52 0 
C 62 52 0 
C 64 52 0 
C 66 52 0 
C 68 52 0 
C 70 52 0 
C 72 52 0 
C 74 52 0 
C 76 52 0 
C 78 52 0 
C 80 52 0 
C 82 52 0 
C 84 52 0 
C 86 52 0 
C 88 52 0 
C 90 52 0 
C 92 52 0 
C 94 52 0 
C 96 52 0 
C 98 52 0 
C 100 52 0 
C 0 54 0 
C 2 54 0 
C 4 54 0 
C 6 54 0 
C 8 54 0 
C 10 54 0 
C 12 54 0 
C 14 54 0 
C 16 54 0 
C 18 54 0 
C 20 54 0 
C 22 54 0 
C 24 54 0 
C 26 54 0 
C 28 54 0 
C 30 54 0 
C 32 54 0 
C 34 54 0 
C 36 54 0 
C 38 54 0 
C 40 54 0 
C 42 54 0 
C 44 54 0 
C 46 54 0 
C 48 54 0 
C 50 54 0 
C 52 54 0 
C 54 54 0 
C 56 54 0 
C 58 54 0 
C 60 54 0 
C 62 54 0 
C 64 54 0 
C 66 54 0 
C 68 54 0 
C 70 54 0 
C 72 54 0 
C 74 54 0 
C 76 54 0 
C 78 54 0 
C 80 54 0 
C 82 54 0 
C 84 54 0 
C 86 54 0 
C 88 54 0 
C 90 54 0 
C 92 54 0 
C 94 54 0 
C 96 54 0 
C 98 54 0 
C 100 54 0 
C 0 56 0 
C 2 56 0 
C 4 56 0 
C 6 56 0 
C 8 56 0 
C 10 56 0 
C 12 56 0 
C 14 56 0 
C 16 56 0 
C 18 56 0 
C 20 56 0 
C 22 56 0 
C 24 56 0 
C 26 56 0 
C 28 56 0 
C 30 56 0 
C 32 56 0 
C 34 56 0 
C 36 56 0 
C 38 56 0 
C 40 56 0 
C 42 56 0 
C 44 56 0 
C 46 56 0 
C 48 56 0 
C 50 56 0 
C 52 56 0 
C 54 56 0 
C 56 56 0 
C 58 56 0 
C 60 56 0 
C 62 56 0 
C 64 56 0 
C 66 56 0 
C 68 56 0 
C 70 56 0 
C 72 56 0 
C 74 56 0 
C 76 56 0 
C 78 56 0 
C 80 56 0 
C 82 56 0 
C 84 56 0 
C 86 56 0 
C 88 56 0 
C 90 56 0 
C 92 56 0 
C 94 56 0 
C 96 56 0 
C 98 56 0 
C 100 56 0 
C 0 58 0 
C 2 58 0 
C 4 58 0 
C 6 58 0 
C 8 58 0 
C 10 58 0 
C 12 58 0 
C 14 58 0 
C 16 58 0 
C 18 58 0 
C 20 58 0 
C 22 58 0 
C 24 58 0 
C 26 58 0 
C 28 58 0 
C 30 58 0 
C 32 58 0 
C 34 58 0 
C 36 58 0 
C 38 58 0 
C 40 58 0 
C 42 58 0 
C 44 58 0 
C 46 58 0 
C 48 58 0 
C 50 58 0 
C 52 58 0 
C 54 58 0 
C 56 58 0 
C 58 58 0 
C 60 58 0 
C 62 58 0 
C 64 58 0 
C 66 58 0 
C 68 58 0 
C 70 58 0 
C 72 58 0 
C 74 58 0 
C 76 58 0 
C 78 58 0 
C 80 58 0 
C 82 58 0 
C 84 58 0 
C 86 58 0 
C 88 58 0 
C 90 58 0 
C 92 58 0 
C 94 58 0 
C 96 58 0 
C 98 58 0 
C 100 58 0 
C 0 60 0 
C 2 60 0 
C 4 60 0 
C 6 60 0 
C 8 60 0 
C 10 60 0 
C 12 60 0 
C 14 60 0 
C 16 60 0 
C 18 60 0 
C 20 60 0 
C 22 60 0 
C 24 60 0 
C 26 60 0 
C 28 60 0 
C 30 60 0 
C 32 60 0 
C 34 60 0 
C 36 60 0 
C 38 60 0 
C 40 60 0 
C 42 60 0 
C 44 60 0 
C 46 60 0 
C 48 60 0 
C 50 60 0 
C 52 60 0 
C 54 60 0 
C 56 60 0 
C 58 60 0 
C 60 60 0 
C 62 60 0 
C 64 60 0 
C 66 60 0 
C 68 60 0 
C 70 60 0 
C 72 60 0 
C 74 60 0 
C 76 60 0 
C 78 60 0 
C 80 60 0 
C 82 60 0 
C 84 60 0 
C 86 60 0 
C 88 60 0 
C 90 60 0 
C 92 60 0 
C 94 60 0 
C 96 60 0 
C 98 60 0 
C 100 60 0 
C 0 62 0 
C 2 62 0 
C 4 62 0 
C 6 62 0 
C 8 62 0 
C 10 62 0 
C 12 62 0 
C 14 62 0 
C 16 62 0 
C 18 62 0 
C 20 62 0 
C 22 62 0 
C 24 62 0 
C 26 62 0 
C 28 62 0 
C 30 62 0 
C 32 62 0 
C 34 62 0 
C 36 62 0 
C 38 62 0 
C 40 62 0 
C 42 62 0 
C 44 62 0 
C 46 62 0 
C 48 62 0 
C 50 62 0 
C 52 62 0 
C 54 62 0 
C 56 62 0 
C 58 62 0 
C 60 62 0 
C 62 62 0 
C 64 62 0 
C 66 62 0 
C 68 62 0 
C 70 62 0 
C 72 62 0 
C 74 62 0 
C 76 62 0 
C 78 62 0 
C 80 62 0 
C 82 62 0 
C 84 62 0 
C 86 62 0 
C 88 62 0 
C 90 62 0 
C 92 62 0 
C 94 62 0 
C 96 62 0 
C 98 62 0 
C 100 62 0 
C 0 64 0 
C 2 64 0 
C 4 64 0 
C 6 64 0 
C 8 64 0 
C 10 64 0 
C 12 64 0 
C 14 64 0 
C 16 64 0 
C 18 64 0 
C 20 64 0 
C 22 64 0 
C 24 64 0 
C 26 64 0 
C 28 64 0 
C 30 64 0 
C 32 64 0 
C 34 64 0 
C 36 64 0 
C 38 64 0 
C 40 64 0 
C 42 64 0 
C 44 64 0 
C 46 64 0 
C 48 64 0 
C 50 64 0 
C 52 64 0 
C 54 64 0 
C 56 64 0 
C 58 64 0 
C 60 64 0 
C 62 64 0 
C 64 64 0 
C 66 64 0 
C 68 64 0 
C 70 64 0 
C 72 64 0 
C 74 64 0 
C 76 64 0 
C 78 64 0 
C 80 64 0 
C 82 64 0 
C 84 64 0 
C 86 64 0 
C 88 64 0 
C 90 64 0 
C 92 64 0 
C 94 64 0 
C 96 64 0 
C 98 64 0 
C 100 64 0 
C 0 66 0 
C 2 66 0 
C 4 66 0 
C 6 66 0 
C 8 66 0 
C 10 66 0 
C 12 66 0 
C 14 66 0 
C 16 66 0 
C 18 66 0 
C 20 66 0 
C 22 66 0 
C 24 66 0 
C 26 66 0 
C 28 66 0 
C 30 66 0 
C 32 66 0 
C 34 66 0 
C 36 66 0 
C 38 66 0 
C 40 66 0 
C 42 66 0 
C 44 66 0 
C 46 66 0 
C 48 66 0 
C 50 66 0 
C 52 66 0 
C 54 66 0 
C 56 66 0 
C 58 66 0 
C 60 66 0 
C 62 66 0 
C 64 66 0 
C 66 66 0 
C 68 66 0 
C 70 66 0 
C 72 66 0 
C 74 66 0 
C 76 66 0 
C 78 66 0 
C 80 66 0 
C 82 66 0 
C 84 66 0 
C 86 66 0 
C 88 66 0 
C 90 66 0 
C 92 66 0 
C 94 66 0 
C 96 66 0 
C 98 66 0 
C 100 66 0 
C 0 68 0 
C 2 68 0 
C 4 68 0 
C 6 68 0 
C 8 68 0 
C 10 68 0 
C 12 68 0 
C 14 68 0 
C 16 68 0 
C 18 68 0 
C 20 68 0 
C 22 68 0 
C 24 68 0 
C 26 68 0 
C 28 68 0 
C 30 68 0 
C 32 68 0 
C 34 68 0 
C 36 68 0 
C 38 68 0 
C 40 68 0 
C 42 68 0 
C 44 68 0 
C 46 68 0 
C 48 68 0 
C 50 68 0 
C 52 68 0 
C 54 68 0 
C 56 68 0 
C 58 68 0 
C 60 68 0 
C 62 68 0 
C 64 68 0 
C 66 68 0 
C 68 68 0 
C 70 68 0 
C 72 68 0 
C 74 68 0 
C 76 68 0 
C 78 68 0 
C 80 68 0 
C 82 68 0 
C 84 68 0 
C 86 68 0 
C 88 68 0 
C 90 68 0 
C 92 68 0 
C 94 68 0 
C 96 68 0 
C 98 68 0 
C 100 68 0 
C 0 70 0 
C 2 70 0 
C 4 70 0 
C 6 70 0 
C 8 70 0 
C 10 70 0 
C 12 70 0 
C 14 70 0 
C 16 70 0 
C 18 70 0 
C 20 70 0 
C 22 70 0 
C 24 70 0 
C 26 70 0 
C 28 70 0 
C 30 70 0 
C 32 70 0 
C 34 70 0 
C 36 70 0 
C 38 70 0 
C 40 70 0 
C 42 70 0 
C 44 70 0 
C 46 70 0 
C 48 70 0 
C 50 70 0 
C 52 70 0 
C 54 70 0 
C 56 70 0 
C 58 70 0 
C 60 70 0 
C 62 70 0 
C 64 70 0 
C 66 70 0 
C 68 70 0 
C 70 70 0 
C 72 70 0 
C 74 70 0 
C 76 70 0 
C 78 70 0 
C 80 70 0 
C 82 70 0 
C 84 70 0 
C 86 70 0 
C 88 70 0 
C 90 70 0 
C 92 70 0 
C 94 70 0 
C 96 70 0 
C 98 70 0 
C 100 70 0 
C 0 72 0 
C 2 72 0 
C 4 72 0 
C 6 72 0 
C 8 72 0 
C 10 72 0 
C 12 72 0 
C 14 72 0 
C 16 72 0 
C 18 72 0 
C 20 72 0 
C 22 72 0 
C 24 72 0 
C 26 72 0 
C 28 72 0 
C 30 72 0 
C 32 72 0 
C 34 72 0 
C 36 72 0 
C 38 72 0 
C 40 72 0 
C 42 72 0 
C 44 72 0 
C 46 72 0 
C 48 72 0 
C 50 72 0 
C 52 72 0 
C 54 72 0 
C 56 72 0 
C 58 72 0 
C 60 72 0 
C 62 72 0 
C 64 72 0 
C 66 72 0 
C 68 72 0 
C 70 72 0 
C 72 72 0 
C 74 72 0 
C 76 72 0 
C 78 72 0 
C 80 72 0 
C 82 72 0 
C 84 72 0 
C 86 72 0 
C 88 72 0 
C 90 72 0 
C 92 72 0 
C 94 72 0 
C 96 72 0 
C 98 72 0 
C 100 72 0 
C 0 74 0 
C 2 74 0 
C 4 74 0 
C 6 74 0 
C 8 74 0 
C 10 74 0 
C 12 74 0 
C 14 74 0 
C 16 74 0 
C 18 74 0 
C 20 74 0 
C 22 74 0 
C 24 74 0 
C 26 74 0 
C 28 74 0 
C 30 74 0 
C 32 74 0 
C 34 74 0 
C 36 74 0 
C 38 74 0 
C 40 74 0 
C 42 74 0 
C 44 74 0 
C 46 74 0 
C 48 74 0 
C 50 74 0 
C 52 74 0 
C 54 74 0 
C 56 74 0 
C 58 74 0 
C 60 74 0 
C 62 74 0 
C 64 74 0 
C 66 74 0 
C 68 74 0 
C 70 74 0 
C 72 74 0 
C 74 74 0 
C 76 74 0 
C 78 74 0 
C 80 74 0 
C 82 74 0 
C 84 74 0 
C 86 74 0 
C 88 74 0 
C 90 74 0 
C 92 74 0 
C 94 74 0 
C 96 74 0 
C 98 74 0 
C 100 74 0 
C 0 76 0 
C 2 76 0 
C 4 76 0 
C 6 76 0 
C 8 76 0 
C 10 76 0 
C 12 76 0 
C 14 76 0 
C 16 76 0 
C 18 76 0 
C 20 76 0 
C 22 76 0 
C 24 76 0 
C 26 76 0 
C 28 76 0 
C 30 76 0 
C 32 76 0 
C 34 76 0 
C 36 76 0 
C 38 76 0 
C 40 76 0 
C 42 76 0 
C 44 76 0 
C 46 76 0 
C 48 76 0 
C 50 76 0 
C 52 76 0 
C 54 76 0 
C 56 76 0 
C 58 76 0 
C 60 76 0 
C 62 76 0 
C 64 76 0 
C 66 76 0 
C 68 76 0 
C 70 76 0 
C 72 76 0 
C 74 76 0 
C 76 76 0 
C 78 76 0 
C 80 76 0 
C 82 76 0 
C 84 76 0 
C 86 76 0 
C 88 76 0 
C 90 76 0 
C 92 76 0 
C 94 76 0 
C 96 76 0 
C 98 76 0 
C 100 76 0 
C 0 78 0 
C 2 78 0 
C 4 78 0 
C 6 78 0 
C 8 78 0 
C 10 78 0 
C 12 78 0 
C 14 78 0 
C 16 78 0 
C 18 78 0 
C 20 78 0 
C 22 78 0 
C 24 78 0 
C 26 78 0 
C 28 78 0 
C 30 78 0 
C 32 78 0 
C 34 78 0 
C 36 78 0 
C 38 78 0 
C 40 78 0 
C 42 78 0 
C 44 78 0 
C 46 78 0 
C 48 78 0 
C 50 78 0 
C 52 78 0 
C 54 78 0 
C 56 78 0 
C 58 78 0 
C 60 78 0 
C 62 78 0 
C 64 78 0 
C 66 78 0 
C 68 78 0 
C 70 78 0 
C 72 78 0 
C 74 78 0 
C 76 78 0 
C 78 78 0 
C 80 78 0 
C 82 78 0 
C 84 78 0 
C 86 78 0 
C 88 78 0 
C 90 78 0 
C 92 78 0 
C 94 78 0 
C 96 78 0 
C 98 78 0 
C 100 78 0 
C 0 80 0 
C 2 80 0 
C 4 80 0 
C 6 80 0 
C 8 80 0 
C 10 80 0 
C 12 80 0 
C 14 80 0 
C 16 80 0 
C 18 80 0 
C 20 80 0 
C 22 80 0 
C 24 80 0 
C 26 80 0 
C 28 80 0 
C 30 80 0 
C 32 80 0 
C 34 80 0 
C 36 80 0 
C 38 80 0 
C 40 80 0 
C 42 80 0 
C 44 80 0 
C 46 80 0 
C 48 80 0 
C 50 80 0 
C 52 80 0 
C 54 80 0 
C 56 80 0 
C 58 80 0 
C 60 80 0 
C 62 80 0 
C 64 80 0 
C 66 80 0 
C 68 80 0 
C 70 80 0 
C 72 80 0 
C 74 80 0 
C 76 80 0 
C 78 80 0 
C 80 80 0 
C 82 80 0 
C 84 80 0 
C 86 80 0 
C 88 80 0 
C 90 80 0 
C 92 80 0 
C 94 80 0 
C 96 80 0 
C 98 80 0 
C 100 80 0 
C 0 82 0 
C 2 82 0 
C 4 82 0 
C 6 82 0 
C 8 82 0 
C 10 82 0 
C 12 82 0 
C 14 82 0 
C 16 82 0 
C 18 82 0 
C 20 82 0 
C 22 82 0 
C 24 82 0 
C 26 82 0 
C 28 82 0 
C 30 82 0 
C 32 82 0 
C 34 82 0 
C 36 82 0 
C 38 82 0 
C 40 82 0 
C 42 82 0 
C 44 82 0 
C 46 82 0 
C 48 82 0 
C 50 82 0 
C 52 82 0 
C 54 82 0 
C 56 82 0 
C 58 82 0 
C 60 82 0 
C 62 82 0 
C 64 82 0 
C 66 82 0 
C 68 82 0 
C 70 82 0 
C 72 82 0 
C 74 82 0 
C 76 82 0 
C 78 82 0 
C 80 82 0 
C 82 82 0 
C 84 82 0 
C 86 82 0 
C 88 82 0 
C 90 82 0 
C 92 82 0 
C 94 82 0 
C 96 82 0 
C 98 82 0 
C 100 82 0 
C 0 84 0 
C 2 84 0 
C 4 84 0 
C 6 84 0 
C 8 84 0 
C 10 84 0 
C 12 84 0 
C 14 84 0 
C 16 84 0 
C 18 84 0 
C 20 84 0 
C 22 84 0 
C 24 84 0 
C 26 84 0 
C 28 84 0 
C 30 84 0 
C 32 84 0 
C 34 84 0 
C 36 84 0 
C 38 84 0 
C 40 84 0 
C 42 84 0 
C 44 84 0 
C 46 84 0 
C 48 84 0 
C 50 84 0 
C 52 84 0 
C 54 84 0 
C 56 84 0 
C 58 84 0 
C 60 84 0 
C 62 84 0 
C 64 84 0 
C 66 84 0 
C 68 84 0 
C 70 84 0 
C 72 84 0 
C 74 84 0 
C 76 84 0 
C 78 84 0 
C 80 84 0 
C 82 84 0 
C 84 84 0 
C 86 84 0 
C 88 84 0 
C 90 84 0 
C 92 84 0 
C 94 84 0 
C 96 84 0 
C 98 84 0 
C 100 84 0 
C 0 86 0 
C 2 86 0 
C 4 86 0 
C 6 86 0 
C 8 86 0 
C 10 86 0 
C 12 86 0 
C 14 86 0 
C 16 86 0 
C 18 86 0 
C 20 86 0 
C 22 86 0 
C 24 86 0 
C 26 86 0 
C 28 86 0 
C 30 86 0 
C 32 86 0 
C 34 86 0 
C 36 86 0 
C 38 86 0 
C 40 86 0 
C 42 86 0 
C 44 86 0 
C 46 86 0 
C 48 86 0 
C 50 86 0 
C 52 86 0 
C 54 86 0 
C 56 86 0 
C 58 86 0 
C 60 86 0 
C 62 86 0 
C 64 86 0 
C 66 86 0 
C 68 86 0 
C 70 86 0 
C 72 86 0 
C 74 86 0 
C 76 86 0 
C 78 86 0 
C 80 86 0 
C 82 86 0 
C 84 86 0 
C 86 86 0 
C 88 86 0 
C 90 86 0 
C 92 86 0 
C 94 86 0 
C 96 86 0 
C 98 86 0 
C 100 86 0 
C 0 88 0 
C 2 88 0 
C 4 88 0 
C 6 88 0 
C 8 88 0 
C 10 88 0 
C 12 88 0 
C 14 88 0 
C 16 88 0 
C 18 88 0 
C 20 88 0 
C 22 88 0 
C 24 88 0 
C 26 88 0 
C 28 88 0 
C 30 88 0 
C 32 88 0 
C 34 88 0 
C 36 88 0 
C 38 88 0 
C 40 88 0 
C 42 88 0 
C 44 88 0 
C 46 88 0 
C 48 88 0 
C 50 88 0 
C 52 88 0 
C 54 88 0 
C 56 88 0 
C 58 88 0 
C 60 88 0 
C 62 88 0 
C 64 88 0 
C 66 88 0 
C 68 88 0 
C 70 88 0 
C 72 88 0 
C 74 88 0 
C 76 88 0 
C 78 88 0 
C 80 88 0 
C 82 88 0 
C 84 88 0 
C 86 88 0 
C 88 88 0 
C 90 88 0 
C 92 88 0 
C 94 88 0 
C 96 88 0 
C 98 88 0 
C 100 88 0 
C 0 90 0 
C 2 90 0 
C 4 90 0 
C 6 90 0 
C 8 90 0 
C 10 90 0 
C 12 90 0 
C 14 90 0 
C 16 90 0 
C 18 90 0 
C 20 90 0 
C 22 90 0 
C 24 90 0 
C 26 90 0 
C 28 90 0 
C 30 90 0 
C 32 90 0 
C 34 90 0 
C 36 90 0 
C 38 90 0 
C 40 90 0 
C 42 90 0 
C 44 90 0 
C 46 90 0 
C 48 90 0 
C 50 90 0 
C 52 90 0 
C 54 90 0 
C 56 90 0 
C 58 90 0 
C 60 90 0 
C 62 90 0 
C 64 90 0 
C 66 90 0 
C 68 90 0 
C 70 90 0 
C 72 90 0 
C 74 90 0 
C 76 90 0 
C 78 90 0 
C 80 90 0 
C 82 90 0 
C 84 90 0 
C 86 90 0 
C 88 90 0 
C 90 90 0 
C 92 90 0 
C 94 90 0 
C 96 90 0 
C 98 90 0 
C 100 90 0 
C 0 92 0 
C 2 92 0 
C 4 92 0 
C 6 92 0 
C 8 92 0 
C 10 92 0 
C 12 92 0 
C 14 92 0 
C 16 92 0 
C 18 92 0 
C 20 92 0 
C 22 92 0 
C 24 92 0 
C 26 92 0 
C 28 92 0 
C 30 92 0 
C 32 92 0 
C 34 92 0 
C 36 92 0 
C 38 92 0 
C 40 92 0 
C 42 92 0 
C 44 92 0 
C 46 92 0 
C 48 92 0 
C 50 92 0 
C 52 92 0 
C 54 92 0 
C 56 92 0 
C 58 92 0 
C 60 92 0 
C 62 92 0 
C 64 92 0 
C 66 92 0 
C 68 92 0 
C 70 92 0 
C 72 92 0 
C 74 92 0 
C 76 92 0 
C 78 92 0 
C 80 92 0 
C 82 92 0 
C 84 92 0 
C 86 92 0 
C 88 92 0 
C 90 92 0 
C 92 92 0 
C 94 92 0 
C 96 92 0 
C 98 92 0 
C 100 92 0 
C 0 94 0 
C 2 94 0 
C 4 94 0 
C 6 94 0 
C 8 94 0 
C 10 94 0 
C 12 94 0 
C 14 94 0 
C 16 94 0 
C 18 94 0 
C 20 94 0 
C 22 94 0 
C 24 94 0 
C 26 94 0 
C 28 94 0 
C 30 94 0 
C 32 94 0 
C 34 94 0 
C 36 94 0 
C 38 94 0 
C 40 94 0 
C 42 94 0 
C 44 94 0 
C 46 94 0 
C 48 94 0 
C 50 94 0 
C 52 94 0 
C 54 94 0 
C 56 94 0 
C 58 94 0 
C 60 94 0 
C 62 94 0 
C 64 94 0 
C 66 94 0 
C 68 94 0 
C 70 94 0 
C 72 94 0 
C 74 94 0 
C 76 94 0 
C 78 94 0 
C 80 94 0 
C 82 94 0 
C 84 94 0 
C 86 94 0 
C 88 94 0 
C 90 94 0 
C 92 94 0 
C 94 94 0 
C 96 94 0 
C 98 94 0 
C 100 94 0 
C 0 96 0 
C 2 96 0 
C 4 96 0 
C 6 96 0 
C 8 96 0 
C 10 96 0 
C 12 96 0 
C 14 96 0 
C 16 96 0 
C 18 96 0 
C 20 96 0 
C 22 96 0 
C 24 96 0 
C 26 96 0 
C 28 96 0 
C 30 96 0 
C 32 96 0 
C 34 96 0 
C 36 96 0 
C 38 96 0 
C 40 96 0 
C 42 96 0 
C 44 96 0 
C 46 96 0 
C 48 96 0 
C 50 96 0 
C 52 96 0 
C 54 96 0 
C 56 96 0 
C 58 96 0 
C 60 96 0 
C 62 96 0 
C 64 96 0 
C 66 96 0 
C 68 96 0 
C 70 96 0 
C 72 96 0 
C 74 96 0 
C 76 96 0 
C 78 96 0 
C 80 96 0 
C 82 96 0 
C 84 96 0 
C 86 96 0 
C 88 96 0 
C 90 96 0 
C 92 96 0 
C 94 96 0 
C 96 96 0 
C 98 96 0 
C 100 96 0 
C 0 98 0 
C 2 98 0 
C 4 98 0 
C 6 98 0 
C 8 98 0 
C 10 98 0 
C 12 98 0 
C 14 98 0 
C 16 98 0 
C 18 98 0 
C 20 98 0 
C 22 98 0 
C 24 98 0 
C 26 98 0 
C 28 98 0 
C 30 98 0 
C 32 98 0 
C 34 98 0 
C 36 98 0 
C 38 98 0 
C 40 98 0 
C 42 98 0 
C 44 98 0 
C 46 98 0 
C 48 98 0 
C 50 98 0 
C 52 98 0 
C 54 98 0 
C 56 98 0 
C 58 98 0 
C 60 98 0 
C 62 98 0 
C 64 98 0 
C 66 98 0 
C 68 98 0 
C 70 98 0 
C 72 98 0 
C 74 98 0 
C 76 98 0 
C 78 98 0 
C 80 98 0 
C 82 98 0 
C 84 98 0 
C 86 98 0 
C 88 98 0 
C 90 98 0 
C 92 98 0 
C 94 98 0 
C 96 98 0 
C 98 98 0 
C 100 98 0 
C 0 100 0 
C 2 100 0 
C 4 100 0 
C 6 100 0 
C 8 100 0 
C 10 100 0 
C 12 100 0 
C 14 100 0 
C 16 100 0 
C 18 100 0 
C 20 100 0 
C 22 100 0 
C 24 100 0 
C 26 100 0 
C 28 100 0 
C 30 100 0 
C 32 100 0 
C 34 100 0 
C 36 100 0 
C 38 100 0 
C 40 100 0 
C 42 100 0 
C 44 100 0 
C 46 100 0 
C 48 100 0 
C 50 100 0 
C 52 100 0 
C 54 100 0 
C 56 100 0 
C 58 100 0 
C 60 100 0 
C 62 100 0 
C 64 100 0 
C 66 100 0 
C 68 100 0 
C 70 100 0 
C 72 100 0 
C 74 100 0 
C 76 100 0 
C 78 100 0 
C 80 100 0 
C 82 100 0 
C 84 100 0 
C 86 100 0 
C 88 100 0 
C 90 100 0 
C 92 100 0 
C 94 100 0 
C 96 100 0 
C 98 100 0 
C 100 100 0 
O 1 0 0 
O 78 99 0 
O 70 95 0 
O 0 89 0 
O 0 99 0 
O 99 99 0 
3107
Atoms. Timestep: 11
N 83 19 0 
N 20 53 0 
N 17 68 0 
N 49 94 0 
N 34 21 0 
N 60 25 0 
N 85 67 0 
N 6 55 0 
N 13 46 0 
N 50 27 0 
N 12 7 0 
N 60 29 0 
N 65 14 0 
N 80 85 0 
N 57 90 0 
N 47 60 0 
N 42 77 0 
N 5 91 0 
N 1 13 0 
N 85 24 0 
N 13 41 0 
N 77 13 0 
N 15 26 0 
N 49 77 0 
N 68 99 0 
N 9 93 0 
N 89 13 0 
N 67 97 0 
N 2 35 0 
N 35 47 0 
N 76 33 0 
N 59 20 0 
N 23 69 0 
N 95 50 0 
N 27 19 0 
N 77 55 0 
N 95 76 0 
N 67 12 0 
N 67 93 0 
N 97 7 0 
N 44 11 0 
N 27 98 0 
N 87 27 0 
N 29 62 0 
N 51 42 0 
N 61 26 0 
N 50 77 0 
N 49 33 0 
N 92 79 0 
N 28 15 0 
N 57 25 0 
N 43 36 0 
N 7 21 0 
N 21 26 0 
N 98 75 0 
N 17 79 0 
N 51 71 0 
N 85 9 0 
N 5 22 0 
N 69 73 0 
N 99 67 0 
N 76 99 0 
N 5 33 0 
N 71 89 0 
N 73 15 0 
N 6 63 0 
N 73 65 0 
N 83 27 0 
N 41 23 0 
N 63 29 0 
N 43 24 0 
N 5 97 0 
N 6 47 0 
N 21 77 0 
N 41 86 0 
N 37 25 0 
N 53 89 0 
N 4 33 0 
N 29 49 0 
N 73 12 0 
N 60 43 0 
N 95 25 0 
N 71 94 0 
N 92 45 0 
N 3 33 0 
N 6 23 0 
N 37 69 0 
N 7 81 0 
N 19 28 0 
N 85 85 0 
N 66 83 0 
N 99 96 0 
N 12 19 0 
N 91 65 0 
N 89 11 0 
N 74 7 0 
N 69 58 0 
N 95 15 0 
N 69 69 0 
N 9 29 0 
N 44 67 0 
N 62 95 0 
N 43 39 0 
N 85 15 0 
N 93 92 0 
N 54 87 0 
N 69 70 0 
N 70 53 0 
N 26 93 0 
N 22 77 0 
N 27 47 0 
N 73 70 0 
N 20 77 0 
N 83 13 0 
N 45 68 0 
N 48 47 0 
N 10 57 0 
N 1 79 0 
N 69 95 0 
N 25 98 0 
N 37 27 0 
N 51 81 0 
N 45 25 0 
N 53 63 0 
N 10 27 0 
N 75 12 0 
N 5 73 0 
N 4 11 0 
N 26 11 0 
N 94 89 0 
N 8 85 0 
N 67 44 0 
N 12 45 0 
N 74 99 0 
N 13 11 0 
N 17 77 0 
N 31 61 0 
N 80 45 0 
N 95 45 0 
N 84 17 0 
N 11 42 0 
N 74 81 0 
N 76 5 0 
N 59 9 0 
N 88 87 0 
N 45 91 0 
N 97 51 0 
N 44 61 0 
N 99 81 0 
N 66 93 0 
N 91 43 0 
N 96 71 0 
N 30 33 0 
N 9 97 0 
N 48 75 0 
N 23 80 0 
N 99 85 0 
N 9 69 0 
N 1 3 0 
N 13 44 0 
N 89 38 0 
N 43 63 0 
N 89 39 0 
N 21 0 0 
N 39 88 0 
N 39 79 0 
N 74 15 0 
N 89 89 0 
N 96 25 0 
N 47 76 0 
N 1 99 0 
N 77 33 0 
N 19 41 0 
N 14 19 0 
N 70 27 0 
N 46 89 0 
N 93 66 0 
N 52 3 0 
N 81 84 0 
N 80 89 0 
N 68 31 0 
N 16 11 0 
N 85 55 0 
N 46 61 0 
N 3 67 0 
N 5 68 0 
N 96 55 0 
N 69 83 0 
N 93 73 0 
N 18 19 0 
N 23 75 0 
N 0 93 0 
N 67 69 0 
N 22 89 0 
N 57 71 0 
N 96 27 0 
N 67 77 0 
N 95 26 0 
N 45 35 0 
N 95 30 0 
N 77 7 0 
N 67 91 0 
N 64 27 0 
N 45 94 0 
N 65 7 0 
N 35 69 0 
N 66 27 0 
N 57 40 0 
N 98 85 0 
N 92 59 0 
N 26 59 0 
N 24 67 0 
N 17 8 0 
N 97 25 0 
N 27 18 0 
N 11 74 0 
N 62 71 0 
N 55 67 0 
N 88 89 0 
N 26 85 0 
N 7 57 0 
N 85 27 0 
N 99 70 0 
N 60 27 0 
N 21 45 0 
N 98 83 0 
N 77 41 0 
N 93 52 0 
N 77 29 0 
N 99 71 0 
N 89 83 0 
N 56 47 0 
N 41 27 0 
N 90 79 0 
N 69 61 0 
N 78 57 0 
N 27 31 0 
N 70 85 0 
N 3 37 0 
N 24 13 0 
N 77 57 0 
N 19 69 0 
N 94 55 0 
N 9 23 0 
N 53 51 0 
N 25 1 0 
N 29 12 0 
N 21 70 0 
N 15 69 0 
N 13 14 0 
N 82 91 0 
N 48 61 0 
N 41 89 0 
N 19 25 0 
N 11 33 0 
N 13 26 0 
N 78 45 0 
N 59 37 0 
N 53 28 0 
N 19 81 0 
N 11 67 0 
N 4 35 0 
N 94 47 0 
N 8 25 0 
N 47 77 0 
N 91 91 0 
N 53 41 0 
N 75 49 0 
N 88 79 0 
N 62 43 0 
N 91 97 0 
N 19 11 0 
N 36 89 0 
N 11 5 0 
N 41 47 0 
N 59 59 0 
N 5 27 0 
N 30 35 0 
N 51 69 0 
N 3 31 0 
N 56 75 0 
N 15 17 0 
N 41 75 0 
N 74 27 0 
N 31 78 0 
N 61 24 0 
N 90 89 0 
N 42 39 0 
N 91 11 0 
N 89 9 0 
N 47 8 0 
N 41 25 0 
N 63 91 0 
N 65 12 0 
N 45 11 0 
N 31 75 0 
N 41 39 0 
N 18 67 0 
N 17 48 0 
N 89 47 0 
N 77 93 0 
N 7 59 0 
N 26 89 0 
N 9 99 0 
N 49 61 0 
N 57 9 0 
N 69 79 0 
N 10 45 0 
N 75 7 0 
N 25 89 0 
N 99 73 0 
N 37 53 0 
N 41 2 0 
N 9 31 0 
N 29 99 0 
N 32 77 0 
N 27 7 0 
N 69 38 0 
N 2 9 0 
N 49 27 0 
N 70 77 0 
N 5 16 0 
N 93 48 0 
N 25 71 0 
N 39 14 0 
N 69 8 0 
N 65 25 0 
N 95 3 0 
N 50 89 0 
N 10 47 0 
N 47 33 0 
N 85 6 0 
N 89 45 0 
N 67 25 0 
N 91 50 0 
N 42 31 0 
N 18 99 0 
N 9 95 0 
N 78 7 0 
N 79 68 0 
N 39 32 0 
N 31 36 0 
N 56 7 0 
N 77 44 0 
N 10 19 0 
N 15 95 0 
N 89 6 0 
N 47 89 0 
N 79 93 0 
N 53 86 0 
N 77 25 0 
N 69 87 0 
N 11 49 0 
N 97 63 0 
N 14 17 0 
N 43 26 0 
N 50 31 0 
N 35 2 0 
N 28 99 0 
N 45 59 0 
N 80 21 0 
N 63 30 0 
N 46 75 0 
N 43 29 0 
N 33 33 0 
N 3 36 0 
N 77 14 0 
N 49 41 0 
N 94 43 0 
N 98 43 0 
N 27 81 0 
N 69 13 0 
N 43 80 0 
N 61 27 0 
N 31 67 0 
N 44 9 0 
N 54 47 0 
N 91 15 0 
N 57 29 0 
N 72 93 0 
N 27 2 0 
N 6 93 0 
N 43 11 0 
N 35 77 0 
N 31 68 0 
N 55 51 0 
N 63 49 0 
N 39 25 0 
N 79 47 0 
N 12 27 0 
N 85 97 0 
N 97 80 0 
N 51 90 0 
N 75 29 0 
N 91 48 0 
N 2 33 0 
N 49 3 0 
N 58 27 0 
N 81 87 0 
N 53 76 0 
N 81 91 0 
N 9 65 0 
N 9 47 0 
N 30 63 0 
N 21 85 0 
N 79 37 0 
N 37 66 0 
N 81 71 0 
N 86 45 0 
N 43 31 0 
N 75 10 0 
N 63 7 0 
N 91 7 0 
N 10 39 0 
N 91 13 0 
N 55 45 0 
N 10 53 0 
N 33 32 0 
N 69 47 0 
N 89 42 0 
N 97 81 0 
N 90 29 0 
N 19 89 0 
N 49 65 0 
N 95 67 0 
N 81 15 0 
N 41 49 0 
N 13 65 0 
N 79 24 0 
N 7 25 0 
N 25 87 0 
N 35 27 0 
N 79 17 0 
N 37 67 0 
N 68 51 0 
N 93 56 0 
N 85 45 0 
N 1 9 0 
N 50 87 0 
N 78 67 0 
N 69 5 0 
N 11 63 0 
N 29 2 0 
N 18 69 0 
N 18 45 0 
N 16 27 0 
N 70 79 0 
N 71 87 0 
N 21 66 0 
N 19 67 0 
N 59 78 0 
N 96 81 0 
N 97 29 0 
N 74 19 0 
N 69 29 0 
N 61 31 0 
N 41 61 0 
N 93 68 0 
N 78 69 0 
N 1 5 0 
N 41 83 0 
N 59 33 0 
N 11 28 0 
N 21 89 0 
N 29 65 0 
N 13 12 0 
N 6 27 0 
N 80 67 0 
N 51 77 0 
N 17 69 0 
N 45 88 0 
N 7 13 0 
N 7 3 0 
N 41 15 0 
N 85 19 0 
N 44 47 0 
N 5 69 0 
N 43 87 0 
N 41 69 0 
N 33 10 0 
N 49 62 0 
N 93 39 0 
N 87 95 0 
N 61 28 0 
N 55 41 0 
N 77 22 0 
N 20 91 0 
N 97 27 0 
N 77 23 0 
N 85 13 0 
N 43 85 0 
N 47 21 0 
N 43 15 0 
N 34 27 0 
N 43 77 0 
N 49 38 0 
N 8 63 0 
N 78 17 0 
N 37 78 0 
N 95 69 0 
C 0 0 0 
C 2 0 0 
C 4 0 0 
C 6 0 0 
C 8 0 0 
C 10 0 0 
C 12 0 0 
C 14 0 0 
C 16 0 0 
C 18 0 0 
C 20 0 0 
C 22 0 0 
C 24 0 0 
C 26 0 0 
C 28 0 0 
C 30 0 0 
C 32 0 0 
C 34 0 0 
C 36 0 0 
C 38 0 0 
C 40 0 0 
C 42 0 0 
C 44 0 0 
C 46 0 0 
C 48 0 0 
C 50 0 0 
C 52 0 0 
C 54 0 0 
C 56 0 0 
C 58 0 0 
C 60 0 0 
C 62 0 0 
C 64 0 0 
C 66 0 0 
C 68 0 0 
C 70 0 0 
C 72 0 0 
C 74 0 0 
C 76 0 0 
C 78 0 0 
C 80 0 0 
C 82 0 0 
C 84 0 0 
C 86 0 0 
C 88 0 0 
C 90 0 0 
C 92 0 0 
C 94 0 0 
C 96 0 0 
C 98 0 0 
C 100 0 0 
C 0 2 0 
C 2 2 0 
C 4 2 0 
C 6 2 0 
C 8 2 0 
C 10 2 0 
C 12 2 0 
C 14 2 0 
C 16 2 0 
C 18 2 0 
C 20 2 0 
C 22 2 0 
C 24 2 0 
C 26 2 0 
C 28 2 0 
C 30 2 0 
C 32 2 0 
C 34 2 0 
C 36 2 0 
C 38 2 0 
C 40 2 0 
C 42 2 0 
C 44 2 0 
C 46 2 0 
C 48 2 0 
C 50 2 0 
C 52 2 0 
C 54 2 0 
C 56 2 0 
C 58 2 0 
C 60 2 0 
C 62 2 0 
C 64 2 0 
C 66 2 0 
C 68 2 0 
C 70 2 0 
C 72 2 0 
C 74 2 0 
C 76 2 0 
C 78 2 0 
C 80 2 0 
C 82 2 0 
C 84 2 0 
C 86 2 0 
C 88 2 0 
C 90 2 0 
C 92 2 0 
C 94 2 0 
C 96 2 0 
C 98 2 0 
C 100 2 0 
C 0 4 0 
C 2 4 0 
C 4 4 0 
C 6 4 0 
C 8 4 0 
C 10 4 0 
C 12 4 0 
C 14 4 0 
C 16 4 0 
C 18 4 0 
C 20 4 0 
C 22 4 0 
C 24 4 0 
C 26 4 0 
C 28 4 0 
C 30 4 0 
C 32 4 0 
C 34 4 0 
C 36 4 0 
C 38 4 0 
C 40 4 0 
C 42 4 0 
C 44 4 0 
C 46 4 0 
C 48 4 0 
C 50 4 0 
C 52 4 0 
C 54 4 0 
C 56 4 0 
C 58 4 0 
C 60 4 0 
C 62 4 0 
C 64 4 0 
C 66 4 0 
C 68 4 0 
C 70 4 0 
C 72 4 0 
C 74 4 0 
C 76 4 0 
C 78 4 0 
C 80 4 0 
C 82 4 0 
C 84 4 0 
C 86 4 0 
C 88 4 0 
C 90 4 0 
C 92 4 0 
C 94 4 0 
C 96 4 0 
C 98 4 0 
C 100 4 0 
C 0 6 0 
C 2 6 0 
C 4 6 0 
C 6 6 0 
C 8 6 0 
C 10 6 0 
C 12 6 0 
C 14 6 0 
C 16 6 0 
C 18 6 0 
C 20 6 0 
C 22 6 0 
C 24 6 0 
C 26 6 0 
C 28 6 0 
C 30 6 0 
C 32 6 0 
C 34 6 0 
C 36 6 0 
C 38 6 0 
C 40 6 0 
C 42 6 0 
C 44 6 0 
C 46 6 0 
C 48 6 0 
C 50 6 0 
C 52 6 0 
C 54 6 0 
C 56 6 0 
C 58 6 0 
C 60 6 0 
C 62 6 0 
C 64 6 0 
C 66 6 0 
C 68 6 0 
C 70 6 0 
C 72 6 0 
C 74 6 0 
C 76 6 0 
C 78 6 0 
C 80 6 0 
C 82 6 0 
C 84 6 0 
C 86 6 0 
C 88 6 0 
C 90 6 0 
C 92 6 0 
C 94 6 0 
C 96 6 0 
C 98 6 0 
C 100 6 0 
C 0 8 0 
C 2 8 0 
C 4 8 0 
C 6 8 0 
C 8 8 0 
C 10 8 0 
C 12 8 0 
C 14 8 0 
C 16 8 0 
C 18 8 0 
C 20 8 0 
C 22 8 0 
C 24 8 0 
C 26 8 0 
C 28 8 0 
C 30 8 0 
C 32 8 0 
C 34 8 0 
C 36 8 0 
C 38 8 0 
C 40 8 0 
C 42 8 0 
C 44 8 0 
C 46 8 0 
C 48 8 0 
C 50 8 0 
C 52 8 0 
C 54 8 0 
C 56 8 0 
C 58 8 0 
C 60 8 0 
C 62 8 0 
C 64 8 0 
C 66 8 0 
C 68 8 0 
C 70 8 0 
C 72 8 0 
C 74 8 0 
C 76 8 0 
C 78 8 0 
C 80 8 0 
C 82 8 0 
C 84 8 0 
C 86 8 0 
C 88 8 0 
C 90 8 0 
C 92 8 0 
C 94 8 0 
C 96 8 0 
C 98 8 0 
C 100 8 0 
C 0 10 0 
C 2 10 0 
C 4 10 0 
C 6 10 0 
C 8 10 0 
C 10 10 0 
C 12 10 0 
C 14 10 0 
C 16 10 0 
C 18 10 0 
C 20 10 0 
C 22 10 0 
C 24 10 0 
C 26 10 0 
C 28 10 0 
C 30 10 0 
C 32 10 0 
C 34 10 0 
C 36 10 0 
C 38 10 0 
C 40 10 0 
C 42 10 0 
C 44 10 0 
C 46 10 0 
C 48 10 0 
C 50 10 0 
C 52 10 0 
C 54 10 0 
C 56 10 0 
C 58 10 0 
C 60 10 0 
C 62 10 0 
C 64 10 0 
C 66 10 0 
C 68 10 0 
C 70 10 0 
C 72 10 0 
C 74 10 0 
C 76 10 0 
C 78 10 0 
C 80 10 0 
C 82 10 0 
C 84 10 0 
C 86 10 0 
C 88 10 0 
C 90 10 0 
C 92 10 0 
C 94 10 0 
C 96 10 0 
C 98 10 0 
C 100 10 0 
C 0 12 0 
C 2 12 0 
C 4 12 0 
C 6 12 0 
C 8 12 0 
C 10 12 0 
C 12 12 0 
C 14 12 0 
C 16 12 0 
C 18 12 0 
C 20 12 0 
C 22 12 0 
C 24 12 0 
C 26 12 0 
C 28 12 0 
C 30 12 0 
C 32 12 0 
C 34 12 0 
C 36 12 0 
C 38 12 0 
C 40 12 0 
C 42 12 0 
C 44 12 0 
C 46 12 0 
C 48 12 0 
C 50 12 0 
C 52 12 0 
C 54 12 0 
C 56 12 0 
C 58 12 0 
C 60 12 0 
C 62 12 0 
C 64 12 0 
C 66 12 0 
C 68 12 0 
C 70 12 0 
C 72 12 0 
C 74 12 0 
C 76 12 0 
C 78 12 0 
C 80 12 0 
C 82 12 0 
C 84 12 0 
C 86 12 0 
C 88 12 0 
C 90 12 0 
C 92 12 0 
C 94 12 0 
C 96 12 0 
C 98 12 0 
C 100 12 0 
C 0 14 0 
C 2 14 0 
C 4 14 0 
C 6 14 0 
C 8 14 0 
C 10 14 0 
C 12 14 0 
C 14 14 0 
C 16 14 0 
C 18 14 0 
C 20 14 0 
C 22 14 0 
C 24 14 0 
C 26 14 0 
C 28 14 0 
C 30 14 0 
C 32 14 0 
C 34 14 0 
C 36 14 0 
C 38 14 0 
C 40 14 0 
C 42 14 0 
C 44 14 0 
C 46 14 0 
C 48 14 0 
C 50 14 0 
C 52 14 0 
C 54 14 0 
C 56 14 0 
C 58 14 0 
C 60 14 0 
C 62 14 0 
C 64 14 0 
C 66 14 0 
C 68 14 0 
C 70 14 0 
C 72 14 0 
C 74 14 0 
C 76 14 0 
C 78 14 0 
C 80 14 0 
C 82 14 0 
C 84 14 0 
C 86 14 0 
C 88 14 0 
C 90 14 0 
C 92 14 0 
C 94 14 0 
C 96 14 0 
C 98 14 0 
C 100 14 0 
C 0 16 0 
C 2 16 0 
C 4 16 0 
C 6 16 0 
C 8 16 0 
C 10 16 0 
C 12 16 0 
C 14 16 0 
C 16 16 0 
C 18 16 0 
C 20 16 0 
C 22 16 0 
C 24 16 0 
C 26 16 0 
C 28 16 0 
C 30 16 0 
C 32 16 0 
C 34 16 0 
C 36 16 0 
C 38 16 0 
C 40 16 0 
C 42 16 0 
C 44 16 0 
C 46 16 0 
C 48 16 0 
C 50 16 0 
C 52 16 0 
C 54 16 0 
C 56 16 0 
C 58 16 0 
C 60 16 0 
C 62 16 0 
C 64 16 0 
C 66 16 0 
C 68 16 0 
C 70 16 0 
C 72 16 0 
C 74 16 0 
C 76 16 0 
C 78 16 0 
C 80 16 0 
C 82 16 0 
C 84 16 0 
C 86 16 0 
C 88 16 0 
C 90 16 0 
C 92 16 0 
C 94 16 0 
C 96 16 0 
C 98 16 0 
C 100 16 0 
C 0 18 0 
C 2 18 0 
C 4 18 0 
C 6 18 0 
C 8 18 0 
C 10 18 0 
C 12 18 0 
C 14 18 0 
C 16 18 0 
C 18 18 0 
C 20 18 0 
C 22 18 0 
C 24 18 0 
C 26 18 0 
C 28 18 0 
C 30 18 0 
C 32 18 0 
C 34 18 0 
C 36 18 0 
C 38 18 0 
C 40 18 0 
C 42 18 0 
C 44 18 0 
C 46 18 0 
C 48 18 0 
C 50 18 0 
C 52 18 0 
C 54 18 0 
C 56 18 0 
C 58 18 0 
C 60 18 0 
C 62 18 0 
C 64 18 0 
C 66 18 0 
C 68 18 0 
C 70 18 0 
C 72 18 0 
C 74 18 0 
C 76 18 0 
C 78 18 0 
C 80 18 0 
C 82 18 0 
C 84 18 0 
C 86 18 0 
C 88 18 0 
C 90 18 0 
C 92 18 0 
C 94 18 0 
C 96 18 0 
C 98 18 0 
C 100 18 0 
C 0 20 0 
C 2 20 0 
C 4 20 0 
C 6 20 0 
C 8 20 0 
C 10 20 0 
C 12 20 0 
C 14 20 0 
C 16 20 0 
C 18 20 0 
C 20 20 0 
C 22 20 0 
C 24 20 0 
C 26 20 0 
C 28 20 0 
C 30 20 0 
C 32 20 0 
C 34 20 0 
C 36 20 0 
C 38 20 0 
C 40 20 0 
C 42 20 0 
C 44 20 0 
C 46 20 0 
C 48 20 0 
C 50 20 0 
C 52 20 0 
C 54 20 0 
C 56 20 0 
C 58 20 0 
C 60 20 0 
C 62 20 0 
C 64 20 0 
C 66 20 0 
C 68 20 0 
C 70 20 0 
C 72 20 0 
C 74 20 0 
C 76 20 0 
C 78 20 0 
C 80 20 0 
C 82 20 0 
C 84 20 0 
C 86 20 0 
C 88 20 0 
C 90 20 0 
C 92 20 0 
C 94 20 0 
C 96 20 0 
C 98 20 0 
C 100 20 0 
C 0 22 0 
C 2 22 0 
C 4 22 0 
C 6 22 0 
C 8 22 0 
C 10 22 0 
C 12 22 0 
C 14 22 0 
C 16 22 0 
C 18 22 0 
C 20 22 0 
C 22 22 0 
C 24 22 0 
C 26 22 0 
C 28 22 0 
C 30 22 0 
C 32 22 0 
C 34 22 0 
C 36 22 0 
C 38 22 0 
C 40 22 0 
C 42 22 0 
C 44 22 0 
C 46 22 0 
C 48 22 0 
C 50 22 0 
C 52 22 0 
C 54 22 0 
C 56 22 0 
C 58 22 0 
C 60 22 0 
C 62 22 0 
C 64 22 0 
C 66 22 0 
C 68 22 0 
C 70 22 0 
C 72 22 0 
C 74 22 0 
C 76 22 0 
C 78 22 0 
C 80 22 0 
C 82 22 0 
C 84 22 0 
C 86 22 0 
C 88 22 0 
C 90 22 0 
C 92 22 0 
C 94 22 0 
C 96 22 0 
C 98 22 0 
C 100 22 0 
C 0 24 0 
C 2 24 0 
C 4 24 0 
C 6 24 0 
C 8 24 0 
C 10 24 0 
C 12 24 0 
C 14 24 0 
C 16 24 0 
C 18 24 0 
C 20 24 0 
C 22 24 0 
C 24 24 0 
C 26 24 0 
C 28 24 0 
C 30 24 0 
C 32 24 0 
C 34 24 0 
C 36 24 0 
C 38 24 0 
C 40 24 0 
C 42 24 0 
C 44 24 0 
C 46 24 0 
C 48 24 0 
C 50 24 0 
C 52 24 0 
C 54 24 0 
C 56 24 0 
C 58 24 0 
C 60 24 0 
C 62 24 0 
C 64 24 0 
C 66 24 0 
C 68 24 0 
C 70 24 0 
C 72 24 0 
C 74 24 0 
C 76 24 0 
C 78 24 0 
C 80 24 0 
C 82 24 0 
C 84 24 0 
C 86 24 0 
C 88 24 0 
C 90 24 0 
C 92 24 0 
C 94 24 0 
C 96 24 0 
C 98 24 0 
C 100 24 0 
C 0 26 0 
C 2 26 0 
C 4 26 0 
C 6 26 0 
C 8 26 0 
C 10 26 0 
C 12 26 0 
C 14 26 0 
C 16 26 0 
C 18 26 0 
C 20 26 0 
C 22 26 0 
C 24 26 0 
C 26 26 0 
C 28 26 0 
C 30 26 0 
C 32 26 0 
C 34 26 0 
C 36 26 0 
C 38 26 0 
C 40 26 0 
C 42 26 0 
C 44 26 0 
C 46 26 0 
C 48 26 0 
C 50 26 0 
C 52 26 0 
C 54 26 0 
C 56 26 0 
C 58 26 0 
C 60 26 0 
C 62 26 0 
C 64 26 0 
C 66 26 0 
C 68 26 0 
C 70 26 0 
C 72 26 0 
C 74 26 0 
C 76 26 0 
C 78 26 0 
C 80 26 0 
C 82 26 0 
C 84 26 0 
C 86 26 0 
C 88 26 0 
C 90 26 0 
C 92 26 0 
C 94 26 0 
C 96 26 0 
C 98 26 0 
C 100 26 0 
C 0 28 0 
C 2 28 0 
C 4 28 0 
C 6 28 0 
C 8 28 0 
C 10 28 0 
C 12 28 0 
C 14 28 0 
C 16 28 0 
C 18 28 0 
C 20 28 0 
C 22 28 0 
C 24 28 0 
C 26 28 0 
C 28 28 0 
C 30 28 0 
C 32 28 0 
C 34 28 0 
C 36 28 0 
C 38 28 0 
C 40 28 0 
C 42 28 0 
C 44 28 0 
C 46 28 0 
C 48 28 0 
C 50 28 0 
C 52 28 0 
C 54 28 0 
C 56 28 0 
C 58 28 0 
C 60 28 0 
C 62 28 0 
C 64 28 0 
C 66 28 0 
C 68 28 0 
C 70 28 0 
C 72 28 0 
C 74 28 0 
C 76 28 0 
C 78 28 0 
C 80 28 0 
C 82 28 0 
C 84 28 0 
C 86 28 0 
C 88 28 0 
C 90 28 0 
C 92 28 0 
C 94 28 0 
C 96 28 0 
C 98 28 0 
C 100 28 0 
C 0 30 0 
C 2 30 0 
C 4 30 0 
C 6 30 0 
C 8 30 0 
C 10 30 0 
C 12 30 0 
C 14 30 0 
C 16 30 0 
C 18 30 0 
C 20 30 0 
C 22 30 0 
C 24 30 0 
C 26 30 0 
C 28 30 0 
C 30 30 0 
C 32 30 0 
C 34 30 0 
C 36 30 0 
C 38 30 0 
C 40 30 0 
C 42 30 0 
C 44 30 0 
C 46 30 0 
C 48 30 0 
C 50 30 0 
C 52 30 0 
C 54 30 0 
C 56 30 0 
C 58 30 0 
C 60 30 0 
C 62 30 0 
C 64 30 0 
C 66 30 0 
C 68 30 0 
C 70 30 0 
C 72 30 0 
C 74 30 0 
C 76 30 0 
C 78 30 0 
C 80 30 0 
C 82 30 0 
C 84 30 0 
C 86 30 0 
C 88 30 0 
C 90 30 0 
C 92 30 0 
C 94 30 0 
C 96 30 0 
C 98 30 0 
C 100 30 0 
C 0 32 0 
C 2 32 0 
C 4 32 0 
C 6 32 0 
C 8 32 0 
C 10 32 0 
C 12 32 0 
C 14 32 0 
C 16 32 0 
C 18 32 0 
C 20 32 0 
C 22 32 0 
C 24 32 0 
C 26 32 0 
C 28 32 0 
C 30 32 0 
C 32 32 0 
C 34 32 0 
C 36 32 0 
C 38 32 0 
C 40 32 0 
C 42 32 0 
C 44 32 0 
C 46 32 0 
C 48 32 0 
C 50 32 0 
C 52 32 0 
C 54 32 0 
C 56 32 0 
C 58 32 0 
C 60 32 0 
C 62 32 0 
C 64 32 0 
C 66 32 0 
C 68 32 0 
C 70 32 0 
C 72 32 0 
C 74 32 0 
C 76 32 0 
C 78 32 0 
C 80 32 0 
C 82 32 0 
C 84 32 0 
C 86 32 0 
C 88 32 0 
C 90 32 0 
C 92 32 0 
C 94 32 0 
C 96 32 0 
C 98 32 0 
C 100 32 0 
C 0 34 0 
C 2 34 0 
C 4 34 0 
C 6 34 0 
C 8 34 0 
C 10 34 0 
C 12 34 0 
C 14 34 0 
C 16 34 0 
C 18 34 0 
C 20 34 0 
C 22 34 0 
C 24 34 0 
C 26 34 0 
C 28 34 0 
C 30 34 0 
C 32 34 0 
C 34 34 0 
C 36 34 0 
C 38 34 0 
C 40 34 0 
C 42 34 0 
C 44 34 0 
C 46 34 0 
C 48 34 0 
C 50 34 0 
C 52 34 0 
C 54 34 0 
C 56 34 0 
C 58 34 0 
C 60 34 0 
C 62 34 0 
C 64 34 0 
C 66 34 0 
C 68 34 0 
C 70 34 0 
C 72 34 0 
C 74 34 0 
C 76 34 0 
C 78 34 0 
C 80 34 0 
C 82 34 0 
C 84 34 0 
C 86 34 0 
C 88 34 0 
C 90 34 0 
C 92 34 0 
C 94 34 0 
C 96 34 0 
C 98 34 0 
C 100 34 0 
C 0 36 0 
C 2 36 0 
C 4 36 0 
C 6 36 0 
C 8 36 0 
C 10 36 0 
C 12 36 0 
C 14 36 0 
C 16 36 0 
C 18 36 0 
C 20 36 0 
C 22 36 0 
C 24 36 0 
C 26 36 0 
C 28 36 0 
C 30 36 0 
C 32 36 0 
C 34 36 0 
C 36 36 0 
C 38 36 0 
C 40 36 0 
C 42 36 0 
C 44 36 0 
C 46 36 0 
C 48 36 0 
C 50 36 0 
C 52 36 0 
C 54 36 0 
C 56 36 0 
C 58 36 0 
C 60 36 0 
C 62 36 0 
C 64 36 0 
C 66 36 0 
C 68 36 0 
C 70 36 0 
C 72 36 0 
C 74 36 0 
C 76 36 0 
C 78 36 0 
C 80 36 0 
C 82 36 0 
C 84 36 0 
C 86 36 0 
C 88 36 0 
C 90 36 0 
C 92 36 0 
C 94 36 0 
C 96 36 0 
C 98 36 0 
C 100 36 0 
C 0 38 0 
C 2 38 0 
C 4 38 0 
C 6 38 0 
C 8 38 0 
C 10 38 0 
C 12 38 0 
C 14 38 0 
C 16 38 0 
C 18 38 0 
C 20 38 0 
C 22 38 0 
C 24 38 0 
C 26 38 0 
C 28 38 0 
C 30 38 0 
C 32 38 0 
C 34 38 0 
C 36 38 0 
C 38 38 0 
C 40 38 0 
C 42 38 0 
C 44 38 0 
C 46 38 0 
C 48 38 0 
C 50 38 0 
C 52 38 0 
C 54 38 0 
C 56 38 0 
C 58 38 0 
C 60 38 0 
C 62 38 0 
C 64 38 0 
C 66 38 0 
C 68 38 0 
C 70 38 0 
C 72 38 0 
C 74 38 0 
C 76 38 0 
C 78 38 0 
C 80 38 0 
C 82 38 0 
C 84 38 0 
C 86 38 0 
C 88 38 0 
C 90 38 0 
C 92 38 0 
C 94 38 0 
C 96 38 0 
C 98 38 0 
C 100 38 0 
C 0 40 0 
C 2 40 0 
C 4 40 0 
C 6 40 0 
C 8 40 0 
C 10 40 0 
C 12 40 0 
C 14 40 0 
C 16 40 0 
C 18 40 0 
C 20 40 0 
C 22 40 0 
C 24 40 0 
C 26 40 0 
C 28 40 0 
C 30 40 0 
C 32 40 0 
C 34 40 0 
C 36 40 0 
C 38 40 0 
C 40 40 0 
C 42 40 0 
C 44 40 0 
C 46 40 0 
C 48 40 0 
C 50 40 0 
C 52 40 0 
C 54 40 0 
C 56 40 0 
C 58 40 0 
C 60 40 0 
C 62 40 0 
C 64 40 0 
C 66 40 0 
C 68 40 0 
C 70 40 0 
C 72 40 0 
C 74 40 0 
C 76 40 0 
C 78 40 0 
C 80 40 0 
C 82 40 0 
C 84 40 0 
C 86 40 0 
C 88 40 0 
C 90 40 0 
C 92 40 0 
C 94 40 0 
C 96 40 0 
C 98 40 0 
C 100 40 0 
C 0 42 0 
C 2 42 0 
C 4 42 0 
C 6 42 0 
C 8 42 0 
C 10 42 0 
C 12 42 0 
C 14 42 0 
C 16 42 0 
C 18 42 0 
C 20 42 0 
C 22 42 0 
C 24 42 0 
C 26 42 0 
C 28 42 0 
C 30 42 0 
C 32 42 0 
C 34 42 0 
C 36 42 0 
C 38 42 0 
C 40 42 0 
C 42 42 0 
C 44 42 0 
C 46 42 0 
C 48 42 0 
C 50 42 0 
C 52 42 0 
C 54 42 0 
C 56 42 0 
C 58 42 0 
C 60 42 0 
C 62 42 0 
C 64 42 0 
C 66 42 0 
C 68 42 0 
C 70 42 0 
C 72 42 0 
C 74 42 0 
C 76 42 0 
C 78 42 0 
C 80 42 0 
C 82 42 0 
C 84 42 0 
C 86 42 0 
C 88 42 0 
C 90 42 0 
C 92 42 0 
C 94 42 0 
C 96 42 0 
C 98 42 0 
C 100 42 0 
C 0 44 0 
C 2 44 0 
C 4 44 0 
C 6 44 0 
C 8 44 0 
C 10 44 0 
C 12 44 0 
C 14 44 0 
C 16 44 0 
C 18 44 0 
C 20 44 0 
C 22 44 0 
C 24 44 0 
C 26 44 0 
C 28 44 0 
C 30 44 0 
C 32 44 0 
C 34 44 0 
C 36 44 0 
C 38 44 0 
C 40 44 0 
C 42 44 0 
C 44 44 0 
C 46 44 0 
C 48 44 0 
C 50 44 0 
C 52 44 0 
C 54 44 0 
C 56 44 0 
C 58 44 0 
C 60 44 0 
C 62 44 0 
C 64 44 0 
C 66 44 0 
C 68 44 0 
C 70 44 0 
C 72 44 0 
C 74 44 0 
C 76 44 0 
C 78 44 0 
C 80 44 0 
C 82 44 0 
C 84 44 0 
C 86 44 0 
C 88 44 0 
C 90 44 0 
C 92 44 0 
C 94 44 0 
C 96 44 0 
C 98 44 0 
C 100 44 0 
C 0 46 0 
C 2 46 0 
C 4 46 0 
C 6 46 0 
C 8 46 0 
C 10 46 0 
C 12 46 0 
C 14 46 0 
C 16 46 0 
C 18 46 0 
C 20 46 0 
C 22 46 0 
C 24 46 0 
C 26 46 0 
C 28 46 0 
C 30 46 0 
C 32 46 0 
C 34 46 0 
C 36 46 0 
C 38 46 0 
C 40 46 0 
C 42 46 0 
C 44 46 0 
C 46 46 0 
C 48 46 0 
C 50 46 0 
C 52 46 0 
C 54 46 0 
C 56 46 0 
C 58 46 0 
C 60 46 0 
C 62 46 0 
C 64 46 0 
C 66 46 0 
C 68 46 0 
C 70 46 0 
C 72 46 0 
C 74 46 0 
C 76 46 0 
C 78 46 0 
C 80 46 0 
C 82 46 0 
C 84 46 0 
C 86 46 0 
C 88 46 0 
C 90 46 0 
C 92 46 0 
C 94 46 0 
C 96 46 0 
C 98 46 0 
C 100 46 0 
C 0 48 0 
C 2 48 0 
C 4 48 0 
C 6 48 0 
C 8 48 0 
C 10 48 0 
C 12 48 0 
C 14 48 0 
C 16 48 0 
C 18 48 0 
C 20 48 0 
C 22 48 0 
C 24 48 0 
C 26 48 0 
C 28 48 0 
C 30 48 0 
C 32 48 0 
C 34 48 0 
C 36 48 0 
C 38 48 0 
C 40 48 0 
C 42 48 0 
C 44 48 0 
C 46 48 0 
C 48 48 0 
C 50 48 0 
C 52 48 0 
C 54 48 0 
C 56 48 0 
C 58 48 0 
C 60 48 0 
C 62 48 0 
C 64 48 0 
C 66 48 0 
C 68 48 0 
C 70 48 0 
C 72 48 0 
C 74 48 0 
C 76 48 0 
C 78 48 0 
C 80 48 0 
C 82 48 0 
C 84 48 0 
C 86 48 0 
C 88 48 0 
C 90 48 0 
C 92 48 0 
C 94 48 0 
C 96 48 0 
C 98 48 0 
C 100 48 0 
C 0 50 0 
C 2 50 0 
C 4 50 0 
C 6 50 0 
C 8 50 0 
C 10 50 0 
C 12 50 0 
C 14 50 0 
C 16 50 0 
C 18 50 0 
C 20 50 0 
C 22 50 0 
C 24 50 0 
C 26 50 0 
C 28 50 0 
C 30 50 0 
C 32 50 0 
C 34 50 0 
C 36 50 0 
C 38 50 0 
C 40 50 0 
C 42 50 0 
C 44 50 0 
C 46 50 0 
C 48 50 0 
C 50 50 0 
C 52 50 0 
C 54 50 0 
C 56 50 0 
C 58 50 0 
C 60 50 0 
C 62 50 0 
C 64 50 0 
C 66 50 0 
C 68 50 0 
C 70 50 0 
C 72 50 0 
C 74 50 0 
C 76 50 0 
C 78 50 0 
C 80 50 0 
C 82 50 0 
C 84 50 0 
C 86 50 0 
C 88 50 0 
C 90 50 0 
C 92 50 0 
C 94 50 0 
C 96 50 0 
C 98 50 0 
C 100 50 0 
C 0 52 0 
C 2 52 0 
C 4 52 0 
C 6 52 0 
C 8 52 0 
C 10 52 0 
C 12 52 0 
C 14 52 0 
C 16 52 0 
C 18 52 0 
C 20 52 0 
C 22 52 0 
C 24 52 0 
C 26 52 0 
C 28 52 0 
C 30 52 0 
C 32 52 0 
C 34 52 0 
C 36 52 0 
C 38 52 0 
C 40 52 0 
C 42 52 0 
C 44 52 0 
C 46 52 0 
C 48 52 0 
C 50 52 0 
C 52 52 0 
C 54 52 0 
C 56 52 0 
C 58 52 0 
C 60 52 0 
C 62 52 0 
C 64 52 0 
C 66 52 0 
C 68 52 0 
C 70 52 0 
C 72 52 0 
C 74 52 0 
C 76 52 0 
C 78 52 0 
C 80 52 0 
C 82 52 0 
C 84 52 0 
C 86 52 0 
C 88 52 0 
C 90 52 0 
C 92 52 0 
C 94 52 0 
C 96 52 0 
C 98 52 0 
C 100 52 0 
C 0 54 0 
C 2 54 0 
C 4 54 0 
C 6 54 0 
C 8 54 0 
C 10 54 0 
C 12 54 0 
C 14 54 0 
C 16 54 0 
C 18 54 0 
C 20 54 0 
C 22 54 0 
C 24 54 0 
C 26 54 0 
C 28 54 0 
C 30 54 0 
C 32 54 0 
C 34 54 0 
C 36 54 0 
C 38 54 0 
C 40 54 0 
C 42 54 0 
C 44 54 0 
C 46 54 0 
C 48 54 0 
C 50 54 0 
C 52 54 0 
C 54 54 0 
C 56 54 0 
C 58 54 0 
C 60 54 0 
C 62 54 0 
C 64 54 0 
C 66 54 0 
C 68 54 0 
C 70 54 0 
C 72 54 0 
C 74 54 0 
C 76 54 0 
C 78 54 0 
C 80 54 0 
C 82 54 0 
C 84 54 0 
C 86 54 0 
C 88 54 0 
C 90 54 0 
C 92 54 0 
C 94 54 0 
C 96 54 0 
C 98 54 0 
C 100 54 0 
C 0 56 0 
C 2 56 0 
C 4 56 0 
C 6 56 0 
C 8 56 0 
C 10 56 0 
C 12 56 0 
C 14 56 0 
C 16 56 0 
C 18 56 0 
C 20 56 0 
C 22 56 0 
C 24 56 0 
C 26 56 0 
C 28 56 0 
C 30 56 0 
C 32 56 0 
C 34 56 0 
C 36 56 0 
C 38 56 0 
C 40 56 0 
C 42 56 0 
C 44 56 0 
C 46 56 0 
C 48 56 0 
C 50 56 0 
C 52 56 0 
C 54 56 0 
C 56 56 0 
C 58 56 0 
C 60 56 0 
C 62 56 0 
C 64 56 0 
C 66 56 0 
C 68 56 0 
C 70 56 0 
C 72 56 0 
C 74 56 0 
C 76 56 0 
C 78 56 0 
C 80 56 0 
C 82 56 0 
C 84 56 0 
C 86 56 0 
C 88 56 0 
C 90 56 0 
C 92 56 0 
C 94 56 0 
C 96 56 0 
C 98 56 0 
C 100 56 0 
C 0 58 0 
C 2 58 0 
C 4 58 0 
C 6 58 0 
C 8 58 0 
C 10 58 0 
C 12 58 0 
C 14 58 0 
C 16 58 0 
C 18 58 0 
C 20 58 0 
C 22 58 0 
C 24 58 0 
C 26 58 0 
C 28 58 0 
C 30 58 0 
C 32 58 0 
C 34 58 0 
C 36 58 0 
C 38 58 0 
C 40 58 0 
C 42 58 0 
C 44 58 0 
C 46 58 0 
C 48 58 0 
C 50 58 0 
C 52 58 0 
C 54 58 0 
C 56 58 0 
C 58 58 0 
C 60 58 0 
C 62 58 0 
C 64 58 0 
C 66 58 0 
C 68 58 0 
C 70 58 0 
C 72 58 0 
C 74 58 0 
C 76 58 0 
C 78 58 0 
C 80 58 0 
C 82 58 0 
C 84 58 0 
C 86 58 0 
C 88 58 0 
C 90 58 0 
C 92 58 0 
C 94 58 0 
C 96 58 0 
C 98 58 0 
C 100 58 0 
C 0 60 0 
C 2 60 0 
C 4 60 0 
C 6 60 0 
C 8 60 0 
C 10 60 0 
C 12 60 0 
C 14 60 0 
C 16 60 0 
C 18 60 0 
C 20 60 0 
C 22 60 0 
C 24 60 0 
C 26 60 0 
C 28 60 0 
C 30 60 0 
C 32 60 0 
C 34 60 0 
C 36 60 0 
C 38 60 0 
C 40 60 0 
C 42 60 0 
C 44 60 0 
C 46 60 0 
C 48 60 0 
C 50 60 0 
C 52 60 0 
C 54 60 0 
C 56 60 0 
C 58 60 0 
C 60 60 0 
C 62 60 0 
C 64 60 0 
C 66 60 0 
C 68 60 0 
C 70 60 0 
C 72 60 0 
C 74 60 0 
C 76 60 0 
C 78 60 0 
C 80 60 0 
C 82 60 0 
C 84 60 0 
C 86 60 0 
C 88 60 0 
C 90 60 0 
C 92 60 0 
C 94 60 0 
C 96 60 0 
C 98 60 0 
C 100 60 0 
C 0 62 0 
C 2 62 0 
C 4 62 0 
C 6 62 0 
C 8 62 0 
C 10 62 0 
C 12 62 0 
C 14 62 0 
C 16 62 0 
C 18 62 0 
C 20 62 0 
C 22 62 0 
C 24 62 0 
C 26 62 0 
C 28 62 0 
C 30 62 0 
C 32 62 0 
C 34 62 0 
C 36 62 0 
C 38 62 0 
C 40 62 0 
C 42 62 0 
C 44 62 0 
C 46 62 0 
C 48 62 0 
C 50 62 0 
C 52 62 0 
C 54 62 0 
C 56 62 0 
C 58 62 0 
C 60 62 0 
C 62 62 0 
C 64 62 0 
C 66 62 0 
C 68 62 0 
C 70 62 0 
C 72 62 0 
C 74 62 0 
C 76 62 0 
C 78 62 0 
C 80 62 0 
C 82 62 0 
C 84 62 0 
C 86 62 0 
C 88 62 0 
C 90 62 0 
C 92 62 0 
C 94 62 0 
C 96 62 0 
C 98 62 0 
C 100 62 0 
C 0 64 0 
C 2 64 0 
C 4 64 0 
C 6 64 0 
C 8 64 0 
C 10 64 0 
C 12 64 0 
C 14 64 0 
C 16 64 0 
C 18 64 0 
C 20 64 0 
C 22 64 0 
C 24 64 0 
C 26 64 0 
C 28 64 0 
C 30 64 0 
C 32 64 0 
C 34 64 0 
C 36 64 0 
C 38 64 0 
C 40 64 0 
C 42 64 0 
C 44 64 0 
C 46 64 0 
C 48 64 0 
C 50 64 0 
C 52 64 0 
C 54 64 0 
C 56 64 0 
C 58 64 0 
C 60 64 0 
C 62 64 0 
C 64 64 0 
C 66 64 0 
C 68 64 0 
C 70 64 0 
C 72 64 0 
C 74 64 0 
C 76 64 0 
C 78 64 0 
C 80 64 0 
C 82 64 0 
C 84 64 0 
C 86 64 0 
C 88 64 0 
C 90 64 0 
C 92 64 0 
C 94 64 0 
C 96 64 0 
C 98 64 0 
C 100 64 0 
C 0 66 0 
C 2 66 0 
C 4 66 0 
C 6 66 0 
C 8 66 0 
C 10 66 0 
C 12 66 0 
C 14 66 0 
C 16 66 0 
C 18 66 0 
C 20 66 0 
C 22 66 0 
C 24 66 0 
C 26 66 0 
C 28 66 0 
C 30 66 0 
C 32 66 0 
C 34 66 0 
C 36 66 0 
C 38 66 0 
C 40 66 0 
C 42 66 0 
C 44 66 0 
C 46 66 0 
C 48 66 0 
C 50 66 0 
C 52 66 0 
C 54 66 0 
C 56 66 0 
C 58 66 0 
C 60 66 0 
C 62 66 0 
C 64 66 0 
C 66 66 0 
C 68 66 0 
C 70 66 0 
C 72 66 0 
C 74 66 0 
C 76 66 0 
C 78 66 0 
C 80 66 0 
C 82 66 0 
C 84 66 0 
C 86 66 0 
C 88 66 0 
C 90 66 0 
C 92 66 0 
C 94 66 0 
C 96 66 0 
C 98 66 0 
C 100 66 0 
C 0 68 0 
C 2 68 0 
C 4 68 0 
C 6 68 0 
C 8 68 0 
C 10 68 0 
C 12 68 0 
C 14 68 0 
C 16 68 0 
C 18 68 0 
C 20 68 0 
C 22 68 0 
C 24 68 0 
C 26 68 0 
C 28 68 0 
C 30 68 0 
C 32 68 0 
C 34 68 0 
C 36 68 0 
C 38 68 0 
C 40 68 0 
C 42 68 0 
C 44 68 0 
C 46 68 0 
C 48 68 0 
C 50 68 0 
C 52 68 0 
C 54 68 0 
C 56 68 0 
C 58 68 0 
C 60 68 0 
C 62 68 0 
C 64 68 0 
C 66 68 0 
C 68 68 0 
C 70 68 0 
C 72 68 0 
C 74 68 0 
C 76 68 0 
C 78 68 0 
C 80 68 0 
C 82 68 0 
C 84 68 0 
C 86 68 0 
C 88 68 0 
C 90 68 0 
C 92 68 0 
C 94 68 0 
C 96 68 0 
C 98 68 0 
C 100 68 0 
C 0 70 0 
C 2 70 0 
C 4 70 0 
C 6 70 0 
C 8 70 0 
C 10 70 0 
C 12 70 0 
C 14 70 0 
C 16 70 0 
C 18 70 0 
C 20 70 0 
C 22 70 0 
C 24 70 0 
C 26 70 0 
C 28 70 0 
C 30 70 0 
C 32 70 0 
C 34 70 0 
C 36 70 0 
C 38 70 0 
C 40 70 0 
C 42 70 0 
C 44 70 0 
C 46 70 0 
C 48 70 0 
C 50 70 0 
C 52 70 0 
C 54 70 0 
C 56 70 0 
C 58 70 0 
C 60 70 0 
C 62 70 0 
C 64 70 0 
C 66 70 0 
C 68 70 0 
C 70 70 0 
C 72 70 0 
C 74 70 0 
C 76 70 0 
C 78 70 0 
C 80 70 0 
C 82 70 0 
C 84 70 0 
C 86 70 0 
C 88 70 0 
C 90 70 0 
C 92 70 0 
C 94 70 0 
C 96 70 0 
C 98 70 0 
C 100 70 0 
C 0 72 0 
C 2 72 0 
C 4 72 0 
C 6 72 0 
C 8 72 0 
C 10 72 0 
C 12 72 0 
C 14 72 0 
C 16 72 0 
C 18 72 0 
C 20 72 0 
C 22 72 0 
C 24 72 0 
C 26 72 0 
C 28 72 0 
C 30 72 0 
C 32 72 0 
C 34 72 0 
C 36 72 0 
C 38 72 0 
C 40 72 0 
C 42 72 0 
C 44 72 0 
C 46 72 0 
C 48 72 0 
C 50 72 0 
C 52 72 0 
C 54 72 0 
C 56 72 0 
C 58 72 0 
C 60 72 0 
C 62 72 0 
C 64 72 0 
C 66 72 0 
C 68 72 0 
C 70 72 0 
C 72 72 0 
C 74 72 0 
C 76 72 0 
C 78 72 0 
C 80 72 0 
C 82 72 0 
C 84 72 0 
C 86 72 0 
C 88 72 0 
C 90 72 0 
C 92 72 0 
C 94 72 0 
C 96 72 0 
C 98 72 0 
C 100 72 0 
C 0 74 0 
C 2 74 0 
C 4 74 0 
C 6 74 0 
C 8 74 0 
C 10 74 0 
C 12 74 0 
C 14 74 0 
C 16 74 0 
C 18 74 0 
C 20 74 0 
C 22 74 0 
C 24 74 0 
C 26 74 0 
C 28 74 0 
C 30 74 0 
C 32 74 0 
C 34 74 0 
C 36 74 0 
C 38 74 0 
C 40 74 0 
C 42 74 0 
C 44 74 0 
C 46 74 0 
C 48 74 0 
C 50 74 0 
C 52 74 0 
C 54 74 0 
C 56 74 0 
C 58 74 0 
C 60 74 0 
C 62 74 0 
C 64 74 0 
C 66 74 0 
C 68 74 0 
C 70 74 0 
C 72 74 0 
C 74 74 0 
C 76 74 0 
C 78 74 0 
C 80 74 0 
C 82 74 0 
C 84 74 0 
C 86 74 0 
C 88 74 0 
C 90 74 0 
C 92 74 0 
C 94 74 0 
C 96 74 0 
C 98 74 0 
C 100 74 0 
C 0 76 0 
C 2 76 0 
C 4 76 0 
C 6 76 0 
C 8 76 0 
C 10 76 0 
C 12 76 0 
C 14 76 0 
C 16 76 0 
C 18 76 0 
C 20 76 0 
C 22 76 0 
C 24 76 0 
C 26 76 0 
C 28 76 0 
C 30 76 0 
C 32 76 0 
C 34 76 0 
C 36 76 0 
C 38 76 0 
C 40 76 0 
C 42 76 0 
C 44 76 0 
C 46 76 0 
C 48 76 0 
C 50 76 0 
C 52 76 0 
C 54 76 0 
C 56 76 0 
C 58 76 0 
C 60 76 0 
C 62 76 0 
C 64 76 0 
C 66 76 0 
C 68 76 0 
C 70 76 0 
C 72 76 0 
C 74 76 0 
C 76 76 0 
C 78 76 0 
C 80 76 0 
C 82 76 0 
C 84 76 0 
C 86 76 0 
C 88 76 0 
C 90 76 0 
C 92 76 0 
C 94 76 0 
C 96 76 0 
C 98 76 0 
C 100 76 0 
C 0 78 0 
C 2 78 0 
C 4 78 0 
C 6 78 0 
C 8 78 0 
C 10 78 0 
C 12 78 0 
C 14 78 0 
C 16 78 0 
C 18 78 0 
C 20 78 0 
C 22 78 0 
C 24 78 0 
C 26 78 0 
C 28 78 0 
C 30 78 0 
C 32 78 0 
C 34 78 0 
C 36 78 0 
C 38 78 0 
C 40 78 0 
C 42 78 0 
C 44 78 0 
C 46 78 0 
C 48 78 0 
C 50 78 0 
C 52 78 0 
C 54 78 0 
C 56 78 0 
C 58 78 0 
C 60 78 0 
C 62 78 0 
C 64 78 0 
C 66 78 0 
C 68 78 0 
C 70 78 0 
C 72 78 0 
C 74 78 0 
C 76 78 0 
C 78 78 0 
C 80 78 0 
C 82 78 0 
C 84 78 0 
C 86 78 0 
C 88 78 0 
C 90 78 0 
C 92 78 0 
C 94 78 0 
C 96 78 0 
C 98 78 0 
C 100 78 0 
C 0 80 0 
C 2 80 0 
C 4 80 0 
C 6 80 0 
C 8 80 0 
C 10 80 0 
C 12 80 0 
C 14 80 0 
C 16 80 0 
C 18 80 0 
C 20 80 0 
C 22 80 0 
C 24 80 0 
C 26 80 0 
C 28 80 0 
C 30 80 0 
C 32 80 0 
C 34 80 0 
C 36 80 0 
C 38 80 0 
C 40 80 0 
C 42 80 0 
C 44 80 0 
C 46 80 0 
C 48 80 0 
C 50 80 0 
C 52 80 0 
C 54 80 0 
C 56 80 0 
C 58 80 0 
C 60 80 0 
C 62 80 0 
C 64 80 0 
C 66 80 0 
C 68 80 0 
C 70 80 0 
C 72 80 0 
C 74 80 0 
C 76 80 0 
C 78 80 0 
C 80 80 0 
C 82 80 0 
C 84 80 0 
C 86 80 0 
C 88 80 0 
C 90 80 0 
C 92 80 0 
C 94 80 0 
C 96 80 0 
C 98 80 0 
C 100 80 0 
C 0 82 0 
C 2 82 0 
C 4 82 0 
C 6 82 0 
C 8 82 0 
C 10 82 0 
C 12 82 0 
C 14 82 0 
C 16 82 0 
C 18 82 0 
C 20 82 0 
C 22 82 0 
C 24 82 0 
C 26 82 0 
C 28 82 0 
C 30 82 0 
C 32 82 0 
C 34 82 0 
C 36 82 0 
C 38 82 0 
C 40 82 0 
C 42 82 0 
C 44 82 0 
C 46 82 0 
C 48 82 0 
C 50 82 0 
C 52 82 0 
C 54 82 0 
C 56 82 0 
C 58 82 0 
C 60 82 0 
C 62 82 0 
C 64 82 0 
C 66 82 0 
C 68 82 0 
C 70 82 0 
C 72 82 0 
C 74 82 0 
C 76 82 0 
C 78 82 0 
C 80 82 0 
C 82 82 0 
C 84 82 0 
C 86 82 0 
C 88 82 0 
C 90 82 0 
C 92 82 0 
C 94 82 0 
C 96 82 0 
C 98 82 0 
C 100 82 0 
C 0 84 0 
C 2 84 0 
C 4 84 0 
C 6 84 0 
C 8 84 0 
C 10 84 0 
C 12 84 0 
C 14 84 0 
C 16 84 0 
C 18 84 0 
C 20 84 0 
C 22 84 0 
C 24 84 0 
C 26 84 0 
C 28 84 0 
C 30 84 0 
C 32 84 0 
C 34 84 0 
C 36 84 0 
C 38 84 0 
C 40 84 0 
C 42 84 0 
C 44 84 0 
C 46 84 0 
C 48 84 0 
C 50 84 0 
C 52 84 0 
C 54 84 0 
C 56 84 0 
C 58 84 0 
C 60 84 0 
C 62 84 0 
C 64 84 0 
C 66 84 0 
C 68 84 0 
C 70 84 0 
C 72 84 0 
C 74 84 0 
C 76 84 0 
C 78 84 0 
C 80 84 0 
C 82 84 0 
C 84 84 0 
C 86 84 0 
C 88 84 0 
C 90 84 0 
C 92 84 0 
C 94 84 0 
C 96 84 0 
C 98 84 0 
C 100 84 0 
C 0 86 0 
C 2 86 0 
C 4 86 0 
C 6 86 0 
C 8 86 0 
C 10 86 0 
C 12 86 0 
C 14 86 0 
C 16 86 0 
C 18 86 0 
C 20 86 0 
C 22 86 0 
C 24 86 0 
C 26 86 0 
C 28 86 0 
C 30 86 0 
C 32 86 0 
C 34 86 0 
C 36 86 0 
C 38 86 0 
C 40 86 0 
C 42 86 0 
C 44 86 0 
C 46 86 0 
C 48 86 0 
C 50 86 0 
C 52 86 0 
C 54 86 0 
C 56 86 0 
C 58 86 0 
C 60 86 0 
C 62 86 0 
C 64 86 0 
C 66 86 0 
C 68 86 0 
C 70 86 0 
C 72 86 0 
C 74 86 0 
C 76 86 0 
C 78 86 0 
C 80 86 0 
C 82 86 0 
C 84 86 0 
C 86 86 0 
C 88 86 0 
C 90 86 0 
C 92 86 0 
C 94 86 0 
C 96 86 0 
C 98 86 0 
C 100 86 0 
C 0 88 0 
C 2 88 0 
C 4 88 0 
C 6 88 0 
C 8 88 0 
C 10 88 0 
C 12 88 0 
C 14 88 0 
C 16 88 0 
C 18 88 0 
C 20 88 0 
C 22 88 0 
C 24 88 0 
C 26 88 0 
C 28 88 0 
C 30 88 0 
C 32 88 0 
C 34 88 0 
C 36 88 0 
C 38 88 0 
C 40 88 0 
C 42 88 0 
C 44 88 0 
C 46 88 0 
C 48 88 0 
C 50 88 0 
C 52 88 0 
C 54 88 0 
C 56 88 0 
C 58 88 0 
C 60 88 0 
C 62 88 0 
C 64 88 0 
C 66 88 0 
C 68 88 0 
C 70 88 0 
C 72 88 0 
C 74 88 0 
C 76 88 0 
C 78 88 0 
C 80 88 0 
C 82 88 0 
C 84 88 0 
C 86 88 0 
C 88 88 0 
C 90 88 0 
C 92 88 0 
C 94 88 0 
C 96 88 0 
C 98 88 0 
C 100 88 0 
C 0 90 0 
C 2 90 0 
C 4 90 0 
C 6 90 0 
C 8 90 0 
C 10 90 0 
C 12 90 0 
C 14 90 0 
C 16 90 0 
C 18 90 0 
C 20 90 0 
C 22 90 0 
C 24 90 0 
C 26 90 0 
C 28 90 0 
C 30 90 0 
C 32 90 0 
C 34 90 0 
C 36 90 0 
C 38 90 0 
C 40 90 0 
C 42 90 0 
C 44 90 0 
C 46 90 0 
C 48 90 0 
C 50 90 0 
C 52 90 0 
C 54 90 0 
C 56 90 0 
C 58 90 0 
C 60 90 0 
C 62 90 0 
C 64 90 0 
C 66 90 0 
C 68 90 0 
C 70 90 0 
C 72 90 0 
C 74 90 0 
C 76 90 0 
C 78 90 0 
C 80 90 0 
C 82 90 0 
C 84 90 0 
C 86 90 0 
C 88 90 0 
C 90 90 0 
C 92 90 0 
C 94 90 0 
C 96 90 0 
C 98 90 0 
C 100 90 0 
C 0 92 0 
C 2 92 0 
C 4 92 0 
C 6 92 0 
C 8 92 0 
C 10 92 0 
C 12 92 0 
C 14 92 0 
C 16 92 0 
C 18 92 0 
C 20 92 0 
C 22 92 0 
C 24 92 0 
C 26 92 0 
C 28 92 0 
C 30 92 0 
C 32 92 0 
C 34 92 0 
C 36 92 0 
C 38 92 0 
C 40 92 0 
C 42 92 0 
C 44 92 0 
C 46 92 0 
C 48 92 0 
C 50 92 0 
C 52 92 0 
C 54 92 0 
C 56 92 0 
C 58 92 0 
C 60 92 0 
C 62 92 0 
C 64 92 0 
C 66 92 0 
C 68 92 0 
C 70 92 0 
C 72 92 0 
C 74 92 0 
C 76 92 0 
C 78 92 0 
C 80 92 0 
C 82 92 0 
C 84 92 0 
C 86 92 0 
C 88 92 0 
C 90 92 0 
C 92 92 0 
C 94 92 0 
C 96 92 0 
C 98 92 0 
C 100 92 0 
C 0 94 0 
C 2 94 0 
C 4 94 0 
C 6 94 0 
C 8 94 0 
C 10 94 0 
C 12 94 0 
C 14 94 0 
C 16 94 0 
C 18 94 0 
C 20 94 0 
C 22 94 0 
C 24 94 0 
C 26 94 0 
C 28 94 0 
C 30 94 0 
C 32 94 0 
C 34 94 0 
C 36 94 0 
C 38 94 0 
C 40 94 0 
C 42 94 0 
C 44 94 0 
C 46 94 0 
C 48 94 0 
C 50 94 0 
C 52 94 0 
C 54 94 0 
C 56 94 0 
C 58 94 0 
C 60 94 0 
C 62 94 0 
C 64 94 0 
C 66 94 0 
C 68 94 0 
C 70 94 0 
C 72 94 0 
C 74 94 0 
C 76 94 0 
C 78 94 0 
C 80 94 0 
C 82 94 0 
C 84 94 0 
C 86 94 0 
C 88 94 0 
C 90 94 0 
C 92 94 0 
C 94 94 0 
C 96 94 0 
C 98 94 0 
C 100 94 0 
C 0 96 0 
C 2 96 0 
C 4 96 0 
C 6 96 0 
C 8 96 0 
C 10 96 0 
C 12 96 0 
C 14 96 0 
C 16 96 0 
C 18 96 0 
C 20 96 0 
C 22 96 0 
C 24 96 0 
C 26 96 0 
C 28 96 0 
C 30 96 0 
C 32 96 0 
C 34 96 0 
C 36 96 0 
C 38 96 0 
C 40 96 0 
C 42 96 0 
C 44 96 0 
C 46 96 0 
C 48 96 0 
C 50 96 0 
C 52 96 0 
C 54 96 0 
C 56 96 0 
C 58 96 0 
C 60 96 0 
C 62 96 0 
C 64 96 0 
C 66 96 0 
C 68 96 0 
C 70 96 0 
C 72 96 0 
C 74 96 0 
C 76 96 0 
C 78 96 0 
C 80 96 0 
C 82 96 0 
C 84 96 0 
C 86 96 0 
C 88 96 0 
C 90 96 0 
C 92 96 0 
C 94 96 0 
C 96 96 0 
C 98 96 0 
C 100 96 0 
C 0 98 0 
C 2 98 0 
C 4 98 0 
C 6 98 0 
C 8 98 0 
C 10 98 0 
C 12 98 0 
C 14 98 0 
C 16 98 0 
C 18 98 0 
C 20 98 0 
C 22 98 0 
C 24 98 0 
C 26 98 0 
C 28 98 0 
C 30 98 0 
C 32 98 0 
C 34 98 0 
C 36 98 0 
C 38 98 0 
C 40 98 0 
C 42 98 0 
C 44 98 0 
C 46 98 0 
C 48 98 0 
C 50 98 0 
C 52 98 0 
C 54 98 0 
C 56 98 0 
C 58 98 0 
C 60 98 0 
C 62 98 0 
C 64 98 0 
C 66 98 0 
C 68 98 0 
C 70 98 0 
C 72 98 0 
C 74 98 0 
C 76 98 0 
C 78 98 0 
C 80 98 0 
C 82 98 0 
C 84 98 0 
C 86 98 0 
C 88 98 0 
C 90 98 0 
C 92 98 0 
C 94 98 0 
C 96 98 0 
C 98 98 0 
C 100 98 0 
C 0 100 0 
C 2 100 0 
C 4 100 0 
C 6 100 0 
C 8 100 0 
C 10 100 0 
C 12 100 0 
C 14 100 0 
C 16 100 0 
C 18 100 0 
C 20 100 0 
C 22 100 0 
C 24 100 0 
C 26 100 0 
C 28 100 0 
C 30 100 0 
C 32 100 0 
C 34 100 0 
C 36 100 0 
C 38 100 0 
C 40 100 0 
C 42 100 0 
C 44 100 0 
C 46 100 0 
C 48 100 0 
C 50 100 0 
C 52 100 0 
C 54 100 0 
C 56 100 0 
C 58 100 0 
C 60 100 0 
C 62 100 0 
C 64 100 0 
C 66 100 0 
C 68 100 0 
C 70 100 0 
C 72 100 0 
C 74 100 0 
C 76 100 0 
C 78 100 0 
C 80 100 0 
C 82 100 0 
C 84 100 0 
C 86 100 0 
C 88 100 0 
C 90 100 0 
C 92 100 0 
C 94 100 0 
C 96 100 0 
C 98 100 0 
C 100 100 0 
O 1 0 0 
O 79 99 0 
O 71 95 0 
O 1 89 0 
O 99 99 0 
O 99 0 0 
3106
Atoms. Timestep: 12
N 83 20 0 
N 21 53 0 
N 17 68 0 
N 49 95 0 
N 35 21 0 
N 60 25 0 
N 85 68 0 
N 5 55 0 
N 13 47 0 
N 49 27 0 
N 13 7 0 
N 60 29 0 
N 65 15 0 
N 79 85 0 
N 57 91 0 
N 47 61 0 
N 41 77 0 
N 4 91 0 
N 1 12 0 
N 85 25 0 
N 13 40 0 
N 78 13 0 
N 15 25 0 
N 49 78 0 
N 67 99 0 
N 9 92 0 
N 90 13 0 
N 67 98 0 
N 1 35 0 
N 35 46 0 
N 77 33 0 
N 59 21 0 
N 24 69 0 
N 95 51 0 
N 27 18 0 
N 78 55 0 
N 95 77 0 
N 67 13 0 
N 67 94 0 
N 97 6 0 
N 45 11 0 
N 27 97 0 
N 87 28 0 
N 29 61 0 
N 51 41 0 
N 61 26 0 
N 51 77 0 
N 49 34 0 
N 91 79 0 
N 27 15 0 
N 58 25 0 
N 43 35 0 
N 7 20 0 
N 21 25 0 
N 97 75 0 
N 17 80 0 
N 50 71 0 
N 85 10 0 
N 5 21 0 
N 69 74 0 
N 98 67 0 
N 77 99 0 
N 5 32 0 
N 72 89 0 
N 73 16 0 
N 5 63 0 
N 73 66 0 
N 83 28 0 
N 41 22 0 
N 64 29 0 
N 43 23 0 
N 4 97 0 
N 5 47 0 
N 20 77 0 
N 41 87 0 
N 36 25 0 
N 53 90 0 
N 3 33 0 
N 30 49 0 
N 73 13 0 
N 59 43 0 
N 95 24 0 
N 71 95 0 
N 93 45 0 
N 2 33 0 
N 5 23 0 
N 38 69 0 
N 6 81 0 
N 19 27 0 
N 84 85 0 
N 67 83 0 
N 99 97 0 
N 11 19 0 
N 91 66 0 
N 90 11 0 
N 75 7 0 
N 69 59 0 
N 96 15 0 
N 70 69 0 
N 9 28 0 
N 45 67 0 
N 63 95 0 
N 42 39 0 
N 84 15 0 
N 93 91 0 
N 55 87 0 
N 69 71 0 
N 71 53 0 
N 25 93 0 
N 23 77 0 
N 28 47 0 
N 73 71 0 
N 19 77 0 
N 82 13 0 
N 45 69 0 
N 49 47 0 
N 9 57 0 
N 1 80 0 
N 70 95 0 
N 25 97 0 
N 37 28 0 
N 51 82 0 
N 45 24 0 
N 53 64 0 
N 9 27 0 
N 75 13 0 
N 5 74 0 
N 3 11 0 
N 25 11 0 
N 93 89 0 
N 7 85 0 
N 67 45 0 
N 12 45 0 
N 75 99 0 
N 13 10 0 
N 16 77 0 
N 31 62 0 
N 80 45 0 
N 95 44 0 
N 83 17 0 
N 11 41 0 
N 73 81 0 
N 77 5 0 
N 60 9 0 
N 87 87 0 
N 45 92 0 
N 96 51 0 
N 43 61 0 
N 99 82 0 
N 65 93 0 
N 91 42 0 
N 95 71 0 
N 29 33 0 
N 9 98 0 
N 49 75 0 
N 23 81 0 
N 98 85 0 
N 8 69 0 
N 1 2 0 
N 13 45 0 
N 89 37 0 
N 44 63 0 
N 90 39 0 
N 21 0 0 
N 39 89 0 
N 40 79 0 
N 75 15 0 
N 88 89 0 
N 97 25 0 
N 47 77 0 
N 1 98 0 
N 77 34 0 
N 18 41 0 
N 13 19 0 
N 71 27 0 
N 47 89 0 
N 93 67 0 
N 53 3 0 
N 81 83 0 
N 79 89 0 
N 69 31 0 
N 15 11 0 
N 84 55 0 
N 45 61 0 
N 2 67 0 
N 5 69 0 
N 95 55 0 
N 70 83 0 
N 93 74 0 
N 17 19 0 
N 23 76 0 
N 1 93 0 
N 68 69 0 
N 21 89 0 
N 57 72 0 
N 97 27 0 
N 67 78 0 
N 95 26 0 
N 45 36 0 
N 95 29 0 
N 78 7 0 
N 68 91 0 
N 65 27 0 
N 45 95 0 
N 65 8 0 
N 34 69 0 
N 67 27 0 
N 57 39 0 
N 97 85 0 
N 91 59 0 
N 27 59 0 
N 23 67 0 
N 17 7 0 
N 98 25 0 
N 27 17 0 
N 11 75 0 
N 63 71 0 
N 54 67 0 
N 87 89 0 
N 25 85 0 
N 7 58 0 
N 84 27 0 
N 99 71 0 
N 61 27 0 
N 21 44 0 
N 97 83 0 
N 78 41 0 
N 93 53 0 
N 77 30 0 
N 98 71 0 
N 89 84 0 
N 55 47 0 
N 41 26 0 
N 89 79 0 
N 69 62 0 
N 79 57 0 
N 26 31 0 
N 71 85 0 
N 3 36 0 
N 23 13 0 
N 77 58 0 
N 19 70 0 
N 93 55 0 
N 8 23 0 
N 52 51 0 
N 25 0 0 
N 29 11 0 
N 21 71 0 
N 14 69 0 
N 13 13 0 
N 81 91 0 
N 49 61 0 
N 41 90 0 
N 19 24 0 
N 10 33 0 
N 13 25 0 
N 79 45 0 
N 59 36 0 
N 53 27 0 
N 18 81 0 
N 11 68 0 
N 4 35 0 
N 93 47 0 
N 7 25 0 
N 47 78 0 
N 90 91 0 
N 52 41 0 
N 75 50 0 
N 87 79 0 
N 61 43 0 
N 91 98 0 
N 19 10 0 
N 35 89 0 
N 11 4 0 
N 41 46 0 
N 59 60 0 
N 4 27 0 
N 31 35 0 
N 51 70 0 
N 2 31 0 
N 57 75 0 
N 15 16 0 
N 42 75 0 
N 75 27 0 
N 31 79 0 
N 61 25 0 
N 90 89 0 
N 41 39 0 
N 92 11 0 
N 89 8 0 
N 47 9 0 
N 40 25 0 
N 63 92 0 
N 65 13 0 
N 45 12 0 
N 30 75 0 
N 40 39 0 
N 17 67 0 
N 17 47 0 
N 89 48 0 
N 77 94 0 
N 7 60 0 
N 25 89 0 
N 9 0 0 
N 49 60 0 
N 58 9 0 
N 69 80 0 
N 11 45 0 
N 75 8 0 
N 24 89 0 
N 99 74 0 
N 36 53 0 
N 41 3 0 
N 8 31 0 
N 28 99 0 
N 31 77 0 
N 27 6 0 
N 69 39 0 
N 1 9 0 
N 48 27 0 
N 71 77 0 
N 5 15 0 
N 93 49 0 
N 25 72 0 
N 39 13 0 
N 69 9 0 
N 65 26 0 
N 96 3 0 
N 51 89 0 
N 9 47 0 
N 46 33 0 
N 85 7 0 
N 89 46 0 
N 67 26 0 
N 91 51 0 
N 43 31 0 
N 17 99 0 
N 9 94 0 
N 79 7 0 
N 79 68 0 
N 39 31 0 
N 31 37 0 
N 57 7 0 
N 77 45 0 
N 9 19 0 
N 15 94 0 
N 89 5 0 
N 48 89 0 
N 79 94 0 
N 53 87 0 
N 77 26 0 
N 69 88 0 
N 11 50 0 
N 97 64 0 
N 13 17 0 
N 43 27 0 
N 49 31 0 
N 35 1 0 
N 27 99 0 
N 45 60 0 
N 79 21 0 
N 63 31 0 
N 47 75 0 
N 44 29 0 
N 34 33 0 
N 3 35 0 
N 77 15 0 
N 48 41 0 
N 95 43 0 
N 99 43 0 
N 27 82 0 
N 70 13 0 
N 43 81 0 
N 62 27 0 
N 32 67 0 
N 45 9 0 
N 53 47 0 
N 91 14 0 
N 57 30 0 
N 71 93 0 
N 27 1 0 
N 5 93 0 
N 43 12 0 
N 34 77 0 
N 31 69 0 
N 55 50 0 
N 64 49 0 
N 39 26 0 
N 79 48 0 
N 12 27 0 
N 85 98 0 
N 97 81 0 
N 51 91 0 
N 75 30 0 
N 91 49 0 
N 1 33 0 
N 50 3 0 
N 59 27 0 
N 81 88 0 
N 53 77 0 
N 80 91 0 
N 9 66 0 
N 9 48 0 
N 29 63 0 
N 20 85 0 
N 79 38 0 
N 37 65 0 
N 81 72 0 
N 87 45 0 
N 43 30 0 
N 75 11 0 
N 64 7 0 
N 92 7 0 
N 9 39 0 
N 92 13 0 
N 54 45 0 
N 9 53 0 
N 33 31 0 
N 69 48 0 
N 89 43 0 
N 96 81 0 
N 91 29 0 
N 18 89 0 
N 48 65 0 
N 94 67 0 
N 80 15 0 
N 41 48 0 
N 12 65 0 
N 79 25 0 
N 6 25 0 
N 24 87 0 
N 34 27 0 
N 79 18 0 
N 37 68 0 
N 69 51 0 
N 93 57 0 
N 84 45 0 
N 1 8 0 
N 51 87 0 
N 77 67 0 
N 69 6 0 
N 10 63 0 
N 29 1 0 
N 17 69 0 
N 17 45 0 
N 15 27 0 
N 71 79 0 
N 71 88 0 
N 21 67 0 
N 19 68 0 
N 59 79 0 
N 95 81 0 
N 98 29 0 
N 73 19 0 
N 69 30 0 
N 61 32 0 
N 42 61 0 
N 93 69 0 
N 79 69 0 
N 1 4 0 
N 42 83 0 
N 59 34 0 
N 11 27 0 
N 20 89 0 
N 29 66 0 
N 13 12 0 
N 6 27 0 
N 79 67 0 
N 51 78 0 
N 17 70 0 
N 45 89 0 
N 6 13 0 
N 8 3 0 
N 41 16 0 
N 84 19 0 
N 45 47 0 
N 4 69 0 
N 43 88 0 
N 41 70 0 
N 33 9 0 
N 49 63 0 
N 94 39 0 
N 86 95 0 
N 61 29 0 
N 54 41 0 
N 77 23 0 
N 19 91 0 
N 98 27 0 
N 78 23 0 
N 84 13 0 
N 43 86 0 
N 47 22 0 
N 43 16 0 
N 33 27 0 
N 43 78 0 
N 49 39 0 
N 7 63 0 
N 78 17 0 
N 37 79 0 
N 95 70 0 
C 0 0 0 
C 2 0 0 
C 4 0 0 
C 6 0 0 
C 8 0 0 
C 10 0 0 
C 12 0 0 
C 14 0 0 
C 16 0 0 
C 18 0 0 
C 20 0 0 
C 22 0 0 
C 24 0 0 
C 26 0 0 
C 28 0 0 
C 30 0 0 
C 32 0 0 
C 34 0 0 
C 36 0 0 
C 38 0 0 
C 40 0 0 
C 42 0 0 
C 44 0 0 
C 46 0 0 
C 48 0 0 
C 50 0 0 
C 52 0 0 
C 54 0 0 
C 56 0 0 
C 58 0 0 
C 60 0 0 
C 62 0 0 
C 64 0 0 
C 66 0 0 
C 68 0 0 
C 70 0 0 
C 72 0 0 
C 74 0 0 
C 76 0 0 
C 78 0 0 
C 80 0 0 
C 82 0 0 
C 84 0 0 
C 86 0 0 
C 88 0 0 
C 90 0 0 
C 92 0 0 
C 94 0 0 
C 96 0 0 
C 98 0 0 
C 100 0 0 
C 0 2 0 
C 2 2 0 
C 4 2 0 
C 6 2 0 
C 8 2 0 
C 10 2 0 
C 12 2 0 
C 14 2 0 
C 16 2 0 
C 18 2 0 
C 20 2 0 
C 22 2 0 
C 24 2 0 
C 26 2 0 
C 28 2 0 
C 30 2 0 
C 32 2 0 
C 34 2 0 
C 36 2 0 
C 38 2 0 
C 40 2 0 
C 42 2 0 
C 44 2 0 
C 46 2 0 
C 48 2 0 
C 50 2 0 
C 52 2 0 
C 54 2 0 
C 56 2 0 
C 58 2 0 
C 60 2 0 
C 62 2 0 
C 64 2 0 
C 66 2 0 
C 68 2 0 
C 70 2 0 
C 72 2 0 
C 74 2 0 
C 76 2 0 
C 78 2 0 
C 80 2 0 
C 82 2 0 
C 84 2 0 
C 86 2 0 
C 88 2 0 
C 90 2 0 
C 92 2 0 
C 94 2 0 
C 96 2 0 
C 98 2 0 
C 100 2 0 
C 0 4 0 
C 2 4 0 
C 4 4 0 
C 6 4 0 
C 8 4 0 
C 10 4 0 
C 12 4 0 
C 14 4 0 
C 16 4 0 
C 18 4 0 
C 20 4 0 
C 22 4 0 
C 24 4 0 
C 26 4 0 
C 28 4 0 
C 30 4 0 
C 32 4 0 
C 34 4 0 
C 36 4 0 
C 38 4 0 
C 40 4 0 
C 42 4 0 
C 44 4 0 
C 46 4 0 
C 48 4 0 
C 50 4 0 
C 52 4 0 
C 54 4 0 
C 56 4 0 
C 58 4 0 
C 60 4 0 
C 62 4 0 
C 64 4 0 
C 66 4 0 
C 68 4 0 
C 70 4 0 
C 72 4 0 
C 74 4 0 
C 76 4 0 
C 78 4 0 
C 80 4 0 
C 82 4 0 
C 84 4 0 
C 86 4 0 
C 88 4 0 
C 90 4 0 
C 92 4 0 
C 94 4 0 
C 96 4 0 
C 98 4 0 
C 100 4 0 
C 0 6 0 
C 2 6 0 
C 4 6 0 
C 6 6 0 
C 8 6 0 
C 10 6 0 
C 12 6 0 
C 14 6 0 
C 16 6 0 
C 18 6 0 
C 20 6 0 
C 22 6 0 
C 24 6 0 
C 26 6 0 
C 28 6 0 
C 30 6 0 
C 32 6 0 
C 34 6 0 
C 36 6 0 
C 38 6 0 
C 40 6 0 
C 42 6 0 
C 44 6 0 
C 46 6 0 
C 48 6 0 
C 50 6 0 
C 52 6 0 
C 54 6 0 
C 56 6 0 
C 58 6 0 
C 60 6 0 
C 62 6 0 
C 64 6 0 
C 66 6 0 
C 68 6 0 
C 70 6 0 
C 72 6 0 
C 74 6 0 
C 76 6 0 
C 78 6 0 
C 80 6 0 
C 82 6 0 
C 84 6 0 
C 86 6 0 
C 88 6 0 
C 90 6 0 
C 92 6 0 
C 94 6 0 
C 96 6 0 
C 98 6 0 
C 100 6 0 
C 0 8 0 
C 2 8 0 
C 4 8 0 
C 6 8 0 
C 8 8 0 
C 10 8 0 
C 12 8 0 
C 14 8 0 
C 16 8 0 
C 18 8 0 
C 20 8 0 
C 22 8 0 
C 24 8 0 
C 26 8 0 
C 28 8 0 
C 30 8 0 
C 32 8 0 
C 34 8 0 
C 36 8 0 
C 38 8 0 
C 40 8 0 
C 42 8 0 
C 44 8 0 
C 46 8 0 
C 48 8 0 
C 50 8 0 
C 52 8 0 
C 54 8 0 
C 56 8 0 
C 58 8 0 
C 60 8 0 
C 62 8 0 
C 64 8 0 
C 66 8 0 
C 68 8 0 
C 70 8 0 
C 72 8 0 
C 74 8 0 
C 76 8 0 
C 78 8 0 
C 80 8 0 
C 82 8 0 
C 84 8 0 
C 86 8 0 
C 88 8 0 
C 90 8 0 
C 92 8 0 
C 94 8 0 
C 96 8 0 
C 98 8 0 
C 100 8 0 
C 0 10 0 
C 2 10 0 
C 4 10 0 
C 6 10 0 
C 8 10 0 
C 10 10 0 
C 12 10 0 
C 14 10 0 
C 16 10 0 
C 18 10 0 
C 20 10 0 
C 22 10 0 
C 24 10 0 
C 26 10 0 
C 28 10 0 
C 30 10 0 
C 32 10 0 
C 34 10 0 
C 36 10 0 
C 38 10 0 
C 40 10 0 
C 42 10 0 
C 44 10 0 
C 46 10 0 
C 48 10 0 
C 50 10 0 
C 52 10 0 
C 54 10 0 
C 56 10 0 
C 58 10 0 
C 60 10 0 
C 62 10 0 
C 64 10 0 
C 66 10 0 
C 68 10 0 
C 70 10 0 
C 72 10 0 
C 74 10 0 
C 76 10 0 
C 78 10 0 
C 80 10 0 
C 82 10 0 
C 84 10 0 
C 86 10 0 
C 88 10 0 
C 90 10 0 
C 92 10 0 
C 94 10 0 
C 96 10 0 
C 98 10 0 
C 100 10 0 
C 0 12 0 
C 2 12 0 
C 4 12 0 
C 6 12 0 
C 8 12 0 
C 10 12 0 
C 12 12 0 
C 14 12 0 
C 16 12 0 
C 18 12 0 
C 20 12 0 
C 22 12 0 
C 24 12 0 
C 26 12 0 
C 28 12 0 
C 30 12 0 
C 32 12 0 
C 34 12 0 
C 36 12 0 
C 38 12 0 
C 40 12 0 
C 42 12 0 
C 44 12 0 
C 46 12 0 
C 48 12 0 
C 50 12 0 
C 52 12 0 
C 54 12 0 
C 56 12 0 
C 58 12 0 
C 60 12 0 
C 62 12 0 
C 64 12 0 
C 66 12 0 
C 68 12 0 
C 70 12 0 
C 72 12 0 
C 74 12 0 
C 76 12 0 
C 78 12 0 
C 80 12 0 
C 82 12 0 
C 84 12 0 
C 86 12 0 
C 88 12 0 
C 90 12 0 
C 92 12 0 
C 94 12 0 
C 96 12 0 
C 98 12 0 
C 100 12 0 
C 0 14 0 
C 2 14 0 
C 4 14 0 
C 6 14 0 
C 8 14 0 
C 10 14 0 
C 12 14 0 
C 14 14 0 
C 16 14 0 
C 18 14 0 
C 20 14 0 
C 22 14 0 
C 24 14 0 
C 26 14 0 
C 28 14 0 
C 30 14 0 
C 32 14 0 
C 34 14 0 
C 36 14 0 
C 38 14 0 
C 40 14 0 
C 42 14 0 
C 44 14 0 
C 46 14 0 
C 48 14 0 
C 50 14 0 
C 52 14 0 
C 54 14 0 
C 56 14 0 
C 58 14 0 
C 60 14 0 
C 62 14 0 
C 64 14 0 
C 66 14 0 
C 68 14 0 
C 70 14 0 
C 72 14 0 
C 74 14 0 
C 76 14 0 
C 78 14 0 
C 80 14 0 
C 82 14 0 
C 84 14 0 
C 86 14 0 
C 88 14 0 
C 90 14 0 
C 92 14 0 
C 94 14 0 
C 96 14 0 
C 98 14 0 
C 100 14 0 
C 0 16 0 
C 2 16 0 
C 4 16 0 
C 6 16 0 
C 8 16 0 
C 10 16 0 
C 12 16 0 
C 14 16 0 
C 16 16 0 
C 18 16 0 
C 20 16 0 
C 22 16 0 
C 24 16 0 
C 26 16 0 
C 28 16 0 
C 30 16 0 
C 32 16 0 
C 34 16 0 
C 36 16 0 
C 38 16 0 
C 40 16 0 
C 42 16 0 
C 44 16 0 
C 46 16 0 
C 48 16 0 
C 50 16 0 
C 52 16 0 
C 54 16 0 
C 56 16 0 
C 58 16 0 
C 60 16 0 
C 62 16 0 
C 64 16 0 
C 66 16 0 
C 68 16 0 
C 70 16 0 
C 72 16 0 
C 74 16 0 
C 76 16 0 
C 78 16 0 
C 80 16 0 
C 82 16 0 
C 84 16 0 
C 86 16 0 
C 88 16 0 
C 90 16 0 
C 92 16 0 
C 94 16 0 
C 96 16 0 
C 98 16 0 
C 100 16 0 
C 0 18 0 
C 2 18 0 
C 4 18 0 
C 6 18 0 
C 8 18 0 
C 10 18 0 
C 12 18 0 
C 14 18 0 
C 16 18 0 
C 18 18 0 
C 20 18 0 
C 22 18 0 
C 24 18 0 
C 26 18 0 
C 28 18 0 
C 30 18 0 
C 32 18 0 
C 34 18 0 
C 36 18 0 
C 38 18 0 
C 40 18 0 
C 42 18 0 
C 44 18 0 
C 46 18 0 
C 48 18 0 
C 50 18 0 
C 52 18 0 
C 54 18 0 
C 56 18 0 
C 58 18 0 
C 60 18 0 
C 62 18 0 
C 64 18 0 
C 66 18 0 
C 68 18 0 
C 70 18 0 
C 72 18 0 
C 74 18 0 
C 76 18 0 
C 78 18 0 
C 80 18 0 
C 82 18 0 
C 84 18 0 
C 86 18 0 
C 88 18 0 
C 90 18 0 
C 92 18 0 
C 94 18 0 
C 96 18 0 
C 98 18 0 
C 100 18 0 
C 0 20 0 
C 2 20 0 
C 4 20 0 
C 6 20 0 
C 8 20 0 
C 10 20 0 
C 12 20 0 
C 14 20 0 
C 16 20 0 
C 18 20 0 
C 20 20 0 
C 22 20 0 
C 24 20 0 
C 26 20 0 
C 28 20 0 
C 30 20 0 
C 32 20 0 
C 34 20 0 
C 36 20 0 
C 38 20 0 
C 40 20 0 
C 42 20 0 
C 44 20 0 
C 46 20 0 
C 48 20 0 
C 50 20 0 
C 52 20 0 
C 54 20 0 
C 56 20 0 
C 58 20 0 
C 60 20 0 
C 62 20 0 
C 64 20 0 
C 66 20 0 
C 68 20 0 
C 70 20 0 
C 72 20 0 
C 74 20 0 
C 76 20 0 
C 78 20 0 
C 80 20 0 
C 82 20 0 
C 84 20 0 
C 86 20 0 
C 88 20 0 
C 90 20 0 
C 92 20 0 
C 94 20 0 
C 96 20 0 
C 98 20 0 
C 100 20 0 
C 0 22 0 
C 2 22 0 
C 4 22 0 
C 6 22 0 
C 8 22 0 
C 10 22 0 
C 12 22 0 
C 14 22 0 
C 16 22 0 
C 18 22 0 
C 20 22 0 
C 22 22 0 
C 24 22 0 
C 26 22 0 
C 28 22 0 
C 30 22 0 
C 32 22 0 
C 34 22 0 
C 36 22 0 
C 38 22 0 
C 40 22 0 
C 42 22 0 
C 44 22 0 
C 46 22 0 
C 48 22 0 
C 50 22 0 
C 52 22 0 
C 54 22 0 
C 56 22 0 
C 58 22 0 
C 60 22 0 
C 62 22 0 
C 64 22 0 
C 66 22 0 
C 68 22 0 
C 70 22 0 
C 72 22 0 
C 74 22 0 
C 76 22 0 
C 78 22 0 
C 80 22 0 
C 82 22 0 
C 84 22 0 
C 86 22 0 
C 88 22 0 
C 90 22 0 
C 92 22 0 
C 94 22 0 
C 96 22 0 
C 98 22 0 
C 100 22 0 
C 0 24 0 
C 2 24 0 
C 4 24 0 
C 6 24 0 
C 8 24 0 
C 10 24 0 
C 12 24 0 
C 14 24 0 
C 16 24 0 
C 18 24 0 
C 20 24 0 
C 22 24 0 
C 24 24 0 
C 26 24 0 
C 28 24 0 
C 30 24 0 
C 32 24 0 
C 34 24 0 
C 36 24 0 
C 38 24 0 
C 40 24 0 
C 42 24 0 
C 44 24 0 
C 46 24 0 
C 48 24 0 
C 50 24 0 
C 52 24 0 
C 54 24 0 
C 56 24 0 
C 58 24 0 
C 60 24 0 
C 62 24 0 
C 64 24 0 
C 66 24 0 
C 68 24 0 
C 70 24 0 
C 72 24 0 
C 74 24 0 
C 76 24 0 
C 78 24 0 
C 80 24 0 
C 82 24 0 
C 84 24 0 
C 86 24 0 
C 88 24 0 
C 90 24 0 
C 92 24 0 
C 94 24 0 
C 96 24 0 
C 98 24 0 
C 100 24 0 
C 0 26 0 
C 2 26 0 
C 4 26 0 
C 6 26 0 
C 8 26 0 
C 10 26 0 
C 12 26 0 
C 14 26 0 
C 16 26 0 
C 18 26 0 
C 20 26 0 
C 22 26 0 
C 24 26 0 
C 26 26 0 
C 28 26 0 
C 30 26 0 
C 32 26 0 
C 34 26 0 
C 36 26 0 
C 38 26 0 
C 40 26 0 
C 42 26 0 
C 44 26 0 
C 46 26 0 
C 48 26 0 
C 50 26 0 
C 52 26 0 
C 54 26 0 
C 56 26 0 
C 58 26 0 
C 60 26 0 
C 62 26 0 
C 64 26 0 
C 66 26 0 
C 68 26 0 
C 70 26 0 
C 72 26 0 
C 74 26 0 
C 76 26 0 
C 78 26 0 
C 80 26 0 
C 82 26 0 
C 84 26 0 
C 86 26 0 
C 88 26 0 
C 90 26 0 
C 92 26 0 
C 94 26 0 
C 96 26 0 
C 98 26 0 
C 100 26 0 
C 0 28 0 
C 2 28 0 
C 4 28 0 
C 6 28 0 
C 8 28 0 
C 10 28 0 
C 12 28 0 
C 14 28 0 
C 16 28 0 
C 18 28 0 
C 20 28 0 
C 22 28 0 
C 24 28 0 
C 26 28 0 
C 28 28 0 
C 30 28 0 
C 32 28 0 
C 34 28 0 
C 36 28 0 
C 38 28 0 
C 40 28 0 
C 42 28 0 
C 44 28 0 
C 46 28 0 
C 48 28 0 
C 50 28 0 
C 52 28 0 
C 54 28 0 
C 56 28 0 
C 58 28 0 
C 60 28 0 
C 62 28 0 
C 64 28 0 
C 66 28 0 
C 68 28 0 
C 70 28 0 
C 72 28 0 
C 74 28 0 
C 76 28 0 
C 78 28 0 
C 80 28 0 
C 82 28 0 
C 84 28 0 
C 86 28 0 
C 88 28 0 
C 90 28 0 
C 92 28 0 
C 94 28 0 
C 96 28 0 
C 98 28 0 
C 100 28 0 
C 0 30 0 
C 2 30 0 
C 4 30 0 
C 6 30 0 
C 8 30 0 
C 10 30 0 
C 12 30 0 
C 14 30 0 
C 16 30 0 
C 18 30 0 
C 20 30 0 
C 22 30 0 
C 24 30 0 
C 26 30 0 
C 28 30 0 
C 30 30 0 
C 32 30 0 
C 34 30 0 
C 36 30 0 
C 38 30 0 
C 40 30 0 
C 42 30 0 
C 44 30 0 
C 46 30 0 
C 48 30 0 
C 50 30 0 
C 52 30 0 
C 54 30 0 
C 56 30 0 
C 58 30 0 
C 60 30 0 
C 62 30 0 
C 64 30 0 
C 66 30 0 
C 68 30 0 
C 70 30 0 
C 72 30 0 
C 74 30 0 
C 76 30 0 
C 78 30 0 
C 80 30 0 
C 82 30 0 
C 84 30 0 
C 86 30 0 
C 88 30 0 
C 90 30 0 
C 92 30 0 
C 94 30 0 
C 96 30 0 
C 98 30 0 
C 100 30 0 
C 0 32 0 
C 2 32 0 
C 4 32 0 
C 6 32 0 
C 8 32 0 
C 10 32 0 
C 12 32 0 
C 14 32 0 
C 16 32 0 
C 18 32 0 
C 20 32 0 
C 22 32 0 
C 24 32 0 
C 26 32 0 
C 28 32 0 
C 30 32 0 
C 32 32 0 
C 34 32 0 
C 36 32 0 
C 38 32 0 
C 40 32 0 
C 42 32 0 
C 44 32 0 
C 46 32 0 
C 48 32 0 
C 50 32 0 
C 52 32 0 
C 54 32 0 
C 56 32 0 
C 58 32 0 
C 60 32 0 
C 62 32 0 
C 64 32 0 
C 66 32 0 
C 68 32 0 
C 70 32 0 
C 72 32 0 
C 74 32 0 
C 76 32 0 
C 78 32 0 
C 80 32 0 
C 82 32 0 
C 84 32 0 
C 86 32 0 
C 88 32 0 
C 90 32 0 
C 92 32 0 
C 94 32 0 
C 96 32 0 
C 98 32 0 
C 100 32 0 
C 0 34 0 
C 2 34 0 
C 4 34 0 
C 6 34 0 
C 8 34 0 
C 10 34 0 
C 12 34 0 
C 14 34 0 
C 16 34 0 
C 18 34 0 
C 20 34 0 
C 22 34 0 
C 24 34 0 
C 26 34 0 
C 28 34 0 
C 30 34 0 
C 32 34 0 
C 34 34 0 
C 36 34 0 
C 38 34 0 
C 40 34 0 
C 42 34 0 
C 44 34 0 
C 46 34 0 
C 48 34 0 
C 50 34 0 
C 52 34 0 
C 54 34 0 
C 56 34 0 
C 58 34 0 
C 60 34 0 
C 62 34 0 
C 64 34 0 
C 66 34 0 
C 68 34 0 
C 70 34 0 
C 72 34 0 
C 74 34 0 
C 76 34 0 
C 78 34 0 
C 80 34 0 
C 82 34 0 
C 84 34 0 
C 86 34 0 
C 88 34 0 
C 90 34 0 
C 92 34 0 
C 94 34 0 
C 96 34 0 
C 98 34 0 
C 100 34 0 
C 0 36 0 
C 2 36 0 
C 4 36 0 
C 6 36 0 
C 8 36 0 
C 10 36 0 
C 12 36 0 
C 14 36 0 
C 16 36 0 
C 18 36 0 
C 20 36 0 
C 22 36 0 
C 24 36 0 
C 26 36 0 
C 28 36 0 
C 30 36 0 
C 32 36 0 
C 34 36 0 
C 36 36 0 
C 38 36 0 
C 40 36 0 
C 42 36 0 
C 44 36 0 
C 46 36 0 
C 48 36 0 
C 50 36 0 
C 52 36 0 
C 54 36 0 
C 56 36 0 
C 58 36 0 
C 60 36 0 
C 62 36 0 
C 64 36 0 
C 66 36 0 
C 68 36 0 
C 70 36 0 
C 72 36 0 
C 74 36 0 
C 76 36 0 
C 78 36 0 
C 80 36 0 
C 82 36 0 
C 84 36 0 
C 86 36 0 
C 88 36 0 
C 90 36 0 
C 92 36 0 
C 94 36 0 
C 96 36 0 
C 98 36 0 
C 100 36 0 
C 0 38 0 
C 2 38 0 
C 4 38 0 
C 6 38 0 
C 8 38 0 
C 10 38 0 
C 12 38 0 
C 14 38 0 
C 16 38 0 
C 18 38 0 
C 20 38 0 
C 22 38 0 
C 24 38 0 
C 26 38 0 
C 28 38 0 
C 30 38 0 
C 32 38 0 
C 34 38 0 
C 36 38 0 
C 38 38 0 
C 40 38 0 
C 42 38 0 
C 44 38 0 
C 46 38 0 
C 48 38 0 
C 50 38 0 
C 52 38 0 
C 54 38 0 
C 56 38 0 
C 58 38 0 
C 60 38 0 
C 62 38 0 
C 64 38 0 
C 66 38 0 
C 68 38 0 
C 70 38 0 
C 72 38 0 
C 74 38 0 
C 76 38 0 
C 78 38 0 
C 80 38 0 
C 82 38 0 
C 84 38 0 
C 86 38 0 
C 88 38 0 
C 90 38 0 
C 92 38 0 
C 94 38 0 
C 96 38 0 
C 98 38 0 
C 100 38 0 
C 0 40 0 
C 2 40 0 
C 4 40 0 
C 6 40 0 
C 8 40 0 
C 10 40 0 
C 12 40 0 
C 14 40 0 
C 16 40 0 
C 18 40 0 
C 20 40 0 
C 22 40 0 
C 24 40 0 
C 26 40 0 
C 28 40 0 
C 30 40 0 
C 32 40 0 
C 34 40 0 
C 36 40 0 
C 38 40 0 
C 40 40 0 
C 42 40 0 
C 44 40 0 
C 46 40 0 
C 48 40 0 
C 50 40 0 
C 52 40 0 
C 54 40 0 
C 56 40 0 
C 58 40 0 
C 60 40 0 
C 62 40 0 
C 64 40 0 
C 66 40 0 
C 68 40 0 
C 70 40 0 
C 72 40 0 
C 74 40 0 
C 76 40 0 
C 78 40 0 
C 80 40 0 
C 82 40 0 
C 84 40 0 
C 86 40 0 
C 88 40 0 
C 90 40 0 
C 92 40 0 
C 94 40 0 
C 96 40 0 
C 98 40 0 
C 100 40 0 
C 0 42 0 
C 2 42 0 
C 4 42 0 
C 6 42 0 
C 8 42 0 
C 10 42 0 
C 12 42 0 
C 14 42 0 
C 16 42 0 
C 18 42 0 
C 20 42 0 
C 22 42 0 
C 24 42 0 
C 26 42 0 
C 28 42 0 
C 30 42 0 
C 32 42 0 
C 34 42 0 
C 36 42 0 
C 38 42 0 
C 40 42 0 
C 42 42 0 
C 44 42 0 
C 46 42 0 
C 48 42 0 
C 50 42 0 
C 52 42 0 
C 54 42 0 
C 56 42 0 
C 58 42 0 
C 60 42 0 
C 62 42 0 
C 64 42 0 
C 66 42 0 
C 68 42 0 
C 70 42 0 
C 72 42 0 
C 74 42 0 
C 76 42 0 
C 78 42 0 
C 80 42 0 
C 82 42 0 
C 84 42 0 
C 86 42 0 
C 88 42 0 
C 90 42 0 
C 92 42 0 
C 94 42 0 
C 96 42 0 
C 98 42 0 
C 100 42 0 
C 0 44 0 
C 2 44 0 
C 4 44 0 
C 6 44 0 
C 8 44 0 
C 10 44 0 
C 12 44 0 
C 14 44 0 
C 16 44 0 
C 18 44 0 
C 20 44 0 
C 22 44 0 
C 24 44 0 
C 26 44 0 
C 28 44 0 
C 30 44 0 
C 32 44 0 
C 34 44 0 
C 36 44 0 
C 38 44 0 
C 40 44 0 
C 42 44 0 
C 44 44 0 
C 46 44 0 
C 48 44 0 
C 50 44 0 
C 52 44 0 
C 54 44 0 
C 56 44 0 
C 58 44 0 
C 60 44 0 
C 62 44 0 
C 64 44 0 
C 66 44 0 
C 68 44 0 
C 70 44 0 
C 72 44 0 
C 74 44 0 
C 76 44 0 
C 78 44 0 
C 80 44 0 
C 82 44 0 
C 84 44 0 
C 86 44 0 
C 88 44 0 
C 90 44 0 
C 92 44 0 
C 94 44 0 
C 96 44 0 
C 98 44 0 
C 100 44 0 
C 0 46 0 
C 2 46 0 
C 4 46 0 
C 6 46 0 
C 8 46 0 
C 10 46 0 
C 12 46 0 
C 14 46 0 
C 16 46 0 
C 18 46 0 
C 20 46 0 
C 22 46 0 
C 24 46 0 
C 26 46 0 
C 28 46 0 
C 30 46 0 
C 32 46 0 
C 34 46 0 
C 36 46 0 
C 38 46 0 
C 40 46 0 
C 42 46 0 
C 44 46 0 
C 46 46 0 
C 48 46 0 
C 50 46 0 
C 52 46 0 
C 54 46 0 
C 56 46 0 
C 58 46 0 
C 60 46 0 
C 62 46 0 
C 64 46 0 
C 66 46 0 
C 68 46 0 
C 70 46 0 
C 72 46 0 
C 74 46 0 
C 76 46 0 
C 78 46 0 
C 80 46 0 
C 82 46 0 
C 84 46 0 
C 86 46 0 
C 88 46 0 
C 90 46 0 
C 92 46 0 
C 94 46 0 
C 96 46 0 
C 98 46 0 
C 100 46 0 
C 0 48 0 
C 2 48 0 
C 4 48 0 
C 6 48 0 
C 8 48 0 
C 10 48 0 
C 12 48 0 
C 14 48 0 
C 16 48 0 
C 18 48 0 
C 20 48 0 
C 22 48 0 
C 24 48 0 
C 26 48 0 
C 28 48 0 
C 30 48 0 
C 32 48 0 
C 34 48 0 
C 36 48 0 
C 38 48 0 
C 40 48 0 
C 42 48 0 
C 44 48 0 
C 46 48 0 
C 48 48 0 
C 50 48 0 
C 52 48 0 
C 54 48 0 
C 56 48 0 
C 58 48 0 
C 60 48 0 
C 62 48 0 
C 64 48 0 
C 66 48 0 
C 68 48 0 
C 70 48 0 
C 72 48 0 
C 74 48 0 
C 76 48 0 
C 78 48 0 
C 80 48 0 
C 82 48 0 
C 84 48 0 
C 86 48 0 
C 88 48 0 
C 90 48 0 
C 92 48 0 
C 94 48 0 
C 96 48 0 
C 98 48 0 
C 100 48 0 
C 0 50 0 
C 2 50 0 
C 4 50 0 
C 6 50 0 
C 8 50 0 
C 10 50 0 
C 12 50 0 
C 14 50 0 
C 16 50 0 
C 18 50 0 
C 20 50 0 
C 22 50 0 
C 24 50 0 
C 26 50 0 
C 28 50 0 
C 30 50 0 
C 32 50 0 
C 34 50 0 
C 36 50 0 
C 38 50 0 
C 40 50 0 
C 42 50 0 
C 44 50 0 
C 46 50 0 
C 48 50 0 
C 50 50 0 
C 52 50 0 
C 54 50 0 
C 56 50 0 
C 58 50 0 
C 60 50 0 
C 62 50 0 
C 64 50 0 
C 66 50 0 
C 68 50 0 
C 70 50 0 
C 72 50 0 
C 74 50 0 
C 76 50 0 
C 78 50 0 
C 80 50 0 
C 82 50 0 
C 84 50 0 
C 86 50 0 
C 88 50 0 
C 90 50 0 
C 92 50 0 
C 94 50 0 
C 96 50 0 
C 98 50 0 
C 100 50 0 
C 0 52 0 
C 2 52 0 
C 4 52 0 
C 6 52 0 
C 8 52 0 
C 10 52 0 
C 12 52 0 
C 14 52 0 
C 16 52 0 
C 18 52 0 
C 20 52 0 
C 22 52 0 
C 24 52 0 
C 26 52 0 
C 28 52 0 
C 30 52 0 
C 32 52 0 
C 34 52 0 
C 36 52 0 
C 38 52 0 
C 40 52 0 
C 42 52 0 
C 44 52 0 
C 46 52 0 
C 48 52 0 
C 50 52 0 
C 52 52 0 
C 54 52 0 
C 56 52 0 
C 58 52 0 
C 60 52 0 
C 62 52 0 
C 64 52 0 
C 66 52 0 
C 68 52 0 
C 70 52 0 
C 72 52 0 
C 74 52 0 
C 76 52 0 
C 78 52 0 
C 80 52 0 
C 82 52 0 
C 84 52 0 
C 86 52 0 
C 88 52 0 
C 90 52 0 
C 92 52 0 
C 94 52 0 
C 96 52 0 
C 98 52 0 
C 100 52 0 
C 0 54 0 
C 2 54 0 
C 4 54 0 
C 6 54 0 
C 8 54 0 
C 10 54 0 
C 12 54 0 
C 14 54 0 
C 16 54 0 
C 18 54 0 
C 20 54 0 
C 22 54 0 
C 24 54 0 
C 26 54 0 
C 28 54 0 
C 30 54 0 
C 32 54 0 
C 34 54 0 
C 36 54 0 
C 38 54 0 
C 40 54 0 
C 42 54 0 
C 44 54 0 
C 46 54 0 
C 48 54 0 
C 50 54 0 
C 52 54 0 
C 54 54 0 
C 56 54 0 
C 58 54 0 
C 60 54 0 
C 62 54 0 
C 64 54 0 
C 66 54 0 
C 68 54 0 
C 70 54 0 
C 72 54 0 
C 74 54 0 
C 76 54 0 
C 78 54 0 
C 80 54 0 
C 82 54 0 
C 84 54 0 
C 86 54 0 
C 88 54 0 
C 90 54 0 
C 92 54 0 
C 94 54 0 
C 96 54 0 
C 98 54 0 
C 100 54 0 
C 0 56 0 
C 2 56 0 
C 4 56 0 
C 6 56 0 
C 8 56 0 
C 10 56 0 
C 12 56 0 
C 14 56 0 
C 16 56 0 
C 18 56 0 
C 20 56 0 
C 22 56 0 
C 24 56 0 
C 26 56 0 
C 28 56 0 
C 30 56 0 
C 32 56 0 
C 34 56 0 
C 36 56 0 
C 38 56 0 
C 40 56 0 
C 42 56 0 
C 44 56 0 
C 46 56 0 
C 48 56 0 
C 50 56 0 
C 52 56 0 
C 54 56 0 
C 56 56 0 
C 58 56 0 
C 60 56 0 
C 62 56 0 
C 64 56 0 
C 66 56 0 
C 68 56 0 
C 70 56 0 
C 72 56 0 
C 74 56 0 
C 76 56 0 
C 78 56 0 
C 80 56 0 
C 82 56 0 
C 84 56 0 
C 86 56 0 
C 88 56 0 
C 90 56 0 
C 92 56 0 
C 94 56 0 
C 96 56 0 
C 98 56 0 
C 100 56 0 
C 0 58 0 
C 2 58 0 
C 4 58 0 
C 6 58 0 
C 8 58 0 
C 10 58 0 
C 12 58 0 
C 14 58 0 
C 16 58 0 
C 18 58 0 
C 20 58 0 
C 22 58 0 
C 24 58 0 
C 26 58 0 
C 28 58 0 
C 30 58 0 
C 32 58 0 
C 34 58 0 
C 36 58 0 
C 38 58 0 
C 40 58 0 
C 42 58 0 
C 44 58 0 
C 46 58 0 
C 48 58 0 
C 50 58 0 
C 52 58 0 
C 54 58 0 
C 56 58 0 
C 58 58 0 
C 60 58 0 
C 62 58 0 
C 64 58 0 
C 66 58 0 
C 68 58 0 
C 70 58 0 
C 72 58 0 
C 74 58 0 
C 76 58 0 
C 78 58 0 
C 80 58 0 
C 82 58 0 
C 84 58 0 
C 86 58 0 
C 88 58 0 
C 90 58 0 
C 92 58 0 
C 94 58 0 
C 96 58 0 
C 98 58 0 
C 100 58 0 
C 0 60 0 
C 2 60 0 
C 4 60 0 
C 6 60 0 
C 8 60 0 
C 10 60 0 
C 12 60 0 
C 14 60 0 
C 16 60 0 
C 18 60 0 
C 20 60 0 
C 22 60 0 
C 24 60 0 
C 26 60 0 
C 28 60 0 
C 30 60 0 
C 32 60 0 
C 34 60 0 
C 36 60 0 
C 38 60 0 
C 40 60 0 
C 42 60 0 
C 44 60 0 
C 46 60 0 
C 48 60 0 
C 50 60 0 
C 52 60 0 
C 54 60 0 
C 56 60 0 
C 58 60 0 
C 60 60 0 
C 62 60 0 
C 64 60 0 
C 66 60 0 
C 68 60 0 
C 70 60 0 
C 72 60 0 
C 74 60 0 
C 76 60 0 
C 78 60 0 
C 80 60 0 
C 82 60 0 
C 84 60 0 
C 86 60 0 
C 88 60 0 
C 90 60 0 
C 92 60 0 
C 94 60 0 
C 96 60 0 
C 98 60 0 
C 100 60 0 
C 0 62 0 
C 2 62 0 
C 4 62 0 
C 6 62 0 
C 8 62 0 
C 10 62 0 
C 12 62 0 
C 14 62 0 
C 16 62 0 
C 18 62 0 
C 20 62 0 
C 22 62 0 
C 24 62 0 
C 26 62 0 
C 28 62 0 
C 30 62 0 
C 32 62 0 
C 34 62 0 
C 36 62 0 
C 38 62 0 
C 40 62 0 
C 42 62 0 
C 44 62 0 
C 46 62 0 
C 48 62 0 
C 50 62 0 
C 52 62 0 
C 54 62 0 
C 56 62 0 
C 58 62 0 
C 60 62 0 
C 62 62 0 
C 64 62 0 
C 66 62 0 
C 68 62 0 
C 70 62 0 
C 72 62 0 
C 74 62 0 
C 76 62 0 
C 78 62 0 
C 80 62 0 
C 82 62 0 
C 84 62 0 
C 86 62 0 
C 88 62 0 
C 90 62 0 
C 92 62 0 
C 94 62 0 
C 96 62 0 
C 98 62 0 
C 100 62 0 
C 0 64 0 
C 2 64 0 
C 4 64 0 
C 6 64 0 
C 8 64 0 
C 10 64 0 
C 12 64 0 
C 14 64 0 
C 16 64 0 
C 18 64 0 
C 20 64 0 
C 22 64 0 
C 24 64 0 
C 26 64 0 
C 28 64 0 
C 30 64 0 
C 32 64 0 
C 34 64 0 
C 36 64 0 
C 38 64 0 
C 40 64 0 
C 42 64 0 
C 44 64 0 
C 46 64 0 
C 48 64 0 
C 50 64 0 
C 52 64 0 
C 54 64 0 
C 56 64 0 
C 58 64 0 
C 60 64 0 
C 62 64 0 
C 64 64 0 
C 66 64 0 
C 68 64 0 
C 70 64 0 
C 72 64 0 
C 74 64 0 
C 76 64 0 
C 78 64 0 
C 80 64 0 
C 82 64 0 
C 84 64 0 
C 86 64 0 
C 88 64 0 
C 90 64 0 
C 92 64 0 
C 94 64 0 
C 96 64 0 
C 98 64 0 
C 100 64 0 
C 0 66 0 
C 2 66 0 
C 4 66 0 
C 6 66 0 
C 8 66 0 
C 10 66 0 
C 12 66 0 
C 14 66 0 
C 16 66 0 
C 18 66 0 
C 20 66 0 
C 22 66 0 
C 24 66 0 
C 26 66 0 
C 28 66 0 
C 30 66 0 
C 32 66 0 
C 34 66 0 
C 36 66 0 
C 38 66 0 
C 40 66 0 
C 42 66 0 
C 44 66 0 
C 46 66 0 
C 48 66 0 
C 50 66 0 
C 52 66 0 
C 54 66 0 
C 56 66 0 
C 58 66 0 
C 60 66 0 
C 62 66 0 
C 64 66 0 
C 66 66 0 
C 68 66 0 
C 70 66 0 
C 72 66 0 
C 74 66 0 
C 76 66 0 
C 78 66 0 
C 80 66 0 
C 82 66 0 
C 84 66 0 
C 86 66 0 
C 88 66 0 
C 90 66 0 
C 92 66 0 
C 94 66 0 
C 96 66 0 
C 98 66 0 
C 100 66 0 
C 0 68 0 
C 2 68 0 
C 4 68 0 
C 6 68 0 
C 8 68 0 
C 10 68 0 
C 12 68 0 
C 14 68 0 
C 16 68 0 
C 18 68 0 
C 20 68 0 
C 22 68 0 
C 24 68 0 
C 26 68 0 
C 28 68 0 
C 30 68 0 
C 32 68 0 
C 34 68 0 
C 36 68 0 
C 38 68 0 
C 40 68 0 
C 42 68 0 
C 44 68 0 
C 46 68 0 
C 48 68 0 
C 50 68 0 
C 52 68 0 
C 54 68 0 
C 56 68 0 
C 58 68 0 
C 60 68 0 
C 62 68 0 
C 64 68 0 
C 66 68 0 
C 68 68 0 
C 70 68 0 
C 72 68 0 
C 74 68 0 
C 76 68 0 
C 78 68 0 
C 80 68 0 
C 82 68 0 
C 84 68 0 
C 86 68 0 
C 88 68 0 
C 90 68 0 
C 92 68 0 
C 94 68 0 
C 96 68 0 
C 98 68 0 
C 100 68 0 
C 0 70 0 
C 2 70 0 
C 4 70 0 
C 6 70 0 
C 8 70 0 
C 10 70 0 
C 12 70 0 
C 14 70 0 
C 16 70 0 
C 18 70 0 
C 20 70 0 
C 22 70 0 
C 24 70 0 
C 26 70 0 
C 28 70 0 
C 30 70 0 
C 32 70 0 
C 34 70 0 
C 36 70 0 
C 38 70 0 
C 40 70 0 
C 42 70 0 
C 44 70 0 
C 46 70 0 
C 48 70 0 
C 50 70 0 
C 52 70 0 
C 54 70 0 
C 56 70 0 
C 58 70 0 
C 60 70 0 
C 62 70 0 
C 64 70 0 
C 66 70 0 
C 68 70 0 
C 70 70 0 
C 72 70 0 
C 74 70 0 
C 76 70 0 
C 78 70 0 
C 80 70 0 
C 82 70 0 
C 84 70 0 
C 86 70 0 
C 88 70 0 
C 90 70 0 
C 92 70 0 
C 94 70 0 
C 96 70 0 
C 98 70 0 
C 100 70 0 
C 0 72 0 
C 2 72 0 
C 4 72 0 
C 6 72 0 
C 8 72 0 
C 10 72 0 
C 12 72 0 
C 14 72 0 
C 16 72 0 
C 18 72 0 
C 20 72 0 
C 22 72 0 
C 24 72 0 
C 26 72 0 
C 28 72 0 
C 30 72 0 
C 32 72 0 
C 34 72 0 
C 36 72 0 
C 38 72 0 
C 40 72 0 
C 42 72 0 
C 44 72 0 
C 46 72 0 
C 48 72 0 
C 50 72 0 
C 52 72 0 
C 54 72 0 
C 56 72 0 
C 58 72 0 
C 60 72 0 
C 62 72 0 
C 64 72 0 
C 66 72 0 
C 68 72 0 
C 70 72 0 
C 72 72 0 
C 74 72 0 
C 76 72 0 
C 78 72 0 
C 80 72 0 
C 82 72 0 
C 84 72 0 
C 86 72 0 
C 88 72 0 
C 90 72 0 
C 92 72 0 
C 94 72 0 
C 96 72 0 
C 98 72 0 
C 100 72 0 
C 0 74 0 
C 2 74 0 
C 4 74 0 
C 6 74 0 
C 8 74 0 
C 10 74 0 
C 12 74 0 
C 14 74 0 
C 16 74 0 
C 18 74 0 
C 20 74 0 
C 22 74 0 
C 24 74 0 
C 26 74 0 
C 28 74 0 
C 30 74 0 
C 32 74 0 
C 34 74 0 
C 36 74 0 
C 38 74 0 
C 40 74 0 
C 42 74 0 
C 44 74 0 
C 46 74 0 
C 48 74 0 
C 50 74 0 
C 52 74 0 
C 54 74 0 
C 56 74 0 
C 58 74 0 
C 60 74 0 
C 62 74 0 
C 64 74 0 
C 66 74 0 
C 68 74 0 
C 70 74 0 
C 72 74 0 
C 74 74 0 
C 76 74 0 
C 78 74 0 
C 80 74 0 
C 82 74 0 
C 84 74 0 
C 86 74 0 
C 88 74 0 
C 90 74 0 
C 92 74 0 
C 94 74 0 
C 96 74 0 
C 98 74 0 
C 100 74 0 
C 0 76 0 
C 2 76 0 
C 4 76 0 
C 6 76 0 
C 8 76 0 
C 10 76 0 
C 12 76 0 
C 14 76 0 
C 16 76 0 
C 18 76 0 
C 20 76 0 
C 22 76 0 
C 24 76 0 
C 26 76 0 
C 28 76 0 
C 30 76 0 
C 32 76 0 
C 34 76 0 
C 36 76 0 
C 38 76 0 
C 40 76 0 
C 42 76 0 
C 44 76 0 
C 46 76 0 
C 48 76 0 
C 50 76 0 
C 52 76 0 
C 54 76 0 
C 56 76 0 
C 58 76 0 
C 60 76 0 
C 62 76 0 
C 64 76 0 
C 66 76 0 
C 68 76 0 
C 70 76 0 
C 72 76 0 
C 74 76 0 
C 76 76 0 
C 78 76 0 
C 80 76 0 
C 82 76 0 
C 84 76 0 
C 86 76 0 
C 88 76 0 
C 90 76 0 
C 92 76 0 
C 94 76 0 
C 96 76 0 
C 98 76 0 
C 100 76 0 
C 0 78 0 
C 2 78 0 
C 4 78 0 
C 6 78 0 
C 8 78 0 
C 10 78 0 
C 12 78 0 
C 14 78 0 
C 16 78 0 
C 18 78 0 
C 20 78 0 
C 22 78 0 
C 24 78 0 
C 26 78 0 
C 28 78 0 
C 30 78 0 
C 32 78 0 
C 34 78 0 
C 36 78 0 
C 38 78 0 
C 40 78 0 
C 42 78 0 
C 44 78 0 
C 46 78 0 
C 48 78 0 
C 50 78 0 
C 52 78 0 
C 54 78 0 
C 56 78 0 
C 58 78 0 
C 60 78 0 
C 62 78 0 
C 64 78 0 
C 66 78 0 
C 68 78 0 
C 70 78 0 
C 72 78 0 
C 74 78 0 
C 76 78 0 
C 78 78 0 
C 80 78 0 
C 82 78 0 
C 84 78 0 
C 86 78 0 
C 88 78 0 
C 90 78 0 
C 92 78 0 
C 94 78 0 
C 96 78 0 
C 98 78 0 
C 100 78 0 
C 0 80 0 
C 2 80 0 
C 4 80 0 
C 6 80 0 
C 8 80 0 
C 10 80 0 
C 12 80 0 
C 14 80 0 
C 16 80 0 
C 18 80 0 
C 20 80 0 
C 22 80 0 
C 24 80 0 
C 26 80 0 
C 28 80 0 
C 30 80 0 
C 32 80 0 
C 34 80 0 
C 36 80 0 
C 38 80 0 
C 40 80 0 
C 42 80 0 
C 44 80 0 
C 46 80 0 
C 48 80 0 
C 50 80 0 
C 52 80 0 
C 54 80 0 
C 56 80 0 
C 58 80 0 
C 60 80 0 
C 62 80 0 
C 64 80 0 
C 66 80 0 
C 68 80 0 
C 70 80 0 
C 72 80 0 
C 74 80 0 
C 76 80 0 
C 78 80 0 
C 80 80 0 
C 82 80 0 
C 84 80 0 
C 86 80 0 
C 88 80 0 
C 90 80 0 
C 92 80 0 
C 94 80 0 
C 96 80 0 
C 98 80 0 
C 100 80 0 
C 0 82 0 
C 2 82 0 
C 4 82 0 
C 6 82 0 
C 8 82 0 
C 10 82 0 
C 12 82 0 
C 14 82 0 
C 16 82 0 
C 18 82 0 
C 20 82 0 
C 22 82 0 
C 24 82 0 
C 26 82 0 
C 28 82 0 
C 30 82 0 
C 32 82 0 
C 34 82 0 
C 36 82 0 
C 38 82 0 
C 40 82 0 
C 42 82 0 
C 44 82 0 
C 46 82 0 
C 48 82 0 
C 50 82 0 
C 52 82 0 
C 54 82 0 
C 56 82 0 
C 58 82 0 
C 60 82 0 
C 62 82 0 
C 64 82 0 
C 66 82 0 
C 68 82 0 
C 70 82 0 
C 72 82 0 
C 74 82 0 
C 76 82 0 
C 78 82 0 
C 80 82 0 
C 82 82 0 
C 84 82 0 
C 86 82 0 
C 88 82 0 
C 90 82 0 
C 92 82 0 
C 94 82 0 
C 96 82 0 
C 98 82 0 
C 100 82 0 
C 0 84 0 
C 2 84 0 
C 4 84 0 
C 6 84 0 
C 8 84 0 
C 10 84 0 
C 12 84 0 
C 14 84 0 
C 16 84 0 
C 18 84 0 
C 20 84 0 
C 22 84 0 
C 24 84 0 
C 26 84 0 
C 28 84 0 
C 30 84 0 
C 32 84 0 
C 34 84 0 
C 36 84 0 
C 38 84 0 
C 40 84 0 
C 42 84 0 
C 44 84 0 
C 46 84 0 
C 48 84 0 
C 50 84 0 
C 52 84 0 
C 54 84 0 
C 56 84 0 
C 58 84 0 
C 60 84 0 
C 62 84 0 
C 64 84 0 
C 66 84 0 
C 68 84 0 
C 70 84 0 
C 72 84 0 
C 74 84 0 
C 76 84 0 
C 78 84 0 
C 80 84 0 
C 82 84 0 
C 84 84 0 
C 86 84 0 
C 88 84 0 
C 90 84 0 
C 92 84 0 
C 94 84 0 
C 96 84 0 
C 98 84 0 
C 100 84 0 
C 0 86 0 
C 2 86 0 
C 4 86 0 
C 6 86 0 
C 8 86 0 
C 10 86 0 
C 12 86 0 
C 14 86 0 
C 16 86 0 
C 18 86 0 
C 20 86 0 
C 22 86 0 
C 24 86 0 
C 26 86 0 
C 28 86 0 
C 30 86 0 
C 32 86 0 
C 34 86 0 
C 36 86 0 
C 38 86 0 
C 40 86 0 
C 42 86 0 
C 44 86 0 
C 46 86 0 
C 48 86 0 
C 50 86 0 
C 52 86 0 
C 54 86 0 
C 56 86 0 
C 58 86 0 
C 60 86 0 
C 62 86 0 
C 64 86 0 
C 66 86 0 
C 68 86 0 
C 70 86 0 
C 72 86 0 
C 74 86 0 
C 76 86 0 
C 78 86 0 
C 80 86 0 
C 82 86 0 
C 84 86 0 
C 86 86 0 
C 88 86 0 
C 90 86 0 
C 92 86 0 
C 94 86 0 
C 96 86 0 
C 98 86 0 
C 100 86 0 
C 0 88 0 
C 2 88 0 
C 4 88 0 
C 6 88 0 
C 8 88 0 
C 10 88 0 
C 12 88 0 
C 14 88 0 
C 16 88 0 
C 18 88 0 
C 20 88 0 
C 22 88 0 
C 24 88 0 
C 26 88 0 
C 28 88 0 
C 30 88 0 
C 32 88 0 
C 34 88 0 
C 36 88 0 
C 38 88 0 
C 40 88 0 
C 42 88 0 
C 44 88 0 
C 46 88 0 
C 48 88 0 
C 50 88 0 
C 52 88 0 
C 54 88 0 
C 56 88 0 
C 58 88 0 
C 60 88 0 
C 62 88 0 
C 64 88 0 
C 66 88 0 
C 68 88 0 
C 70 88 0 
C 72 88 0 
C 74 88 0 
C 76 88 0 
C 78 88 0 
C 80 88 0 
C 82 88 0 
C 84 88 0 
C 86 88 0 
C 88 88 0 
C 90 88 0 
C 92 88 0 
C 94 88 0 
C 96 88 0 
C 98 88 0 
C 100 88 0 
C 0 90 0 
C 2 90 0 
C 4 90 0 
C 6 90 0 
C 8 90 0 
C 10 90 0 
C 12 90 0 
C 14 90 0 
C 16 90 0 
C 18 90 0 
C 20 90 0 
C 22 90 0 
C 24 90 0 
C 26 90 0 
C 28 90 0 
C 30 90 0 
C 32 90 0 
C 34 90 0 
C 36 90 0 
C 38 90 0 
C 40 90 0 
C 42 90 0 
C 44 90 0 
C 46 90 0 
C 48 90 0 
C 50 90 0 
C 52 90 0 
C 54 90 0 
C 56 90 0 
C 58 90 0 
C 60 90 0 
C 62 90 0 
C 64 90 0 
C 66 90 0 
C 68 90 0 
C 70 90 0 
C 72 90 0 
C 74 90 0 
C 76 90 0 
C 78 90 0 
C 80 90 0 
C 82 90 0 
C 84 90 0 
C 86 90 0 
C 88 90 0 
C 90 90 0 
C 92 90 0 
C 94 90 0 
C 96 90 0 
C 98 90 0 
C 100 90 0 
C 0 92 0 
C 2 92 0 
C 4 92 0 
C 6 92 0 
C 8 92 0 
C 10 92 0 
C 12 92 0 
C 14 92 0 
C 16 92 0 
C 18 92 0 
C 20 92 0 
C 22 92 0 
C 24 92 0 
C 26 92 0 
C 28 92 0 
C 30 92 0 
C 32 92 0 
C 34 92 0 
C 36 92 0 
C 38 92 0 
C 40 92 0 
C 42 92 0 
C 44 92 0 
C 46 92 0 
C 48 92 0 
C 50 92 0 
C 52 92 0 
C 54 92 0 
C 56 92 0 
C 58 92 0 
C 60 92 0 
C 62 92 0 
C 64 92 0 
C 66 92 0 
C 68 92 0 
C 70 92 0 
C 72 92 0 
C 74 92 0 
C 76 92 0 
C 78 92 0 
C 80 92 0 
C 82 92 0 
C 84 92 0 
C 86 92 0 
C 88 92 0 
C 90 92 0 
C 92 92 0 
C 94 92 0 
C 96 92 0 
C 98 92 0 
C 100 92 0 
C 0 94 0 
C 2 94 0 
C 4 94 0 
C 6 94 0 
C 8 94 0 
C 10 94 0 
C 12 94 0 
C 14 94 0 
C 16 94 0 
C 18 94 0 
C 20 94 0 
C 22 94 0 
C 24 94 0 
C 26 94 0 
C 28 94 0 
C 30 94 0 
C 32 94 0 
C 34 94 0 
C 36 94 0 
C 38 94 0 
C 40 94 0 
C 42 94 0 
C 44 94 0 
C 46 94 0 
C 48 94 0 
C 50 94 0 
C 52 94 0 
C 54 94 0 
C 56 94 0 
C 58 94 0 
C 60 94 0 
C 62 94 0 
C 64 94 0 
C 66 94 0 
C 68 94 0 
C 70 94 0 
C 72 94 0 
C 74 94 0 
C 76 94 0 
C 78 94 0 
C 80 94 0 
C 82 94 0 
C 84 94 0 
C 86 94 0 
C 88 94 0 
C 90 94 0 
C 92 94 0 
C 94 94 0 
C 96 94 0 
C 98 94 0 
C 100 94 0 
C 0 96 0 
C 2 96 0 
C 4 96 0 
C 6 96 0 
C 8 96 0 
C 10 96 0 
C 12 96 0 
C 14 96 0 
C 16 96 0 
C 18 96 0 
C 20 96 0 
C 22 96 0 
C 24 96 0 
C 26 96 0 
C 28 96 0 
C 30 96 0 
C 32 96 0 
C 34 96 0 
C 36 96 0 
C 38 96 0 
C 40 96 0 
C 42 96 0 
C 44 96 0 
C 46 96 0 
C 48 96 0 
C 50 96 0 
C 52 96 0 
C 54 96 0 
C 56 96 0 
C 58 96 0 
C 60 96 0 
C 62 96 0 
C 64 96 0 
C 66 96 0 
C 68 96 0 
C 70 96 0 
C 72 96 0 
C 74 96 0 
C 76 96 0 
C 78 96 0 
C 80 96 0 
C 82 96 0 
C 84 96 0 
C 86 96 0 
C 88 96 0 
C 90 96 0 
C 92 96 0 
C 94 96 0 
C 96 96 0 
C 98 96 0 
C 100 96 0 
C 0 98 0 
C 2 98 0 
C 4 98 0 
C 6 98 0 
C 8 98 0 
C 10 98 0 
C 12 98 0 
C 14 98 0 
C 16 98 0 
C 18 98 0 
C 20 98 0 
C 22 98 0 
C 24 98 0 
C 26 98 0 
C 28 98 0 
C 30 98 0 
C 32 98 0 
C 34 98 0 
C 36 98 0 
C 38 98 0 
C 40 98 0 
C 42 98 0 
C 44 98 0 
C 46 98 0 
C 48 98 0 
C 50 98 0 
C 52 98 0 
C 54 98 0 
C 56 98 0 
C 58 98 0 
C 60 98 0 
C 62 98 0 
C 64 98 0 
C 66 98 0 
C 68 98 0 
C 70 98 0 
C 72 98 0 
C 74 98 0 
C 76 98 0 
C 78 98 0 
C 80 98 0 
C 82 98 0 
C 84 98 0 
C 86 98 0 
C 88 98 0 
C 90 98 0 
C 92 98 0 
C 94 98 0 
C 96 98 0 
C 98 98 0 
C 100 98 0 
C 0 100 0 
C 2 100 0 
C 4 100 0 
C 6 100 0 
C 8 100 0 
C 10 100 0 
C 12 100 0 
C 14 100 0 
C 16 100 0 
C 18 100 0 
C 20 100 0 
C 22 100 0 
C 24 100 0 
C 26 100 0 
C 28 100 0 
C 30 100 0 
C 32 100 0 
C 34 100 0 
C 36 100 0 
C 38 100 0 
C 40 100 0 
C 42 100 0 
C 44 100 0 
C 46 100 0 
C 48 100 0 
C 50 100 0 
C 52 100 0 
C 54 100 0 
C 56 100 0 
C 58 100 0 
C 60 100 0 
C 62 100 0 
C 64 100 0 
C 66 100 0 
C 68 100 0 
C 70 100 0 
C 72 100 0 
C 74 100 0 
C 76 100 0 
C 78 100 0 
C 80 100 0 
C 82 100 0 
C 84 100 0 
C 86 100 0 
C 88 100 0 
C 90 100 0 
C 92 100 0 
C 94 100 0 
C 96 100 0 
C 98 100 0 
C 100 100 0 
O 1 99 0 
O 80 99 0 
O 0 89 0 
O 0 99 0 
O 99 0 0 
3105
Atoms. Timestep: 13
N 83 21 0 
N 20 53 0 
N 17 69 0 
N 50 95 0 
N 35 22 0 
N 61 25 0 
N 85 69 0 
N 5 56 0 
N 12 47 0 
N 49 26 0 
N 13 8 0 
N 61 29 0 
N 66 15 0 
N 80 85 0 
N 57 92 0 
N 48 61 0 
N 40 77 0 
N 3 91 0 
N 1 13 0 
N 85 26 0 
N 13 39 0 
N 79 13 0 
N 15 26 0 
N 49 79 0 
N 68 99 0 
N 9 91 0 
N 90 13 0 
N 67 98 0 
N 0 35 0 
N 35 45 0 
N 77 34 0 
N 60 21 0 
N 23 69 0 
N 94 51 0 
N 27 19 0 
N 79 55 0 
N 95 78 0 
N 68 13 0 
N 67 93 0 
N 97 5 0 
N 45 12 0 
N 27 98 0 
N 87 29 0 
N 29 60 0 
N 50 41 0 
N 61 27 0 
N 51 76 0 
N 49 33 0 
N 91 80 0 
N 27 14 0 
N 59 25 0 
N 44 35 0 
N 7 21 0 
N 20 25 0 
N 97 76 0 
N 17 80 0 
N 49 71 0 
N 85 11 0 
N 4 21 0 
N 69 75 0 
N 97 67 0 
N 78 99 0 
N 5 33 0 
N 73 89 0 
N 73 17 0 
N 4 63 0 
N 73 67 0 
N 83 29 0 
N 41 21 0 
N 65 29 0 
N 44 23 0 
N 3 97 0 
N 5 48 0 
N 19 77 0 
N 41 88 0 
N 37 25 0 
N 53 91 0 
N 3 34 0 
N 29 49 0 
N 74 13 0 
N 60 43 0 
N 95 23 0 
N 71 96 0 
N 92 45 0 
N 1 33 0 
N 4 23 0 
N 39 69 0 
N 5 81 0 
N 18 27 0 
N 83 85 0 
N 68 83 0 
N 99 98 0 
N 10 19 0 
N 91 67 0 
N 91 11 0 
N 75 8 0 
N 69 58 0 
N 97 15 0 
N 71 69 0 
N 9 29 0 
N 45 68 0 
N 64 95 0 
N 43 39 0 
N 83 15 0 
N 93 90 0 
N 55 88 0 
N 69 72 0 
N 71 54 0 
N 25 92 0 
N 23 78 0 
N 27 47 0 
N 73 72 0 
N 18 77 0 
N 81 13 0 
N 46 69 0 
N 50 47 0 
N 8 57 0 
N 1 81 0 
N 70 95 0 
N 25 98 0 
N 37 27 0 
N 51 83 0 
N 45 23 0 
N 53 65 0 
N 9 26 0 
N 76 13 0 
N 5 75 0 
N 3 12 0 
N 25 12 0 
N 92 89 0 
N 7 86 0 
N 66 45 0 
N 11 45 0 
N 76 99 0 
N 13 11 0 
N 15 77 0 
N 31 61 0 
N 80 45 0 
N 95 43 0 
N 82 17 0 
N 11 40 0 
N 74 81 0 
N 78 5 0 
N 61 9 0 
N 87 88 0 
N 45 93 0 
N 96 51 0 
N 42 61 0 
N 99 83 0 
N 66 93 0 
N 91 41 0 
N 94 71 0 
N 28 33 0 
N 9 99 0 
N 50 75 0 
N 22 81 0 
N 97 85 0 
N 7 69 0 
N 1 3 0 
N 14 45 0 
N 88 37 0 
N 43 63 0 
N 91 39 0 
N 21 1 0 
N 38 89 0 
N 39 79 0 
N 76 15 0 
N 87 89 0 
N 98 25 0 
N 48 77 0 
N 1 99 0 
N 77 35 0 
N 17 41 0 
N 12 19 0 
N 71 28 0 
N 47 90 0 
N 93 68 0 
N 54 3 0 
N 80 83 0 
N 80 89 0 
N 69 32 0 
N 14 11 0 
N 83 55 0 
N 45 62 0 
N 1 67 0 
N 5 70 0 
N 94 55 0 
N 71 83 0 
N 93 75 0 
N 18 19 0 
N 23 76 0 
N 0 93 0 
N 69 69 0 
N 20 89 0 
N 57 73 0 
N 97 26 0 
N 67 79 0 
N 95 25 0 
N 45 37 0 
N 96 29 0 
N 79 7 0 
N 69 91 0 
N 65 28 0 
N 46 95 0 
N 65 9 0 
N 33 69 0 
N 68 27 0 
N 56 39 0 
N 96 85 0 
N 91 60 0 
N 27 60 0 
N 22 67 0 
N 17 8 0 
N 99 25 0 
N 26 17 0 
N 10 75 0 
N 63 72 0 
N 55 67 0 
N 86 89 0 
N 24 85 0 
N 7 59 0 
N 83 27 0 
N 98 71 0 
N 61 28 0 
N 21 45 0 
N 96 83 0 
N 79 41 0 
N 93 54 0 
N 77 31 0 
N 97 71 0 
N 89 85 0 
N 55 46 0 
N 41 27 0 
N 89 80 0 
N 69 63 0 
N 79 58 0 
N 27 31 0 
N 72 85 0 
N 3 37 0 
N 23 14 0 
N 77 59 0 
N 19 71 0 
N 93 56 0 
N 7 23 0 
N 53 51 0 
N 25 1 0 
N 29 12 0 
N 20 71 0 
N 13 69 0 
N 13 14 0 
N 81 92 0 
N 49 60 0 
N 41 89 0 
N 19 25 0 
N 9 33 0 
N 12 25 0 
N 79 46 0 
N 59 37 0 
N 53 26 0 
N 17 81 0 
N 11 69 0 
N 3 35 0 
N 92 47 0 
N 6 25 0 
N 47 79 0 
N 89 91 0 
N 52 41 0 
N 75 49 0 
N 86 79 0 
N 62 43 0 
N 91 99 0 
N 19 11 0 
N 34 89 0 
N 11 5 0 
N 41 45 0 
N 59 59 0 
N 3 27 0 
N 31 36 0 
N 51 71 0 
N 1 31 0 
N 57 76 0 
N 15 17 0 
N 41 75 0 
N 75 28 0 
N 31 80 0 
N 62 25 0 
N 89 89 0 
N 41 38 0 
N 93 11 0 
N 89 9 0 
N 47 10 0 
N 39 25 0 
N 63 93 0 
N 65 14 0 
N 45 13 0 
N 29 75 0 
N 39 39 0 
N 16 67 0 
N 18 47 0 
N 89 49 0 
N 77 95 0 
N 7 61 0 
N 24 89 0 
N 9 1 0 
N 49 59 0 
N 59 9 0 
N 69 81 0 
N 11 46 0 
N 75 9 0 
N 23 89 0 
N 99 75 0 
N 37 53 0 
N 41 4 0 
N 7 31 0 
N 27 99 0 
N 30 77 0 
N 27 7 0 
N 69 38 0 
N 1 10 0 
N 47 27 0 
N 71 78 0 
N 4 15 0 
N 93 50 0 
N 25 73 0 
N 40 13 0 
N 70 9 0 
N 65 25 0 
N 97 3 0 
N 51 90 0 
N 9 46 0 
N 47 33 0 
N 84 7 0 
N 89 47 0 
N 67 26 0 
N 91 52 0 
N 42 31 0 
N 16 99 0 
N 9 95 0 
N 80 7 0 
N 79 69 0 
N 38 31 0 
N 32 37 0 
N 58 7 0 
N 77 46 0 
N 8 19 0 
N 15 95 0 
N 88 5 0 
N 49 89 0 
N 79 95 0 
N 54 87 0 
N 77 27 0 
N 69 89 0 
N 11 51 0 
N 97 65 0 
N 13 18 0 
N 44 27 0 
N 49 32 0 
N 36 1 0 
N 26 99 0 
N 45 59 0 
N 80 21 0 
N 64 31 0 
N 47 76 0 
N 45 29 0 
N 35 33 0 
N 2 35 0 
N 77 16 0 
N 47 41 0 
N 96 43 0 
N 99 42 0 
N 27 83 0 
N 71 13 0 
N 43 82 0 
N 63 27 0 
N 33 67 0 
N 45 10 0 
N 53 46 0 
N 91 13 0 
N 57 31 0 
N 71 94 0 
N 26 1 0 
N 4 93 0 
N 43 13 0 
N 33 77 0 
N 32 69 0 
N 55 49 0 
N 63 49 0 
N 39 27 0 
N 79 49 0 
N 11 27 0 
N 85 99 0 
N 97 82 0 
N 52 91 0 
N 75 29 0 
N 90 49 0 
N 1 34 0 
N 51 3 0 
N 59 28 0 
N 81 89 0 
N 53 78 0 
N 80 91 0 
N 9 67 0 
N 9 49 0 
N 30 63 0 
N 19 85 0 
N 79 39 0 
N 36 65 0 
N 81 73 0 
N 88 45 0 
N 43 29 0 
N 76 11 0 
N 65 7 0 
N 93 7 0 
N 8 39 0 
N 93 13 0 
N 53 45 0 
N 9 54 0 
N 32 31 0 
N 69 49 0 
N 89 42 0 
N 95 81 0 
N 91 28 0 
N 17 89 0 
N 47 65 0 
N 94 67 0 
N 79 15 0 
N 41 47 0 
N 11 65 0 
N 79 26 0 
N 5 25 0 
N 23 87 0 
N 33 27 0 
N 79 19 0 
N 37 69 0 
N 69 50 0 
N 93 58 0 
N 83 45 0 
N 1 7 0 
N 52 87 0 
N 77 68 0 
N 69 7 0 
N 9 63 0 
N 28 1 0 
N 16 69 0 
N 17 44 0 
N 15 28 0 
N 71 80 0 
N 71 89 0 
N 20 67 0 
N 19 69 0 
N 59 80 0 
N 95 82 0 
N 99 29 0 
N 74 19 0 
N 69 30 0 
N 61 33 0 
N 41 61 0 
N 93 70 0 
N 79 70 0 
N 1 5 0 
N 41 83 0 
N 59 35 0 
N 10 27 0 
N 19 89 0 
N 29 65 0 
N 13 12 0 
N 5 27 0 
N 78 67 0 
N 51 79 0 
N 17 71 0 
N 45 90 0 
N 5 13 0 
N 7 3 0 
N 41 15 0 
N 83 19 0 
N 44 47 0 
N 3 69 0 
N 43 89 0 
N 41 69 0 
N 33 10 0 
N 50 63 0 
N 95 39 0 
N 85 95 0 
N 62 29 0 
N 53 41 0 
N 77 24 0 
N 18 91 0 
N 99 27 0 
N 79 23 0 
N 83 13 0 
N 43 87 0 
N 47 23 0 
N 43 17 0 
N 33 26 0 
N 43 79 0 
N 50 39 0 
N 6 63 0 
N 79 17 0 
N 37 80 0 
N 95 70 0 
C 0 0 0 
C 2 0 0 
C 4 0 0 
C 6 0 0 
C 8 0 0 
C 10 0 0 
C 12 0 0 
C 14 0 0 
C 16 0 0 
C 18 0 0 
C 20 0 0 
C 22 0 0 
C 24 0 0 
C 26 0 0 
C 28 0 0 
C 30 0 0 
C 32 0 0 
C 34 0 0 
C 36 0 0 
C 38 0 0 
C 40 0 0 
C 42 0 0 
C 44 0 0 
C 46 0 0 
C 48 0 0 
C 50 0 0 
C 52 0 0 
C 54 0 0 
C 56 0 0 
C 58 0 0 
C 60 0 0 
C 62 0 0 
C 64 0 0 
C 66 0 0 
C 68 0 0 
C 70 0 0 
C 72 0 0 
C 74 0 0 
C 76 0 0 
C 78 0 0 
C 80 0 0 
C 82 0 0 
C 84 0 0 
C 86 0 0 
C 88 0 0 
C 90 0 0 
C 92 0 0 
C 94 0 0 
C 96 0 0 
C 98 0 0 
C 100 0 0 
C 0 2 0 
C 2 2 0 
C 4 2 0 
C 6 2 0 
C 8 2 0 
C 10 2 0 
C 12 2 0 
C 14 2 0 
C 16 2 0 
C 18 2 0 
C 20 2 0 
C 22 2 0 
C 24 2 0 
C 26 2 0 
C 28 2 0 
C 30 2 0 
C 32 2 0 
C 34 2 0 
C 36 2 0 
C 38 2 0 
C 40 2 0 
C 42 2 0 
C 44 2 0 
C 46 2 0 
C 48 2 0 
C 50 2 0 
C 52 2 0 
C 54 2 0 
C 56 2 0 
C 58 2 0 
C 60 2 0 
C 62 2 0 
C 64 2 0 
C 66 2 0 
C 68 2 0 
C 70 2 0 
C 72 2 0 
C 74 2 0 
C 76 2 0 
C 78 2 0 
C 80 2 0 
C 82 2 0 
C 84 2 0 
C 86 2 0 
C 88 2 0 
C 90 2 0 
C 92 2 0 
C 94 2 0 
C 96 2 0 
C 98 2 0 
C 100 2 0 
C 0 4 0 
C 2 4 0 
C 4 4 0 
C 6 4 0 
C 8 4 0 
C 10 4 0 
C 12 4 0 
C 14 4 0 
C 16 4 0 
C 18 4 0 
C 20 4 0 
C 22 4 0 
C 24 4 0 
C 26 4 0 
C 28 4 0 
C 30 4 0 
C 32 4 0 
C 34 4 0 
C 36 4 0 
C 38 4 0 
C 40 4 0 
C 42 4 0 
C 44 4 0 
C 46 4 0 
C 48 4 0 
C 50 4 0 
C 52 4 0 
C 54 4 0 
C 56 4 0 
C 58 4 0 
C 60 4 0 
C 62 4 0 
C 64 4 0 
C 66 4 0 
C 68 4 0 
C 70 4 0 
C 72 4 0 
C 74 4 0 
C 76 4 0 
C 78 4 0 
C 80 4 0 
C 82 4 0 
C 84 4 0 
C 86 4 0 
C 88 4 0 
C 90 4 0 
C 92 4 0 
C 94 4 0 
C 96 4 0 
C 98 4 0 
C 100 4 0 
C 0 6 0 
C 2 6 0 
C 4 6 0 
C 6 6 0 
C 8 6 0 
C 10 6 0 
C 12 6 0 
C 14 6 0 
C 16 6 0 
C 18 6 0 
C 20 6 0 
C 22 6 0 
C 24 6 0 
C 26 6 0 
C 28 6 0 
C 30 6 0 
C 32 6 0 
C 34 6 0 
C 36 6 0 
C 38 6 0 
C 40 6 0 
C 42 6 0 
C 44 6 0 
C 46 6 0 
C 48 6 0 
C 50 6 0 
C 52 6 0 
C 54 6 0 
C 56 6 0 
C 58 6 0 
C 60 6 0 
C 62 6 0 
C 64 6 0 
C 66 6 0 
C 68 6 0 
C 70 6 0 
C 72 6 0 
C 74 6 0 
C 76 6 0 
C 78 6 0 
C 80 6 0 
C 82 6 0 
C 84 6 0 
C 86 6 0 
C 88 6 0 
C 90 6 0 
C 92 6 0 
C 94 6 0 
C 96 6 0 
C 98 6 0 
C 100 6 0 
C 0 8 0 
C 2 8 0 
C 4 8 0 
C 6 8 0 
C 8 8 0 
C 10 8 0 
C 12 8 0 
C 14 8 0 
C 16 8 0 
C 18 8 0 
C 20 8 0 
C 22 8 0 
C 24 8 0 
C 26 8 0 
C 28 8 0 
C 30 8 0 
C 32 8 0 
C 34 8 0 
C 36 8 0 
C 38 8 0 
C 40 8 0 
C 42 8 0 
C 44 8 0 
C 46 8 0 
C 48 8 0 
C 50 8 0 
C 52 8 0 
C 54 8 0 
C 56 8 0 
C 58 8 0 
C 60 8 0 
C 62 8 0 
C 64 8 0 
C 66 8 0 
C 68 8 0 
C 70 8 0 
C 72 8 0 
C 74 8 0 
C 76 8 0 
C 78 8 0 
C 80 8 0 
C 82 8 0 
C 84 8 0 
C 86 8 0 
C 88 8 0 
C 90 8 0 
C 92 8 0 
C 94 8 0 
C 96 8 0 
C 98 8 0 
C 100 8 0 
C 0 10 0 
C 2 10 0 
C 4 10 0 
C 6 10 0 
C 8 10 0 
C 10 10 0 
C 12 10 0 
C 14 10 0 
C 16 10 0 
C 18 10 0 
C 20 10 0 
C 22 10 0 
C 24 10 0 
C 26 10 0 
C 28 10 0 
C 30 10 0 
C 32 10 0 
C 34 10 0 
C 36 10 0 
C 38 10 0 
C 40 10 0 
C 42 10 0 
C 44 10 0 
C 46 10 0 
C 48 10 0 
C 50 10 0 
C 52 10 0 
C 54 10 0 
C 56 10 0 
C 58 10 0 
C 60 10 0 
C 62 10 0 
C 64 10 0 
C 66 10 0 
C 68 10 0 
C 70 10 0 
C 72 10 0 
C 74 10 0 
C 76 10 0 
C 78 10 0 
C 80 10 0 
C 82 10 0 
C 84 10 0 
C 86 10 0 
C 88 10 0 
C 90 10 0 
C 92 10 0 
C 94 10 0 
C 96 10 0 
C 98 10 0 
C 100 10 0 
C 0 12 0 
C 2 12 0 
C 4 12 0 
C 6 12 0 
C 8 12 0 
C 10 12 0 
C 12 12 0 
C 14 12 0 
C 16 12 0 
C 18 12 0 
C 20 12 0 
C 22 12 0 
C 24 12 0 
C 26 12 0 
C 28 12 0 
C 30 12 0 
C 32 12 0 
C 34 12 0 
C 36 12 0 
C 38 12 0 
C 40 12 0 
C 42 12 0 
C 44 12 0 
C 46 12 0 
C 48 12 0 
C 50 12 0 
C 52 12 0 
C 54 12 0 
C 56 12 0 
C 58 12 0 
C 60 12 0 
C 62 12 0 
C 64 12 0 
C 66 12 0 
C 68 12 0 
C 70 12 0 
C 72 12 0 
C 74 12 0 
C 76 12 0 
C 78 12 0 
C 80 12 0 
C 82 12 0 
C 84 12 0 
C 86 12 0 
C 88 12 0 
C 90 12 0 
C 92 12 0 
C 94 12 0 
C 96 12 0 
C 98 12 0 
C 100 12 0 
C 0 14 0 
C 2 14 0 
C 4 14 0 
C 6 14 0 
C 8 14 0 
C 10 14 0 
C 12 14 0 
C 14 14 0 
C 16 14 0 
C 18 14 0 
C 20 14 0 
C 22 14 0 
C 24 14 0 
C 26 14 0 
C 28 14 0 
C 30 14 0 
C 32 14 0 
C 34 14 0 
C 36 14 0 
C 38 14 0 
C 40 14 0 
C 42 14 0 
C 44 14 0 
C 46 14 0 
C 48 14 0 
C 50 14 0 
C 52 14 0 
C 54 14 0 
C 56 14 0 
C 58 14 0 
C 60 14 0 
C 62 14 0 
C 64 14 0 
C 66 14 0 
C 68 14 0 
C 70 14 0 
C 72 14 0 
C 74 14 0 
C 76 14 0 
C 78 14 0 
C 80 14 0 
C 82 14 0 
C 84 14 0 
C 86 14 0 
C 88 14 0 
C 90 14 0 
C 92 14 0 
C 94 14 0 
C 96 14 0 
C 98 14 0 
C 100 14 0 
C 0 16 0 
C 2 16 0 
C 4 16 0 
C 6 16 0 
C 8 16 0 
C 10 16 0 
C 12 16 0 
C 14 16 0 
C 16 16 0 
C 18 16 0 
C 20 16 0 
C 22 16 0 
C 24 16 0 
C 26 16 0 
C 28 16 0 
C 30 16 0 
C 32 16 0 
C 34 16 0 
C 36 16 0 
C 38 16 0 
C 40 16 0 
C 42 16 0 
C 44 16 0 
C 46 16 0 
C 48 16 0 
C 50 16 0 
C 52 16 0 
C 54 16 0 
C 56 16 0 
C 58 16 0 
C 60 16 0 
C 62 16 0 
C 64 16 0 
C 66 16 0 
C 68 16 0 
C 70 16 0 
C 72 16 0 
C 74 16 0 
C 76 16 0 
C 78 16 0 
C 80 16 0 
C 82 16 0 
C 84 16 0 
C 86 16 0 
C 88 16 0 
C 90 16 0 
C 92 16 0 
C 94 16 0 
C 96 16 0 
C 98 16 0 
C 100 16 0 
C 0 18 0 
C 2 18 0 
C 4 18 0 
C 6 18 0 
C 8 18 0 
C 10 18 0 
C 12 18 0 
C 14 18 0 
C 16 18 0 
C 18 18 0 
C 20 18 0 
C 22 18 0 
C 24 18 0 
C 26 18 0 
C 28 18 0 
C 30 18 0 
C 32 18 0 
C 34 18 0 
C 36 18 0 
C 38 18 0 
C 40 18 0 
C 42 18 0 
C 44 18 0 
C 46 18 0 
C 48 18 0 
C 50 18 0 
C 52 18 0 
C 54 18 0 
C 56 18 0 
C 58 18 0 
C 60 18 0 
C 62 18 0 
C 64 18 0 
C 66 18 0 
C 68 18 0 
C 70 18 0 
C 72 18 0 
C 74 18 0 
C 76 18 0 
C 78 18 0 
C 80 18 0 
C 82 18 0 
C 84 18 0 
C 86 18 0 
C 88 18 0 
C 90 18 0 
C 92 18 0 
C 94 18 0 
C 96 18 0 
C 98 18 0 
C 100 18 0 
C 0 20 0 
C 2 20 0 
C 4 20 0 
C 6 20 0 
C 8 20 0 
C 10 20 0 
C 12 20 0 
C 14 20 0 
C 16 20 0 
C 18 20 0 
C 20 20 0 
C 22 20 0 
C 24 20 0 
C 26 20 0 
C 28 20 0 
C 30 20 0 
C 32 20 0 
C 34 20 0 
C 36 20 0 
C 38 20 0 
C 40 20 0 
C 42 20 0 
C 44 20 0 
C 46 20 0 
C 48 20 0 
C 50 20 0 
C 52 20 0 
C 54 20 0 
C 56 20 0 
C 58 20 0 
C 60 20 0 
C 62 20 0 
C 64 20 0 
C 66 20 0 
C 68 20 0 
C 70 20 0 
C 72 20 0 
C 74 20 0 
C 76 20 0 
C 78 20 0 
C 80 20 0 
C 82 20 0 
C 84 20 0 
C 86 20 0 
C 88 20 0 
C 90 20 0 
C 92 20 0 
C 94 20 0 
C 96 20 0 
C 98 20 0 
C 100 20 0 
C 0 22 0 
C 2 22 0 
C 4 22 0 
C 6 22 0 
C 8 22 0 
C 10 22 0 
C 12 22 0 
C 14 22 0 
C 16 22 0 
C 18 22 0 
C 20 22 0 
C 22 22 0 
C 24 22 0 
C 26 22 0 
C 28 22 0 
C 30 22 0 
C 32 22 0 
C 34 22 0 
C 36 22 0 
C 38 22 0 
C 40 22 0 
C 42 22 0 
C 44 22 0 
C 46 22 0 
C 48 22 0 
C 50 22 0 
C 52 22 0 
C 54 22 0 
C 56 22 0 
C 58 22 0 
C 60 22 0 
C 62 22 0 
C 64 22 0 
C 66 22 0 
C 68 22 0 
C 70 22 0 
C 72 22 0 
C 74 22 0 
C 76 22 0 
C 78 22 0 
C 80 22 0 
C 82 22 0 
C 84 22 0 
C 86 22 0 
C 88 22 0 
C 90 22 0 
C 92 22 0 
C 94 22 0 
C 96 22 0 
C 98 22 0 
C 100 22 0 
C 0 24 0 
C 2 24 0 
C 4 24 0 
C 6 24 0 
C 8 24 0 
C 10 24 0 
C 12 24 0 
C 14 24 0 
C 16 24 0 
C 18 24 0 
C 20 24 0 
C 22 24 0 
C 24 24 0 
C 26 24 0 
C 28 24 0 
C 30 24 0 
C 32 24 0 
C 34 24 0 
C 36 24 0 
C 38 24 0 
C 40 24 0 
C 42 24 0 
C 44 24 0 
C 46 24 0 
C 48 24 0 
C 50 24 0 
C 52 24 0 
C 54 24 0 
C 56 24 0 
C 58 24 0 
C 60 24 0 
C 62 24 0 
C 64 24 0 
C 66 24 0 
C 68 24 0 
C 70 24 0 
C 72 24 0 
C 74 24 0 
C 76 24 0 
C 78 24 0 
C 80 24 0 
C 82 24 0 
C 84 24 0 
C 86 24 0 
C 88 24 0 
C 90 24 0 
C 92 24 0 
C 94 24 0 
C 96 24 0 
C 98 24 0 
C 100 24 0 
C 0 26 0 
C 2 26 0 
C 4 26 0 
C 6 26 0 
C 8 26 0 
C 10 26 0 
C 12 26 0 
C 14 26 0 
C 16 26 0 
C 18 26 0 
C 20 26 0 
C 22 26 0 
C 24 26 0 
C 26 26 0 
C 28 26 0 
C 30 26 0 
C 32 26 0 
C 34 26 0 
C 36 26 0 
C 38 26 0 
C 40 26 0 
C 42 26 0 
C 44 26 0 
C 46 26 0 
C 48 26 0 
C 50 26 0 
C 52 26 0 
C 54 26 0 
C 56 26 0 
C 58 26 0 
C 60 26 0 
C 62 26 0 
C 64 26 0 
C 66 26 0 
C 68 26 0 
C 70 26 0 
C 72 26 0 
C 74 26 0 
C 76 26 0 
C 78 26 0 
C 80 26 0 
C 82 26 0 
C 84 26 0 
C 86 26 0 
C 88 26 0 
C 90 26 0 
C 92 26 0 
C 94 26 0 
C 96 26 0 
C 98 26 0 
C 100 26 0 
C 0 28 0 
C 2 28 0 
C 4 28 0 
C 6 28 0 
C 8 28 0 
C 10 28 0 
C 12 28 0 
C 14 28 0 
C 16 28 0 
C 18 28 0 
C 20 28 0 
C 22 28 0 
C 24 28 0 
C 26 28 0 
C 28 28 0 
C 30 28 0 
C 32 28 0 
C 34 28 0 
C 36 28 0 
C 38 28 0 
C 40 28 0 
C 42 28 0 
C 44 28 0 
C 46 28 0 
C 48 28 0 
C 50 28 0 
C 52 28 0 
C 54 28 0 
C 56 28 0 
C 58 28 0 
C 60 28 0 
C 62 28 0 
C 64 28 0 
C 66 28 0 
C 68 28 0 
C 70 28 0 
C 72 28 0 
C 74 28 0 
C 76 28 0 
C 78 28 0 
C 80 28 0 
C 82 28 0 
C 84 28 0 
C 86 28 0 
C 88 28 0 
C 90 28 0 
C 92 28 0 
C 94 28 0 
C 96 28 0 
C 98 28 0 
C 100 28 0 
C 0 30 0 
C 2 30 0 
C 4 30 0 
C 6 30 0 
C 8 30 0 
C 10 30 0 
C 12 30 0 
C 14 30 0 
C 16 30 0 
C 18 30 0 
C 20 30 0 
C 22 30 0 
C 24 30 0 
C 26 30 0 
C 28 30 0 
C 30 30 0 
C 32 30 0 
C 34 30 0 
C 36 30 0 
C 38 30 0 
C 40 30 0 
C 42 30 0 
C 44 30 0 
C 46 30 0 
C 48 30 0 
C 50 30 0 
C 52 30 0 
C 54 30 0 
C 56 30 0 
C 58 30 0 
C 60 30 0 
C 62 30 0 
C 64 30 0 
C 66 30 0 
C 68 30 0 
C 70 30 0 
C 72 30 0 
C 74 30 0 
C 76 30 0 
C 78 30 0 
C 80 30 0 
C 82 30 0 
C 84 30 0 
C 86 30 0 
C 88 30 0 
C 90 30 0 
C 92 30 0 
C 94 30 0 
C 96 30 0 
C 98 30 0 
C 100 30 0 
C 0 32 0 
C 2 32 0 
C 4 32 0 
C 6 32 0 
C 8 32 0 
C 10 32 0 
C 12 32 0 
C 14 32 0 
C 16 32 0 
C 18 32 0 
C 20 32 0 
C 22 32 0 
C 24 32 0 
C 26 32 0 
C 28 32 0 
C 30 32 0 
C 32 32 0 
C 34 32 0 
C 36 32 0 
C 38 32 0 
C 40 32 0 
C 42 32 0 
C 44 32 0 
C 46 32 0 
C 48 32 0 
C 50 32 0 
C 52 32 0 
C 54 32 0 
C 56 32 0 
C 58 32 0 
C 60 32 0 
C 62 32 0 
C 64 32 0 
C 66 32 0 
C 68 32 0 
C 70 32 0 
C 72 32 0 
C 74 32 0 
C 76 32 0 
C 78 32 0 
C 80 32 0 
C 82 32 0 
C 84 32 0 
C 86 32 0 
C 88 32 0 
C 90 32 0 
C 92 32 0 
C 94 32 0 
C 96 32 0 
C 98 32 0 
C 100 32 0 
C 0 34 0 
C 2 34 0 
C 4 34 0 
C 6 34 0 
C 8 34 0 
C 10 34 0 
C 12 34 0 
C 14 34 0 
C 16 34 0 
C 18 34 0 
C 20 34 0 
C 22 34 0 
C 24 34 0 
C 26 34 0 
C 28 34 0 
C 30 34 0 
C 32 34 0 
C 34 34 0 
C 36 34 0 
C 38 34 0 
C 40 34 0 
C 42 34 0 
C 44 34 0 
C 46 34 0 
C 48 34 0 
C 50 34 0 
C 52 34 0 
C 54 34 0 
C 56 34 0 
C 58 34 0 
C 60 34 0 
C 62 34 0 
C 64 34 0 
C 66 34 0 
C 68 34 0 
C 70 34 0 
C 72 34 0 
C 74 34 0 
C 76 34 0 
C 78 34 0 
C 80 34 0 
C 82 34 0 
C 84 34 0 
C 86 34 0 
C 88 34 0 
C 90 34 0 
C 92 34 0 
C 94 34 0 
C 96 34 0 
C 98 34 0 
C 100 34 0 
C 0 36 0 
C 2 36 0 
C 4 36 0 
C 6 36 0 
C 8 36 0 
C 10 36 0 
C 12 36 0 
C 14 36 0 
C 16 36 0 
C 18 36 0 
C 20 36 0 
C 22 36 0 
C 24 36 0 
C 26 36 0 
C 28 36 0 
C 30 36 0 
C 32 36 0 
C 34 36 0 
C 36 36 0 
C 38 36 0 
C 40 36 0 
C 42 36 0 
C 44 36 0 
C 46 36 0 
C 48 36 0 
C 50 36 0 
C 52 36 0 
C 54 36 0 
C 56 36 0 
C 58 36 0 
C 60 36 0 
C 62 36 0 
C 64 36 0 
C 66 36 0 
C 68 36 0 
C 70 36 0 
C 72 36 0 
C 74 36 0 
C 76 36 0 
C 78 36 0 
C 80 36 0 
C 82 36 0 
C 84 36 0 
C 86 36 0 
C 88 36 0 
C 90 36 0 
C 92 36 0 
C 94 36 0 
C 96 36 0 
C 98 36 0 
C 100 36 0 
C 0 38 0 
C 2 38 0 
C 4 38 0 
C 6 38 0 
C 8 38 0 
C 10 38 0 
C 12 38 0 
C 14 38 0 
C 16 38 0 
C 18 38 0 
C 20 38 0 
C 22 38 0 
C 24 38 0 
C 26 38 0 
C 28 38 0 
C 30 38 0 
C 32 38 0 
C 34 38 0 
C 36 38 0 
C 38 38 0 
C 40 38 0 
C 42 38 0 
C 44 38 0 
C 46 38 0 
C 48 38 0 
C 50 38 0 
C 52 38 0 
C 54 38 0 
C 56 38 0 
C 58 38 0 
C 60 38 0 
C 62 38 0 
C 64 38 0 
C 66 38 0 
C 68 38 0 
C 70 38 0 
C 72 38 0 
C 74 38 0 
C 76 38 0 
C 78 38 0 
C 80 38 0 
C 82 38 0 
C 84 38 0 
C 86 38 0 
C 88 38 0 
C 90 38 0 
C 92 38 0 
C 94 38 0 
C 96 38 0 
C 98 38 0 
C 100 38 0 
C 0 40 0 
C 2 40 0 
C 4 40 0 
C 6 40 0 
C 8 40 0 
C 10 40 0 
C 12 40 0 
C 14 40 0 
C 16 40 0 
C 18 40 0 
C 20 40 0 
C 22 40 0 
C 24 40 0 
C 26 40 0 
C 28 40 0 
C 30 40 0 
C 32 40 0 
C 34 40 0 
C 36 40 0 
C 38 40 0 
C 40 40 0 
C 42 40 0 
C 44 40 0 
C 46 40 0 
C 48 40 0 
C 50 40 0 
C 52 40 0 
C 54 40 0 
C 56 40 0 
C 58 40 0 
C 60 40 0 
C 62 40 0 
C 64 40 0 
C 66 40 0 
C 68 40 0 
C 70 40 0 
C 72 40 0 
C 74 40 0 
C 76 40 0 
C 78 40 0 
C 80 40 0 
C 82 40 0 
C 84 40 0 
C 86 40 0 
C 88 40 0 
C 90 40 0 
C 92 40 0 
C 94 40 0 
C 96 40 0 
C 98 40 0 
C 100 40 0 
C 0 42 0 
C 2 42 0 
C 4 42 0 
C 6 42 0 
C 8 42 0 
C 10 42 0 
C 12 42 0 
C 14 42 0 
C 16 42 0 
C 18 42 0 
C 20 42 0 
C 22 42 0 
C 24 42 0 
C 26 42 0 
C 28 42 0 
C 30 42 0 
C 32 42 0 
C 34 42 0 
C 36 42 0 
C 38 42 0 
C 40 42 0 
C 42 42 0 
C 44 42 0 
C 46 42 0 
C 48 42 0 
C 50 42 0 
C 52 42 0 
C 54 42 0 
C 56 42 0 
C 58 42 0 
C 60 42 0 
C 62 42 0 
C 64 42 0 
C 66 42 0 
C 68 42 0 
C 70 42 0 
C 72 42 0 
C 74 42 0 
C 76 42 0 
C 78 42 0 
C 80 42 0 
C 82 42 0 
C 84 42 0 
C 86 42 0 
C 88 42 0 
C 90 42 0 
C 92 42 0 
C 94 42 0 
C 96 42 0 
C 98 42 0 
C 100 42 0 
C 0 44 0 
C 2 44 0 
C 4 44 0 
C 6 44 0 
C 8 44 0 
C 10 44 0 
C 12 44 0 
C 14 44 0 
C 16 44 0 
C 18 44 0 
C 20 44 0 
C 22 44 0 
C 24 44 0 
C 26 44 0 
C 28 44 0 
C 30 44 0 
C 32 44 0 
C 34 44 0 
C 36 44 0 
C 38 44 0 
C 40 44 0 
C 42 44 0 
C 44 44 0 
C 46 44 0 
C 48 44 0 
C 50 44 0 
C 52 44 0 
C 54 44 0 
C 56 44 0 
C 58 44 0 
C 60 44 0 
C 62 44 0 
C 64 44 0 
C 66 44 0 
C 68 44 0 
C 70 44 0 
C 72 44 0 
C 74 44 0 
C 76 44 0 
C 78 44 0 
C 80 44 0 
C 82 44 0 
C 84 44 0 
C 86 44 0 
C 88 44 0 
C 90 44 0 
C 92 44 0 
C 94 44 0 
C 96 44 0 
C 98 44 0 
C 100 44 0 
C 0 46 0 
C 2 46 0 
C 4 46 0 
C 6 46 0 
C 8 46 0 
C 10 46 0 
C 12 46 0 
C 14 46 0 
C 16 46 0 
C 18 46 0 
C 20 46 0 
C 22 46 0 
C 24 46 0 
C 26 46 0 
C 28 46 0 
C 30 46 0 
C 32 46 0 
C 34 46 0 
C 36 46 0 
C 38 46 0 
C 40 46 0 
C 42 46 0 
C 44 46 0 
C 46 46 0 
C 48 46 0 
C 50 46 0 
C 52 46 0 
C 54 46 0 
C 56 46 0 
C 58 46 0 
C 60 46 0 
C 62 46 0 
C 64 46 0 
C 66 46 0 
C 68 46 0 
C 70 46 0 
C 72 46 0 
C 74 46 0 
C 76 46 0 
C 78 46 0 
C 80 46 0 
C 82 46 0 
C 84 46 0 
C 86 46 0 
C 88 46 0 
C 90 46 0 
C 92 46 0 
C 94 46 0 
C 96 46 0 
C 98 46 0 
C 100 46 0 
C 0 48 0 
C 2 48 0 
C 4 48 0 
C 6 48 0 
C 8 48 0 
C 10 48 0 
C 12 48 0 
C 14 48 0 
C 16 48 0 
C 18 48 0 
C 20 48 0 
C 22 48 0 
C 24 48 0 
C 26 48 0 
C 28 48 0 
C 30 48 0 
C 32 48 0 
C 34 48 0 
C 36 48 0 
C 38 48 0 
C 40 48 0 
C 42 48 0 
C 44 48 0 
C 46 48 0 
C 48 48 0 
C 50 48 0 
C 52 48 0 
C 54 48 0 
C 56 48 0 
C 58 48 0 
C 60 48 0 
C 62 48 0 
C 64 48 0 
C 66 48 0 
C 68 48 0 
C 70 48 0 
C 72 48 0 
C 74 48 0 
C 76 48 0 
C 78 48 0 
C 80 48 0 
C 82 48 0 
C 84 48 0 
C 86 48 0 
C 88 48 0 
C 90 48 0 
C 92 48 0 
C 94 48 0 
C 96 48 0 
C 98 48 0 
C 100 48 0 
C 0 50 0 
C 2 50 0 
C 4 50 0 
C 6 50 0 
C 8 50 0 
C 10 50 0 
C 12 50 0 
C 14 50 0 
C 16 50 0 
C 18 50 0 
C 20 50 0 
C 22 50 0 
C 24 50 0 
C 26 50 0 
C 28 50 0 
C 30 50 0 
C 32 50 0 
C 34 50 0 
C 36 50 0 
C 38 50 0 
C 40 50 0 
C 42 50 0 
C 44 50 0 
C 46 50 0 
C 48 50 0 
C 50 50 0 
C 52 50 0 
C 54 50 0 
C 56 50 0 
C 58 50 0 
C 60 50 0 
C 62 50 0 
C 64 50 0 
C 66 50 0 
C 68 50 0 
C 70 50 0 
C 72 50 0 
C 74 50 0 
C 76 50 0 
C 78 50 0 
C 80 50 0 
C 82 50 0 
C 84 50 0 
C 86 50 0 
C 88 50 0 
C 90 50 0 
C 92 50 0 
C 94 50 0 
C 96 50 0 
C 98 50 0 
C 100 50 0 
C 0 52 0 
C 2 52 0 
C 4 52 0 
C 6 52 0 
C 8 52 0 
C 10 52 0 
C 12 52 0 
C 14 52 0 
C 16 52 0 
C 18 52 0 
C 20 52 0 
C 22 52 0 
C 24 52 0 
C 26 52 0 
C 28 52 0 
C 30 52 0 
C 32 52 0 
C 34 52 0 
C 36 52 0 
C 38 52 0 
C 40 52 0 
C 42 52 0 
C 44 52 0 
C 46 52 0 
C 48 52 0 
C 50 52 0 
C 52 52 0 
C 54 52 0 
C 56 52 0 
C 58 52 0 
C 60 52 0 
C 62 52 0 
C 64 52 0 
C 66 52 0 
C 68 52 0 
C 70 52 0 
C 72 52 0 
C 74 52 0 
C 76 52 0 
C 78 52 0 
C 80 52 0 
C 82 52 0 
C 84 52 0 
C 86 52 0 
C 88 52 0 
C 90 52 0 
C 92 52 0 
C 94 52 0 
C 96 52 0 
C 98 52 0 
C 100 52 0 
C 0 54 0 
C 2 54 0 
C 4 54 0 
C 6 54 0 
C 8 54 0 
C 10 54 0 
C 12 54 0 
C 14 54 0 
C 16 54 0 
C 18 54 0 
C 20 54 0 
C 22 54 0 
C 24 54 0 
C 26 54 0 
C 28 54 0 
C 30 54 0 
C 32 54 0 
C 34 54 0 
C 36 54 0 
C 38 54 0 
C 40 54 0 
C 42 54 0 
C 44 54 0 
C 46 54 0 
C 48 54 0 
C 50 54 0 
C 52 54 0 
C 54 54 0 
C 56 54 0 
C 58 54 0 
C 60 54 0 
C 62 54 0 
C 64 54 0 
C 66 54 0 
C 68 54 0 
C 70 54 0 
C 72 54 0 
C 74 54 0 
C 76 54 0 
C 78 54 0 
C 80 54 0 
C 82 54 0 
C 84 54 0 
C 86 54 0 
C 88 54 0 
C 90 54 0 
C 92 54 0 
C 94 54 0 
C 96 54 0 
C 98 54 0 
C 100 54 0 
C 0 56 0 
C 2 56 0 
C 4 56 0 
C 6 56 0 
C 8 56 0 
C 10 56 0 
C 12 56 0 
C 14 56 0 
C 16 56 0 
C 18 56 0 
C 20 56 0 
C 22 56 0 
C 24 56 0 
C 26 56 0 
C 28 56 0 
C 30 56 0 
C 32 56 0 
C 34 56 0 
C 36 56 0 
C 38 56 0 
C 40 56 0 
C 42 56 0 
C 44 56 0 
C 46 56 0 
C 48 56 0 
C 50 56 0 
C 52 56 0 
C 54 56 0 
C 56 56 0 
C 58 56 0 
C 60 56 0 
C 62 56 0 
C 64 56 0 
C 66 56 0 
C 68 56 0 
C 70 56 0 
C 72 56 0 
C 74 56 0 
C 76 56 0 
C 78 56 0 
C 80 56 0 
C 82 56 0 
C 84 56 0 
C 86 56 0 
C 88 56 0 
C 90 56 0 
C 92 56 0 
C 94 56 0 
C 96 56 0 
C 98 56 0 
C 100 56 0 
C 0 58 0 
C 2 58 0 
C 4 58 0 
C 6 58 0 
C 8 58 0 
C 10 58 0 
C 12 58 0 
C 14 58 0 
C 16 58 0 
C 18 58 0 
C 20 58 0 
C 22 58 0 
C 24 58 0 
C 26 58 0 
C 28 58 0 
C 30 58 0 
C 32 58 0 
C 34 58 0 
C 36 58 0 
C 38 58 0 
C 40 58 0 
C 42 58 0 
C 44 58 0 
C 46 58 0 
C 48 58 0 
C 50 58 0 
C 52 58 0 
C 54 58 0 
C 56 58 0 
C 58 58 0 
C 60 58 0 
C 62 58 0 
C 64 58 0 
C 66 58 0 
C 68 58 0 
C 70 58 0 
C 72 58 0 
C 74 58 0 
C 76 58 0 
C 78 58 0 
C 80 58 0 
C 82 58 0 
C 84 58 0 
C 86 58 0 
C 88 58 0 
C 90 58 0 
C 92 58 0 
C 94 58 0 
C 96 58 0 
C 98 58 0 
C 100 58 0 
C 0 60 0 
C 2 60 0 
C 4 60 0 
C 6 60 0 
C 8 60 0 
C 10 60 0 
C 12 60 0 
C 14 60 0 
C 16 60 0 
C 18 60 0 
C 20 60 0 
C 22 60 0 
C 24 60 0 
C 26 60 0 
C 28 60 0 
C 30 60 0 
C 32 60 0 
C 34 60 0 
C 36 60 0 
C 38 60 0 
C 40 60 0 
C 42 60 0 
C 44 60 0 
C 46 60 0 
C 48 60 0 
C 50 60 0 
C 52 60 0 
C 54 60 0 
C 56 60 0 
C 58 60 0 
C 60 60 0 
C 62 60 0 
C 64 60 0 
C 66 60 0 
C 68 60 0 
C 70 60 0 
C 72 60 0 
C 74 60 0 
C 76 60 0 
C 78 60 0 
C 80 60 0 
C 82 60 0 
C 84 60 0 
C 86 60 0 
C 88 60 0 
C 90 60 0 
C 92 60 0 
C 94 60 0 
C 96 60 0 
C 98 60 0 
C 100 60 0 
C 0 62 0 
C 2 62 0 
C 4 62 0 
C 6 62 0 
C 8 62 0 
C 10 62 0 
C 12 62 0 
C 14 62 0 
C 16 62 0 
C 18 62 0 
C 20 62 0 
C 22 62 0 
C 24 62 0 
C 26 62 0 
C 28 62 0 
C 30 62 0 
C 32 62 0 
C 34 62 0 
C 36 62 0 
C 38 62 0 
C 40 62 0 
C 42 62 0 
C 44 62 0 
C 46 62 0 
C 48 62 0 
C 50 62 0 
C 52 62 0 
C 54 62 0 
C 56 62 0 
C 58 62 0 
C 60 62 0 
C 62 62 0 
C 64 62 0 
C 66 62 0 
C 68 62 0 
C 70 62 0 
C 72 62 0 
C 74 62 0 
C 76 62 0 
C 78 62 0 
C 80 62 0 
C 82 62 0 
C 84 62 0 
C 86 62 0 
C 88 62 0 
C 90 62 0 
C 92 62 0 
C 94 62 0 
C 96 62 0 
C 98 62 0 
C 100 62 0 
C 0 64 0 
C 2 64 0 
C 4 64 0 
C 6 64 0 
C 8 64 0 
C 10 64 0 
C 12 64 0 
C 14 64 0 
C 16 64 0 
C 18 64 0 
C 20 64 0 
C 22 64 0 
C 24 64 0 
C 26 64 0 
C 28 64 0 
C 30 64 0 
C 32 64 0 
C 34 64 0 
C 36 64 0 
C 38 64 0 
C 40 64 0 
C 42 64 0 
C 44 64 0 
C 46 64 0 
C 48 64 0 
C 50 64 0 
C 52 64 0 
C 54 64 0 
C 56 64 0 
C 58 64 0 
C 60 64 0 
C 62 64 0 
C 64 64 0 
C 66 64 0 
C 68 64 0 
C 70 64 0 
C 72 64 0 
C 74 64 0 
C 76 64 0 
C 78 64 0 
C 80 64 0 
C 82 64 0 
C 84 64 0 
C 86 64 0 
C 88 64 0 
C 90 64 0 
C 92 64 0 
C 94 64 0 
C 96 64 0 
C 98 64 0 
C 100 64 0 
C 0 66 0 
C 2 66 0 
C 4 66 0 
C 6 66 0 
C 8 66 0 
C 10 66 0 
C 12 66 0 
C 14 66 0 
C 16 66 0 
C 18 66 0 
C 20 66 0 
C 22 66 0 
C 24 66 0 
C 26 66 0 
C 28 66 0 
C 30 66 0 
C 32 66 0 
C 34 66 0 
C 36 66 0 
C 38 66 0 
C 40 66 0 
C 42 66 0 
C 44 66 0 
C 46 66 0 
C 48 66 0 
C 50 66 0 
C 52 66 0 
C 54 66 0 
C 56 66 0 
C 58 66 0 
C 60 66 0 
C 62 66 0 
C 64 66 0 
C 66 66 0 
C 68 66 0 
C 70 66 0 
C 72 66 0 
C 74 66 0 
C 76 66 0 
C 78 66 0 
C 80 66 0 
C 82 66 0 
C 84 66 0 
C 86 66 0 
C 88 66 0 
C 90 66 0 
C 92 66 0 
C 94 66 0 
C 96 66 0 
C 98 66 0 
C 100 66 0 
C 0 68 0 
C 2 68 0 
C 4 68 0 
C 6 68 0 
C 8 68 0 
C 10 68 0 
C 12 68 0 
C 14 68 0 
C 16 68 0 
C 18 68 0 
C 20 68 0 
C 22 68 0 
C 24 68 0 
C 26 68 0 
C 28 68 0 
C 30 68 0 
C 32 68 0 
C 34 68 0 
C 36 68 0 
C 38 68 0 
C 40 68 0 
C 42 68 0 
C 44 68 0 
C 46 68 0 
C 48 68 0 
C 50 68 0 
C 52 68 0 
C 54 68 0 
C 56 68 0 
C 58 68 0 
C 60 68 0 
C 62 68 0 
C 64 68 0 
C 66 68 0 
C 68 68 0 
C 70 68 0 
C 72 68 0 
C 74 68 0 
C 76 68 0 
C 78 68 0 
C 80 68 0 
C 82 68 0 
C 84 68 0 
C 86 68 0 
C 88 68 0 
C 90 68 0 
C 92 68 0 
C 94 68 0 
C 96 68 0 
C 98 68 0 
C 100 68 0 
C 0 70 0 
C 2 70 0 
C 4 70 0 
C 6 70 0 
C 8 70 0 
C 10 70 0 
C 12 70 0 
C 14 70 0 
C 16 70 0 
C 18 70 0 
C 20 70 0 
C 22 70 0 
C 24 70 0 
C 26 70 0 
C 28 70 0 
C 30 70 0 
C 32 70 0 
C 34 70 0 
C 36 70 0 
C 38 70 0 
C 40 70 0 
C 42 70 0 
C 44 70 0 
C 46 70 0 
C 48 70 0 
C 50 70 0 
C 52 70 0 
C 54 70 0 
C 56 70 0 
C 58 70 0 
C 60 70 0 
C 62 70 0 
C 64 70 0 
C 66 70 0 
C 68 70 0 
C 70 70 0 
C 72 70 0 
C 74 70 0 
C 76 70 0 
C 78 70 0 
C 80 70 0 
C 82 70 0 
C 84 70 0 
C 86 70 0 
C 88 70 0 
C 90 70 0 
C 92 70 0 
C 94 70 0 
C 96 70 0 
C 98 70 0 
C 100 70 0 
C 0 72 0 
C 2 72 0 
C 4 72 0 
C 6 72 0 
C 8 72 0 
C 10 72 0 
C 12 72 0 
C 14 72 0 
C 16 72 0 
C 18 72 0 
C 20 72 0 
C 22 72 0 
C 24 72 0 
C 26 72 0 
C 28 72 0 
C 30 72 0 
C 32 72 0 
C 34 72 0 
C 36 72 0 
C 38 72 0 
C 40 72 0 
C 42 72 0 
C 44 72 0 
C 46 72 0 
C 48 72 0 
C 50 72 0 
C 52 72 0 
C 54 72 0 
C 56 72 0 
C 58 72 0 
C 60 72 0 
C 62 72 0 
C 64 72 0 
C 66 72 0 
C 68 72 0 
C 70 72 0 
C 72 72 0 
C 74 72 0 
C 76 72 0 
C 78 72 0 
C 80 72 0 
C 82 72 0 
C 84 72 0 
C 86 72 0 
C 88 72 0 
C 90 72 0 
C 92 72 0 
C 94 72 0 
C 96 72 0 
C 98 72 0 
C 100 72 0 
C 0 74 0 
C 2 74 0 
C 4 74 0 
C 6 74 0 
C 8 74 0 
C 10 74 0 
C 12 74 0 
C 14 74 0 
C 16 74 0 
C 18 74 0 
C 20 74 0 
C 22 74 0 
C 24 74 0 
C 26 74 0 
C 28 74 0 
C 30 74 0 
C 32 74 0 
C 34 74 0 
C 36 74 0 
C 38 74 0 
C 40 74 0 
C 42 74 0 
C 44 74 0 
C 46 74 0 
C 48 74 0 
C 50 74 0 
C 52 74 0 
C 54 74 0 
C 56 74 0 
C 58 74 0 
C 60 74 0 
C 62 74 0 
C 64 74 0 
C 66 74 0 
C 68 74 0 
C 70 74 0 
C 72 74 0 
C 74 74 0 
C 76 74 0 
C 78 74 0 
C 80 74 0 
C 82 74 0 
C 84 74 0 
C 86 74 0 
C 88 74 0 
C 90 74 0 
C 92 74 0 
C 94 74 0 
C 96 74 0 
C 98 74 0 
C 100 74 0 
C 0 76 0 
C 2 76 0 
C 4 76 0 
C 6 76 0 
C 8 76 0 
C 10 76 0 
C 12 76 0 
C 14 76 0 
C 16 76 0 
C 18 76 0 
C 20 76 0 
C 22 76 0 
C 24 76 0 
C 26 76 0 
C 28 76 0 
C 30 76 0 
C 32 76 0 
C 34 76 0 
C 36 76 0 
C 38 76 0 
C 40 76 0 
C 42 76 0 
C 44 76 0 
C 46 76 0 
C 48 76 0 
C 50 76 0 
C 52 76 0 
C 54 76 0 
C 56 76 0 
C 58 76 0 
C 60 76 0 
C 62 76 0 
C 64 76 0 
C 66 76 0 
C 68 76 0 
C 70 76 0 
C 72 76 0 
C 74 76 0 
C 76 76 0 
C 78 76 0 
C 80 76 0 
C 82 76 0 
C 84 76 0 
C 86 76 0 
C 88 76 0 
C 90 76 0 
C 92 76 0 
C 94 76 0 
C 96 76 0 
C 98 76 0 
C 100 76 0 
C 0 78 0 
C 2 78 0 
C 4 78 0 
C 6 78 0 
C 8 78 0 
C 10 78 0 
C 12 78 0 
C 14 78 0 
C 16 78 0 
C 18 78 0 
C 20 78 0 
C 22 78 0 
C 24 78 0 
C 26 78 0 
C 28 78 0 
C 30 78 0 
C 32 78 0 
C 34 78 0 
C 36 78 0 
C 38 78 0 
C 40 78 0 
C 42 78 0 
C 44 78 0 
C 46 78 0 
C 48 78 0 
C 50 78 0 
C 52 78 0 
C 54 78 0 
C 56 78 0 
C 58 78 0 
C 60 78 0 
C 62 78 0 
C 64 78 0 
C 66 78 0 
C 68 78 0 
C 70 78 0 
C 72 78 0 
C 74 78 0 
C 76 78 0 
C 78 78 0 
C 80 78 0 
C 82 78 0 
C 84 78 0 
C 86 78 0 
C 88 78 0 
C 90 78 0 
C 92 78 0 
C 94 78 0 
C 96 78 0 
C 98 78 0 
C 100 78 0 
C 0 80 0 
C 2 80 0 
C 4 80 0 
C 6 80 0 
C 8 80 0 
C 10 80 0 
C 12 80 0 
C 14 80 0 
C 16 80 0 
C 18 80 0 
C 20 80 0 
C 22 80 0 
C 24 80 0 
C 26 80 0 
C 28 80 0 
C 30 80 0 
C 32 80 0 
C 34 80 0 
C 36 80 0 
C 38 80 0 
C 40 80 0 
C 42 80 0 
C 44 80 0 
C 46 80 0 
C 48 80 0 
C 50 80 0 
C 52 80 0 
C 54 80 0 
C 56 80 0 
C 58 80 0 
C 60 80 0 
C 62 80 0 
C 64 80 0 
C 66 80 0 
C 68 80 0 
C 70 80 0 
C 72 80 0 
C 74 80 0 
C 76 80 0 
C 78 80 0 
C 80 80 0 
C 82 80 0 
C 84 80 0 
C 86 80 0 
C 88 80 0 
C 90 80 0 
C 92 80 0 
C 94 80 0 
C 96 80 0 
C 98 80 0 
C 100 80 0 
C 0 82 0 
C 2 82 0 
C 4 82 0 
C 6 82 0 
C 8 82 0 
C 10 82 0 
C 12 82 0 
C 14 82 0 
C 16 82 0 
C 18 82 0 
C 20 82 0 
C 22 82 0 
C 24 82 0 
C 26 82 0 
C 28 82 0 
C 30 82 0 
C 32 82 0 
C 34 82 0 
C 36 82 0 
C 38 82 0 
C 40 82 0 
C 42 82 0 
C 44 82 0 
C 46 82 0 
C 48 82 0 
C 50 82 0 
C 52 82 0 
C 54 82 0 
C 56 82 0 
C 58 82 0 
C 60 82 0 
C 62 82 0 
C 64 82 0 
C 66 82 0 
C 68 82 0 
C 70 82 0 
C 72 82 0 
C 74 82 0 
C 76 82 0 
C 78 82 0 
C 80 82 0 
C 82 82 0 
C 84 82 0 
C 86 82 0 
C 88 82 0 
C 90 82 0 
C 92 82 0 
C 94 82 0 
C 96 82 0 
C 98 82 0 
C 100 82 0 
C 0 84 0 
C 2 84 0 
C 4 84 0 
C 6 84 0 
C 8 84 0 
C 10 84 0 
C 12 84 0 
C 14 84 0 
C 16 84 0 
C 18 84 0 
C 20 84 0 
C 22 84 0 
C 24 84 0 
C 26 84 0 
C 28 84 0 
C 30 84 0 
C 32 84 0 
C 34 84 0 
C 36 84 0 
C 38 84 0 
C 40 84 0 
C 42 84 0 
C 44 84 0 
C 46 84 0 
C 48 84 0 
C 50 84 0 
C 52 84 0 
C 54 84 0 
C 56 84 0 
C 58 84 0 
C 60 84 0 
C 62 84 0 
C 64 84 0 
C 66 84 0 
C 68 84 0 
C 70 84 0 
C 72 84 0 
C 74 84 0 
C 76 84 0 
C 78 84 0 
C 80 84 0 
C 82 84 0 
C 84 84 0 
C 86 84 0 
C 88 84 0 
C 90 84 0 
C 92 84 0 
C 94 84 0 
C 96 84 0 
C 98 84 0 
C 100 84 0 
C 0 86 0 
C 2 86 0 
C 4 86 0 
C 6 86 0 
C 8 86 0 
C 10 86 0 
C 12 86 0 
C 14 86 0 
C 16 86 0 
C 18 86 0 
C 20 86 0 
C 22 86 0 
C 24 86 0 
C 26 86 0 
C 28 86 0 
C 30 86 0 
C 32 86 0 
C 34 86 0 
C 36 86 0 
C 38 86 0 
C 40 86 0 
C 42 86 0 
C 44 86 0 
C 46 86 0 
C 48 86 0 
C 50 86 0 
C 52 86 0 
C 54 86 0 
C 56 86 0 
C 58 86 0 
C 60 86 0 
C 62 86 0 
C 64 86 0 
C 66 86 0 
C 68 86 0 
C 70 86 0 
C 72 86 0 
C 74 86 0 
C 76 86 0 
C 78 86 0 
C 80 86 0 
C 82 86 0 
C 84 86 0 
C 86 86 0 
C 88 86 0 
C 90 86 0 
C 92 86 0 
C 94 86 0 
C 96 86 0 
C 98 86 0 
C 100 86 0 
C 0 88 0 
C 2 88 0 
C 4 88 0 
C 6 88 0 
C 8 88 0 
C 10 88 0 
C 12 88 0 
C 14 88 0 
C 16 88 0 
C 18 88 0 
C 20 88 0 
C 22 88 0 
C 24 88 0 
C 26 88 0 
C 28 88 0 
C 30 88 0 
C 32 88 0 
C 34 88 0 
C 36 88 0 
C 38 88 0 
C 40 88 0 
C 42 88 0 
C 44 88 0 
C 46 88 0 
C 48 88 0 
C 50 88 0 
C 52 88 0 
C 54 88 0 
C 56 88 0 
C 58 88 0 
C 60 88 0 
C 62 88 0 
C 64 88 0 
C 66 88 0 
C 68 88 0 
C 70 88 0 
C 72 88 0 
C 74 88 0 
C 76 88 0 
C 78 88 0 
C 80 88 0 
C 82 88 0 
C 84 88 0 
C 86 88 0 
C 88 88 0 
C 90 88 0 
C 92 88 0 
C 94 88 0 
C 96 88 0 
C 98 88 0 
C 100 88 0 
C 0 90 0 
C 2 90 0 
C 4 90 0 
C 6 90 0 
C 8 90 0 
C 10 90 0 
C 12 90 0 
C 14 90 0 
C 16 90 0 
C 18 90 0 
C 20 90 0 
C 22 90 0 
C 24 90 0 
C 26 90 0 
C 28 90 0 
C 30 90 0 
C 32 90 0 
C 34 90 0 
C 36 90 0 
C 38 90 0 
C 40 90 0 
C 42 90 0 
C 44 90 0 
C 46 90 0 
C 48 90 0 
C 50 90 0 
C 52 90 0 
C 54 90 0 
C 56 90 0 
C 58 90 0 
C 60 90 0 
C 62 90 0 
C 64 90 0 
C 66 90 0 
C 68 90 0 
C 70 90 0 
C 72 90 0 
C 74 90 0 
C 76 90 0 
C 78 90 0 
C 80 90 0 
C 82 90 0 
C 84 90 0 
C 86 90 0 
C 88 90 0 
C 90 90 0 
C 92 90 0 
C 94 90 0 
C 96 90 0 
C 98 90 0 
C 100 90 0 
C 0 92 0 
C 2 92 0 
C 4 92 0 
C 6 92 0 
C 8 92 0 
C 10 92 0 
C 12 92 0 
C 14 92 0 
C 16 92 0 
C 18 92 0 
C 20 92 0 
C 22 92 0 
C 24 92 0 
C 26 92 0 
C 28 92 0 
C 30 92 0 
C 32 92 0 
C 34 92 0 
C 36 92 0 
C 38 92 0 
C 40 92 0 
C 42 92 0 
C 44 92 0 
C 46 92 0 
C 48 92 0 
C 50 92 0 
C 52 92 0 
C 54 92 0 
C 56 92 0 
C 58 92 0 
C 60 92 0 
C 62 92 0 
C 64 92 0 
C 66 92 0 
C 68 92 0 
C 70 92 0 
C 72 92 0 
C 74 92 0 
C 76 92 0 
C 78 92 0 
C 80 92 0 
C 82 92 0 
C 84 92 0 
C 86 92 0 
C 88 92 0 
C 90 92 0 
C 92 92 0 
C 94 92 0 
C 96 92 0 
C 98 92 0 
C 100 92 0 
C 0 94 0 
C 2 94 0 
C 4 94 0 
C 6 94 0 
C 8 94 0 
C 10 94 0 
C 12 94 0 
C 14 94 0 
C 16 94 0 
C 18 94 0 
C 20 94 0 
C 22 94 0 
C 24 94 0 
C 26 94 0 
C 28 94 0 
C 30 94 0 
C 32 94 0 
C 34 94 0 
C 36 94 0 
C 38 94 0 
C 40 94 0 
C 42 94 0 
C 44 94 0 
C 46 94 0 
C 48 94 0 
C 50 94 0 
C 52 94 0 
C 54 94 0 
C 56 94 0 
C 58 94 0 
C 60 94 0 
C 62 94 0 
C 64 94 0 
C 66 94 0 
C 68 94 0 
C 70 94 0 
C 72 94 0 
C 74 94 0 
C 76 94 0 
C 78 94 0 
C 80 94 0 
C 82 94 0 
C 84 94 0 
C 86 94 0 
C 88 94 0 
C 90 94 0 
C 92 94 0 
C 94 94 0 
C 96 94 0 
C 98 94 0 
C 100 94 0 
C 0 96 0 
C 2 96 0 
C 4 96 0 
C 6 96 0 
C 8 96 0 
C 10 96 0 
C 12 96 0 
C 14 96 0 
C 16 96 0 
C 18 96 0 
C 20 96 0 
C 22 96 0 
C 24 96 0 
C 26 96 0 
C 28 96 0 
C 30 96 0 
C 32 96 0 
C 34 96 0 
C 36 96 0 
C 38 96 0 
C 40 96 0 
C 42 96 0 
C 44 96 0 
C 46 96 0 
C 48 96 0 
C 50 96 0 
C 52 96 0 
C 54 96 0 
C 56 96 0 
C 58 96 0 
C 60 96 0 
C 62 96 0 
C 64 96 0 
C 66 96 0 
C 68 96 0 
C 70 96 0 
C 72 96 0 
C 74 96 0 
C 76 96 0 
C 78 96 0 
C 80 96 0 
C 82 96 0 
C 84 96 0 
C 86 96 0 
C 88 96 0 
C 90 96 0 
C 92 96 0 
C 94 96 0 
C 96 96 0 
C 98 96 0 
C 100 96 0 
C 0 98 0 
C 2 98 0 
C 4 98 0 
C 6 98 0 
C 8 98 0 
C 10 98 0 
C 12 98 0 
C 14 98 0 
C 16 98 0 
C 18 98 0 
C 20 98 0 
C 22 98 0 
C 24 98 0 
C 26 98 0 
C 28 98 0 
C 30 98 0 
C 32 98 0 
C 34 98 0 
C 36 98 0 
C 38 98 0 
C 40 98 0 
C 42 98 0 
C 44 98 0 
C 46 98 0 
C 48 98 0 
C 50 98 0 
C 52 98 0 
C 54 98 0 
C 56 98 0 
C 58 98 0 
C 60 98 0 
C 62 98 0 
C 64 98 0 
C 66 98 0 
C 68 98 0 
C 70 98 0 
C 72 98 0 
C 74 98 0 
C 76 98 0 
C 78 98 0 
C 80 98 0 
C 82 98 0 
C 84 98 0 
C 86 98 0 
C 88 98 0 
C 90 98 0 
C 92 98 0 
C 94 98 0 
C 96 98 0 
C 98 98 0 
C 100 98 0 
C 0 100 0 
C 2 100 0 
C 4 100 0 
C 6 100 0 
C 8 100 0 
C 10 100 0 
C 12 100 0 
C 14 100 0 
C 16 100 0 
C 18 100 0 
C 20 100 0 
C 22 100 0 
C 24 100 0 
C 26 100 0 
C 28 100 0 
C 30 100 0 
C 32 100 0 
C 34 100 0 
C 36 100 0 
C 38 100 0 
C 40 100 0 
C 42 100 0 
C 44 100 0 
C 46 100 0 
C 48 100 0 
C 50 100 0 
C 52 100 0 
C 54 100 0 
C 56 100 0 
C 58 100 0 
C 60 100 0 
C 62 100 0 
C 64 100 0 
C 66 100 0 
C 68 100 0 
C 70 100 0 
C 72 100 0 
C 74 100 0 
C 76 100 0 
C 78 100 0 
C 80 100 0 
C 82 100 0 
C 84 100 0 
C 86 100 0 
C 88 100 0 
C 90 100 0 
C 92 100 0 
C 94 100 0 
C 96 100 0 
C 98 100 0 
C 100 100 0 
O 79 99 0 
O 99 89 0 
O 0 99 0 
O 99 99 0 
3102
Atoms. Timestep: 14
N 83 22 0 
N 19 53 0 
N 18 69 0 
N 49 95 0 
N 35 23 0 
N 61 24 0 
N 86 69 0 
N 5 57 0 
N 13 47 0 
N 49 27 0 
N 13 9 0 
N 60 29 0 
N 67 15 0 
N 81 85 0 
N 57 91 0 
N 47 61 0 
N 41 77 0 
N 3 90 0 
N 2 13 0 
N 85 27 0 
N 13 40 0 
N 80 13 0 
N 15 25 0 
N 49 80 0 
N 69 99 0 
N 10 91 0 
N 91 13 0 
N 67 97 0 
N 0 35 0 
N 34 45 0 
N 77 35 0 
N 61 21 0 
N 23 70 0 
N 95 51 0 
N 26 19 0 
N 79 54 0 
N 95 79 0 
N 69 13 0 
N 68 93 0 
N 97 6 0 
N 45 13 0 
N 27 97 0 
N 86 29 0 
N 29 61 0 
N 51 41 0 
N 60 27 0 
N 51 77 0 
N 50 33 0 
N 91 81 0 
N 27 13 0 
N 60 25 0 
N 43 35 0 
N 8 21 0 
N 19 25 0 
N 97 77 0 
N 17 81 0 
N 49 70 0 
N 86 11 0 
N 5 21 0 
N 69 76 0 
N 97 68 0 
N 79 99 0 
N 5 34 0 
N 74 89 0 
N 73 18 0 
N 5 63 0 
N 74 67 0 
N 82 29 0 
N 40 21 0 
N 66 29 0 
N 43 23 0 
N 3 96 0 
N 5 49 0 
N 19 76 0 
N 41 89 0 
N 37 24 0 
N 53 92 0 
N 3 35 0 
N 28 49 0 
N 75 13 0 
N 59 43 0 
N 95 24 0 
N 71 97 0 
N 91 45 0 
N 1 34 0 
N 5 23 0 
N 39 70 0 
N 6 81 0 
N 19 27 0 
N 83 86 0 
N 69 83 0 
N 99 99 0 
N 10 19 0 
N 92 67 0 
N 91 12 0 
N 75 9 0 
N 69 57 0 
N 97 16 0 
N 72 69 0 
N 9 30 0 
N 45 67 0 
N 65 95 0 
N 43 40 0 
N 82 15 0 
N 93 90 0 
N 55 89 0 
N 69 73 0 
N 71 53 0 
N 25 91 0 
N 23 79 0 
N 26 47 0 
N 73 73 0 
N 18 77 0 
N 82 13 0 
N 47 69 0 
N 49 47 0 
N 9 57 0 
N 1 82 0 
N 70 95 0 
N 25 97 0 
N 36 27 0 
N 51 84 0 
N 45 24 0 
N 54 65 0 
N 9 26 0 
N 77 13 0 
N 6 75 0 
N 3 13 0 
N 25 13 0 
N 93 89 0 
N 7 87 0 
N 65 45 0 
N 11 46 0 
N 77 99 0 
N 13 12 0 
N 16 77 0 
N 32 61 0 
N 79 45 0 
N 96 43 0 
N 81 17 0 
N 11 41 0 
N 75 81 0 
N 79 5 0 
N 62 9 0 
N 87 89 0 
N 45 94 0 
N 97 51 0 
N 41 61 0 
N 99 84 0 
N 66 93 0 
N 91 42 0 
N 94 71 0 
N 27 33 0 
N 10 99 0 
N 51 75 0 
N 23 81 0 
N 97 86 0 
N 8 69 0 
N 1 4 0 
N 15 45 0 
N 87 37 0 
N 44 63 0 
N 92 39 0 
N 22 1 0 
N 39 89 0 
N 39 80 0 
N 77 15 0 
N 88 89 0 
N 99 25 0 
N 49 77 0 
N 0 99 0 
N 77 36 0 
N 17 42 0 
N 11 19 0 
N 71 29 0 
N 47 91 0 
N 93 69 0 
N 55 3 0 
N 79 83 0 
N 79 89 0 
N 69 33 0 
N 14 11 0 
N 82 55 0 
N 45 63 0 
N 2 67 0 
N 5 71 0 
N 95 55 0 
N 71 84 0 
N 94 75 0 
N 17 19 0 
N 23 77 0 
N 1 93 0 
N 70 69 0 
N 21 89 0 
N 57 74 0 
N 97 27 0 
N 68 79 0 
N 95 26 0 
N 45 36 0 
N 97 29 0 
N 79 8 0 
N 69 92 0 
N 65 28 0 
N 45 95 0 
N 66 9 0 
N 34 69 0 
N 69 27 0 
N 55 39 0 
N 95 85 0 
N 91 61 0 
N 27 59 0 
N 23 67 0 
N 17 9 0 
N 99 26 0 
N 25 17 0 
N 11 75 0 
N 63 73 0 
N 55 68 0 
N 86 89 0 
N 25 85 0 
N 7 60 0 
N 82 27 0 
N 99 71 0 
N 61 28 0 
N 20 45 0 
N 96 83 0 
N 79 42 0 
N 93 55 0 
N 77 32 0 
N 97 72 0 
N 90 85 0 
N 55 47 0 
N 41 26 0 
N 89 81 0 
N 70 63 0 
N 79 59 0 
N 28 31 0 
N 73 85 0 
N 4 37 0 
N 23 15 0 
N 78 59 0 
N 20 71 0 
N 93 57 0 
N 6 23 0 
N 52 51 0 
N 24 1 0 
N 29 13 0 
N 21 71 0 
N 13 70 0 
N 13 15 0 
N 81 93 0 
N 49 61 0 
N 42 89 0 
N 19 26 0 
N 8 33 0 
N 11 25 0 
N 79 47 0 
N 60 37 0 
N 53 25 0 
N 17 82 0 
N 11 70 0 
N 3 36 0 
N 93 47 0 
N 5 25 0 
N 47 80 0 
N 90 91 0 
N 53 41 0 
N 75 50 0 
N 87 79 0 
N 61 43 0 
N 92 99 0 
N 18 11 0 
N 35 89 0 
N 11 6 0 
N 41 44 0 
N 58 59 0 
N 3 28 0 
N 31 35 0 
N 52 71 0 
N 1 32 0 
N 57 77 0 
N 14 17 0 
N 41 74 0 
N 75 29 0 
N 31 81 0 
N 63 25 0 
N 90 89 0 
N 41 39 0 
N 94 11 0 
N 88 9 0 
N 47 11 0 
N 38 25 0 
N 64 93 0 
N 65 15 0 
N 46 13 0 
N 29 76 0 
N 39 38 0 
N 17 67 0 
N 17 47 0 
N 90 49 0 
N 78 95 0 
N 7 62 0 
N 25 89 0 
N 8 1 0 
N 50 59 0 
N 60 9 0 
N 70 81 0 
N 11 47 0 
N 76 9 0 
N 23 89 0 
N 99 76 0 
N 37 54 0 
N 41 5 0 
N 7 32 0 
N 26 99 0 
N 31 77 0 
N 27 8 0 
N 69 39 0 
N 1 11 0 
N 46 27 0 
N 71 79 0 
N 3 15 0 
N 93 51 0 
N 25 74 0 
N 41 13 0 
N 71 9 0 
N 65 26 0 
N 97 4 0 
N 51 89 0 
N 9 47 0 
N 46 33 0 
N 83 7 0 
N 90 47 0 
N 67 27 0 
N 91 53 0 
N 43 31 0 
N 15 99 0 
N 8 95 0 
N 80 7 0 
N 79 70 0 
N 39 31 0 
N 31 37 0 
N 59 7 0 
N 77 47 0 
N 7 19 0 
N 14 95 0 
N 87 5 0 
N 49 90 0 
N 79 96 0 
N 55 87 0 
N 77 28 0 
N 70 89 0 
N 12 51 0 
N 97 66 0 
N 13 19 0 
N 43 27 0 
N 49 31 0 
N 35 1 0 
N 25 99 0 
N 45 58 0 
N 79 21 0 
N 65 31 0 
N 47 75 0 
N 44 29 0 
N 35 32 0 
N 2 35 0 
N 77 17 0 
N 47 40 0 
N 97 43 0 
N 99 43 0 
N 27 84 0 
N 71 14 0 
N 43 81 0 
N 64 27 0 
N 34 67 0 
N 45 11 0 
N 53 45 0 
N 91 14 0 
N 57 32 0 
N 71 95 0 
N 26 1 0 
N 5 93 0 
N 44 13 0 
N 33 78 0 
N 31 69 0 
N 56 49 0 
N 64 49 0 
N 39 26 0 
N 79 50 0 
N 10 27 0 
N 84 99 0 
N 97 83 0 
N 52 91 0 
N 76 29 0 
N 91 49 0 
N 1 35 0 
N 51 4 0 
N 59 29 0 
N 81 90 0 
N 53 79 0 
N 79 91 0 
N 9 68 0 
N 9 50 0 
N 31 63 0 
N 20 85 0 
N 79 40 0 
N 35 65 0 
N 81 74 0 
N 87 45 0 
N 43 30 0 
N 77 11 0 
N 65 8 0 
N 94 7 0 
N 7 39 0 
N 93 14 0 
N 52 45 0 
N 9 55 0 
N 31 31 0 
N 68 49 0 
N 89 43 0 
N 96 81 0 
N 91 29 0 
N 18 89 0 
N 47 64 0 
N 95 67 0 
N 79 16 0 
N 41 48 0 
N 11 66 0 
N 79 27 0 
N 5 26 0 
N 24 87 0 
N 34 27 0 
N 79 20 0 
N 37 70 0 
N 69 51 0 
N 93 59 0 
N 83 46 0 
N 1 8 0 
N 53 87 0 
N 77 69 0 
N 70 7 0 
N 9 64 0 
N 27 1 0 
N 16 69 0 
N 17 43 0 
N 15 29 0 
N 71 81 0 
N 71 90 0 
N 21 67 0 
N 19 70 0 
N 59 81 0 
N 95 83 0 
N 99 30 0 
N 75 19 0 
N 69 31 0 
N 62 33 0 
N 41 60 0 
N 93 71 0 
N 79 71 0 
N 0 5 0 
N 42 83 0 
N 58 35 0 
N 9 27 0 
N 19 88 0 
N 30 65 0 
N 13 13 0 
N 4 27 0 
N 79 67 0 
N 51 80 0 
N 17 72 0 
N 45 91 0 
N 5 14 0 
N 7 4 0 
N 42 15 0 
N 82 19 0 
N 43 47 0 
N 3 70 0 
N 44 89 0 
N 42 69 0 
N 33 11 0 
N 49 63 0 
N 96 39 0 
N 85 96 0 
N 63 29 0 
N 53 40 0 
N 77 25 0 
N 19 91 0 
N 99 28 0 
N 79 24 0 
N 83 14 0 
N 43 86 0 
N 47 22 0 
N 42 17 0 
N 33 25 0 
N 42 79 0 
N 51 39 0 
N 7 63 0 
N 79 18 0 
N 37 81 0 
N 95 71 0 
C 0 0 0 
C 2 0 0 
C 4 0 0 
C 6 0 0 
C 8 0 0 
C 10 0 0 
C 12 0 0 
C 14 0 0 
C 16 0 0 
C 18 0 0 
C 20 0 0 
C 22 0 0 
C 24 0 0 
C 26 0 0 
C 28 0 0 
C 30 0 0 
C 32 0 0 
C 34 0 0 
C 36 0 0 
C 38 0 0 
C 40 0 0 
C 42 0 0 
C 44 0 0 
C 46 0 0 
C 48 0 0 
C 50 0 0 
C 52 0 0 
C 54 0 0 
C 56 0 0 
C 58 0 0 
C 60 0 0 
C 62 0 0 
C 64 0 0 
C 66 0 0 
C 68 0 0 
C 70 0 0 
C 72 0 0 
C 74 0 0 
C 76 0 0 
C 78 0 0 
C 80 0 0 
C 82 0 0 
C 84 0 0 
C 86 0 0 
C 88 0 0 
C 90 0 0 
C 92 0 0 
C 94 0 0 
C 96 0 0 
C 98 0 0 
C 100 0 0 
C 0 2 0 
C 2 2 0 
C 4 2 0 
C 6 2 0 
C 8 2 0 
C 10 2 0 
C 12 2 0 
C 14 2 0 
C 16 2 0 
C 18 2 0 
C 20 2 0 
C 22 2 0 
C 24 2 0 
C 26 2 0 
C 28 2 0 
C 30 2 0 
C 32 2 0 
C 34 2 0 
C 36 2 0 
C 38 2 0 
C 40 2 0 
C 42 2 0 
C 44 2 0 
C 46 2 0 
C 48 2 0 
C 50 2 0 
C 52 2 0 
C 54 2 0 
C 56 2 0 
C 58 2 0 
C 60 2 0 
C 62 2 0 
C 64 2 0 
C 66 2 0 
C 68 2 0 
C 70 2 0 
C 72 2 0 
C 74 2 0 
C 76 2 0 
C 78 2 0 
C 80 2 0 
C 82 2 0 
C 84 2 0 
C 86 2 0 
C 88 2 0 
C 90 2 0 
C 92 2 0 
C 94 2 0 
C 96 2 0 
C 98 2 0 
C 100 2 0 
C 0 4 0 
C 2 4 0 
C 4 4 0 
C 6 4 0 
C 8 4 0 
C 10 4 0 
C 12 4 0 
C 14 4 0 
C 16 4 0 
C 18 4 0 
C 20 4 0 
C 22 4 0 
C 24 4 0 
C 26 4 0 
C 28 4 0 
C 30 4 0 
C 32 4 0 
C 34 4 0 
C 36 4 0 
C 38 4 0 
C 40 4 0 
C 42 4 0 
C 44 4 0 
C 46 4 0 
C 48 4 0 
C 50 4 0 
C 52 4 0 
C 54 4 0 
C 56 4 0 
C 58 4 0 
C 60 4 0 
C 62 4 0 
C 64 4 0 
C 66 4 0 
C 68 4 0 
C 70 4 0 
C 72 4 0 
C 74 4 0 
C 76 4 0 
C 78 4 0 
C 80 4 0 
C 82 4 0 
C 84 4 0 
C 86 4 0 
C 88 4 0 
C 90 4 0 
C 92 4 0 
C 94 4 0 
C 96 4 0 
C 98 4 0 
C 100 4 0 
C 0 6 0 
C 2 6 0 
C 4 6 0 
C 6 6 0 
C 8 6 0 
C 10 6 0 
C 12 6 0 
C 14 6 0 
C 16 6 0 
C 18 6 0 
C 20 6 0 
C 22 6 0 
C 24 6 0 
C 26 6 0 
C 28 6 0 
C 30 6 0 
C 32 6 0 
C 34 6 0 
C 36 6 0 
C 38 6 0 
C 40 6 0 
C 42 6 0 
C 44 6 0 
C 46 6 0 
C 48 6 0 
C 50 6 0 
C 52 6 0 
C 54 6 0 
C 56 6 0 
C 58 6 0 
C 60 6 0 
C 62 6 0 
C 64 6 0 
C 66 6 0 
C 68 6 0 
C 70 6 0 
C 72 6 0 
C 74 6 0 
C 76 6 0 
C 78 6 0 
C 80 6 0 
C 82 6 0 
C 84 6 0 
C 86 6 0 
C 88 6 0 
C 90 6 0 
C 92 6 0 
C 94 6 0 
C 96 6 0 
C 98 6 0 
C 100 6 0 
C 0 8 0 
C 2 8 0 
C 4 8 0 
C 6 8 0 
C 8 8 0 
C 10 8 0 
C 12 8 0 
C 14 8 0 
C 16 8 0 
C 18 8 0 
C 20 8 0 
C 22 8 0 
C 24 8 0 
C 26 8 0 
C 28 8 0 
C 30 8 0 
C 32 8 0 
C 34 8 0 
C 36 8 0 
C 38 8 0 
C 40 8 0 
C 42 8 0 
C 44 8 0 
C 46 8 0 
C 48 8 0 
C 50 8 0 
C 52 8 0 
C 54 8 0 
C 56 8 0 
C 58 8 0 
C 60 8 0 
C 62 8 0 
C 64 8 0 
C 66 8 0 
C 68 8 0 
C 70 8 0 
C 72 8 0 
C 74 8 0 
C 76 8 0 
C 78 8 0 
C 80 8 0 
C 82 8 0 
C 84 8 0 
C 86 8 0 
C 88 8 0 
C 90 8 0 
C 92 8 0 
C 94 8 0 
C 96 8 0 
C 98 8 0 
C 100 8 0 
C 0 10 0 
C 2 10 0 
C 4 10 0 
C 6 10 0 
C 8 10 0 
C 10 10 0 
C 12 10 0 
C 14 10 0 
C 16 10 0 
C 18 10 0 
C 20 10 0 
C 22 10 0 
C 24 10 0 
C 26 10 0 
C 28 10 0 
C 30 10 0 
C 32 10 0 
C 34 10 0 
C 36 10 0 
C 38 10 0 
C 40 10 0 
C 42 10 0 
C 44 10 0 
C 46 10 0 
C 48 10 0 
C 50 10 0 
C 52 10 0 
C 54 10 0 
C 56 10 0 
C 58 10 0 
C 60 10 0 
C 62 10 0 
C 64 10 0 
C 66 10 0 
C 68 10 0 
C 70 10 0 
C 72 10 0 
C 74 10 0 
C 76 10 0 
C 78 10 0 
C 80 10 0 
C 82 10 0 
C 84 10 0 
C 86 10 0 
C 88 10 0 
C 90 10 0 
C 92 10 0 
C 94 10 0 
C 96 10 0 
C 98 10 0 
C 100 10 0 
C 0 12 0 
C 2 12 0 
C 4 12 0 
C 6 12 0 
C 8 12 0 
C 10 12 0 
C 12 12 0 
C 14 12 0 
C 16 12 0 
C 18 12 0 
C 20 12 0 
C 22 12 0 
C 24 12 0 
C 26 12 0 
C 28 12 0 
C 30 12 0 
C 32 12 0 
C 34 12 0 
C 36 12 0 
C 38 12 0 
C 40 12 0 
C 42 12 0 
C 44 12 0 
C 46 12 0 
C 48 12 0 
C 50 12 0 
C 52 12 0 
C 54 12 0 
C 56 12 0 
C 58 12 0 
C 60 12 0 
C 62 12 0 
C 64 12 0 
C 66 12 0 
C 68 12 0 
C 70 12 0 
C 72 12 0 
C 74 12 0 
C 76 12 0 
C 78 12 0 
C 80 12 0 
C 82 12 0 
C 84 12 0 
C 86 12 0 
C 88 12 0 
C 90 12 0 
C 92 12 0 
C 94 12 0 
C 96 12 0 
C 98 12 0 
C 100 12 0 
C 0 14 0 
C 2 14 0 
C 4 14 0 
C 6 14 0 
C 8 14 0 
C 10 14 0 
C 12 14 0 
C 14 14 0 
C 16 14 0 
C 18 14 0 
C 20 14 0 
C 22 14 0 
C 24 14 0 
C 26 14 0 
C 28 14 0 
C 30 14 0 
C 32 14 0 
C 34 14 0 
C 36 14 0 
C 38 14 0 
C 40 14 0 
C 42 14 0 
C 44 14 0 
C 46 14 0 
C 48 14 0 
C 50 14 0 
C 52 14 0 
C 54 14 0 
C 56 14 0 
C 58 14 0 
C 60 14 0 
C 62 14 0 
C 64 14 0 
C 66 14 0 
C 68 14 0 
C 70 14 0 
C 72 14 0 
C 74 14 0 
C 76 14 0 
C 78 14 0 
C 80 14 0 
C 82 14 0 
C 84 14 0 
C 86 14 0 
C 88 14 0 
C 90 14 0 
C 92 14 0 
C 94 14 0 
C 96 14 0 
C 98 14 0 
C 100 14 0 
C 0 16 0 
C 2 16 0 
C 4 16 0 
C 6 16 0 
C 8 16 0 
C 10 16 0 
C 12 16 0 
C 14 16 0 
C 16 16 0 
C 18 16 0 
C 20 16 0 
C 22 16 0 
C 24 16 0 
C 26 16 0 
C 28 16 0 
C 30 16 0 
C 32 16 0 
C 34 16 0 
C 36 16 0 
C 38 16 0 
C 40 16 0 
C 42 16 0 
C 44 16 0 
C 46 16 0 
C 48 16 0 
C 50 16 0 
C 52 16 0 
C 54 16 0 
C 56 16 0 
C 58 16 0 
C 60 16 0 
C 62 16 0 
C 64 16 0 
C 66 16 0 
C 68 16 0 
C 70 16 0 
C 72 16 0 
C 74 16 0 
C 76 16 0 
C 78 16 0 
C 80 16 0 
C 82 16 0 
C 84 16 0 
C 86 16 0 
C 88 16 0 
C 90 16 0 
C 92 16 0 
C 94 16 0 
C 96 16 0 
C 98 16 0 
C 100 16 0 
C 0 18 0 
C 2 18 0 
C 4 18 0 
C 6 18 0 
C 8 18 0 
C 10 18 0 
C 12 18 0 
C 14 18 0 
C 16 18 0 
C 18 18 0 
C 20 18 0 
C 22 18 0 
C 24 18 0 
C 26 18 0 
C 28 18 0 
C 30 18 0 
C 32 18 0 
C 34 18 0 
C 36 18 0 
C 38 18 0 
C 40 18 0 
C 42 18 0 
C 44 18 0 
C 46 18 0 
C 48 18 0 
C 50 18 0 
C 52 18 0 
C 54 18 0 
C 56 18 0 
C 58 18 0 
C 60 18 0 
C 62 18 0 
C 64 18 0 
C 66 18 0 
C 68 18 0 
C 70 18 0 
C 72 18 0 
C 74 18 0 
C 76 18 0 
C 78 18 0 
C 80 18 0 
C 82 18 0 
C 84 18 0 
C 86 18 0 
C 88 18 0 
C 90 18 0 
C 92 18 0 
C 94 18 0 
C 96 18 0 
C 98 18 0 
C 100 18 0 
C 0 20 0 
C 2 20 0 
C 4 20 0 
C 6 20 0 
C 8 20 0 
C 10 20 0 
C 12 20 0 
C 14 20 0 
C 16 20 0 
C 18 20 0 
C 20 20 0 
C 22 20 0 
C 24 20 0 
C 26 20 0 
C 28 20 0 
C 30 20 0 
C 32 20 0 
C 34 20 0 
C 36 20 0 
C 38 20 0 
C 40 20 0 
C 42 20 0 
C 44 20 0 
C 46 20 0 
C 48 20 0 
C 50 20 0 
C 52 20 0 
C 54 20 0 
C 56 20 0 
C 58 20 0 
C 60 20 0 
C 62 20 0 
C 64 20 0 
C 66 20 0 
C 68 20 0 
C 70 20 0 
C 72 20 0 
C 74 20 0 
C 76 20 0 
C 78 20 0 
C 80 20 0 
C 82 20 0 
C 84 20 0 
C 86 20 0 
C 88 20 0 
C 90 20 0 
C 92 20 0 
C 94 20 0 
C 96 20 0 
C 98 20 0 
C 100 20 0 
C 0 22 0 
C 2 22 0 
C 4 22 0 
C 6 22 0 
C 8 22 0 
C 10 22 0 
C 12 22 0 
C 14 22 0 
C 16 22 0 
C 18 22 0 
C 20 22 0 
C 22 22 0 
C 24 22 0 
C 26 22 0 
C 28 22 0 
C 30 22 0 
C 32 22 0 
C 34 22 0 
C 36 22 0 
C 38 22 0 
C 40 22 0 
C 42 22 0 
C 44 22 0 
C 46 22 0 
C 48 22 0 
C 50 22 0 
C 52 22 0 
C 54 22 0 
C 56 22 0 
C 58 22 0 
C 60 22 0 
C 62 22 0 
C 64 22 0 
C 66 22 0 
C 68 22 0 
C 70 22 0 
C 72 22 0 
C 74 22 0 
C 76 22 0 
C 78 22 0 
C 80 22 0 
C 82 22 0 
C 84 22 0 
C 86 22 0 
C 88 22 0 
C 90 22 0 
C 92 22 0 
C 94 22 0 
C 96 22 0 
C 98 22 0 
C 100 22 0 
C 0 24 0 
C 2 24 0 
C 4 24 0 
C 6 24 0 
C 8 24 0 
C 10 24 0 
C 12 24 0 
C 14 24 0 
C 16 24 0 
C 18 24 0 
C 20 24 0 
C 22 24 0 
C 24 24 0 
C 26 24 0 
C 28 24 0 
C 30 24 0 
C 32 24 0 
C 34 24 0 
C 36 24 0 
C 38 24 0 
C 40 24 0 
C 42 24 0 
C 44 24 0 
C 46 24 0 
C 48 24 0 
C 50 24 0 
C 52 24 0 
C 54 24 0 
C 56 24 0 
C 58 24 0 
C 60 24 0 
C 62 24 0 
C 64 24 0 
C 66 24 0 
C 68 24 0 
C 70 24 0 
C 72 24 0 
C 74 24 0 
C 76 24 0 
C 78 24 0 
C 80 24 0 
C 82 24 0 
C 84 24 0 
C 86 24 0 
C 88 24 0 
C 90 24 0 
C 92 24 0 
C 94 24 0 
C 96 24 0 
C 98 24 0 
C 100 24 0 
C 0 26 0 
C 2 26 0 
C 4 26 0 
C 6 26 0 
C 8 26 0 
C 10 26 0 
C 12 26 0 
C 14 26 0 
C 16 26 0 
C 18 26 0 
C 20 26 0 
C 22 26 0 
C 24 26 0 
C 26 26 0 
C 28 26 0 
C 30 26 0 
C 32 26 0 
C 34 26 0 
C 36 26 0 
C 38 26 0 
C 40 26 0 
C 42 26 0 
C 44 26 0 
C 46 26 0 
C 48 26 0 
C 50 26 0 
C 52 26 0 
C 54 26 0 
C 56 26 0 
C 58 26 0 
C 60 26 0 
C 62 26 0 
C 64 26 0 
C 66 26 0 
C 68 26 0 
C 70 26 0 
C 72 26 0 
C 74 26 0 
C 76 26 0 
C 78 26 0 
C 80 26 0 
C 82 26 0 
C 84 26 0 
C 86 26 0 
C 88 26 0 
C 90 26 0 
C 92 26 0 
C 94 26 0 
C 96 26 0 
C 98 26 0 
C 100 26 0 
C 0 28 0 
C 2 28 0 
C 4 28 0 
C 6 28 0 
C 8 28 0 
C 10 28 0 
C 12 28 0 
C 14 28 0 
C 16 28 0 
C 18 28 0 
C 20 28 0 
C 22 28 0 
C 24 28 0 
C 26 28 0 
C 28 28 0 
C 30 28 0 
C 32 28 0 
C 34 28 0 
C 36 28 0 
C 38 28 0 
C 40 28 0 
C 42 28 0 
C 44 28 0 
C 46 28 0 
C 48 28 0 
C 50 28 0 
C 52 28 0 
C 54 28 0 
C 56 28 0 
C 58 28 0 
C 60 28 0 
C 62 28 0 
C 64 28 0 
C 66 28 0 
C 68 28 0 
C 70 28 0 
C 72 28 0 
C 74 28 0 
C 76 28 0 
C 78 28 0 
C 80 28 0 
C 82 28 0 
C 84 28 0 
C 86 28 0 
C 88 28 0 
C 90 28 0 
C 92 28 0 
C 94 28 0 
C 96 28 0 
C 98 28 0 
C 100 28 0 
C 0 30 0 
C 2 30 0 
C 4 30 0 
C 6 30 0 
C 8 30 0 
C 10 30 0 
C 12 30 0 
C 14 30 0 
C 16 30 0 
C 18 30 0 
C 20 30 0 
C 22 30 0 
C 24 30 0 
C 26 30 0 
C 28 30 0 
C 30 30 0 
C 32 30 0 
C 34 30 0 
C 36 30 0 
C 38 30 0 
C 40 30 0 
C 42 30 0 
C 44 30 0 
C 46 30 0 
C 48 30 0 
C 50 30 0 
C 52 30 0 
C 54 30 0 
C 56 30 0 
C 58 30 0 
C 60 30 0 
C 62 30 0 
C 64 30 0 
C 66 30 0 
C 68 30 0 
C 70 30 0 
C 72 30 0 
C 74 30 0 
C 76 30 0 
C 78 30 0 
C 80 30 0 
C 82 30 0 
C 84 30 0 
C 86 30 0 
C 88 30 0 
C 90 30 0 
C 92 30 0 
C 94 30 0 
C 96 30 0 
C 98 30 0 
C 100 30 0 
C 0 32 0 
C 2 32 0 
C 4 32 0 
C 6 32 0 
C 8 32 0 
C 10 32 0 
C 12 32 0 
C 14 32 0 
C 16 32 0 
C 18 32 0 
C 20 32 0 
C 22 32 0 
C 24 32 0 
C 26 32 0 
C 28 32 0 
C 30 32 0 
C 32 32 0 
C 34 32 0 
C 36 32 0 
C 38 32 0 
C 40 32 0 
C 42 32 0 
C 44 32 0 
C 46 32 0 
C 48 32 0 
C 50 32 0 
C 52 32 0 
C 54 32 0 
C 56 32 0 
C 58 32 0 
C 60 32 0 
C 62 32 0 
C 64 32 0 
C 66 32 0 
C 68 32 0 
C 70 32 0 
C 72 32 0 
C 74 32 0 
C 76 32 0 
C 78 32 0 
C 80 32 0 
C 82 32 0 
C 84 32 0 
C 86 32 0 
C 88 32 0 
C 90 32 0 
C 92 32 0 
C 94 32 0 
C 96 32 0 
C 98 32 0 
C 100 32 0 
C 0 34 0 
C 2 34 0 
C 4 34 0 
C 6 34 0 
C 8 34 0 
C 10 34 0 
C 12 34 0 
C 14 34 0 
C 16 34 0 
C 18 34 0 
C 20 34 0 
C 22 34 0 
C 24 34 0 
C 26 34 0 
C 28 34 0 
C 30 34 0 
C 32 34 0 
C 34 34 0 
C 36 34 0 
C 38 34 0 
C 40 34 0 
C 42 34 0 
C 44 34 0 
C 46 34 0 
C 48 34 0 
C 50 34 0 
C 52 34 0 
C 54 34 0 
C 56 34 0 
C 58 34 0 
C 60 34 0 
C 62 34 0 
C 64 34 0 
C 66 34 0 
C 68 34 0 
C 70 34 0 
C 72 34 0 
C 74 34 0 
C 76 34 0 
C 78 34 0 
C 80 34 0 
C 82 34 0 
C 84 34 0 
C 86 34 0 
C 88 34 0 
C 90 34 0 
C 92 34 0 
C 94 34 0 
C 96 34 0 
C 98 34 0 
C 100 34 0 
C 0 36 0 
C 2 36 0 
C 4 36 0 
C 6 36 0 
C 8 36 0 
C 10 36 0 
C 12 36 0 
C 14 36 0 
C 16 36 0 
C 18 36 0 
C 20 36 0 
C 22 36 0 
C 24 36 0 
C 26 36 0 
C 28 36 0 
C 30 36 0 
C 32 36 0 
C 34 36 0 
C 36 36 0 
C 38 36 0 
C 40 36 0 
C 42 36 0 
C 44 36 0 
C 46 36 0 
C 48 36 0 
C 50 36 0 
C 52 36 0 
C 54 36 0 
C 56 36 0 
C 58 36 0 
C 60 36 0 
C 62 36 0 
C 64 36 0 
C 66 36 0 
C 68 36 0 
C 70 36 0 
C 72 36 0 
C 74 36 0 
C 76 36 0 
C 78 36 0 
C 80 36 0 
C 82 36 0 
C 84 36 0 
C 86 36 0 
C 88 36 0 
C 90 36 0 
C 92 36 0 
C 94 36 0 
C 96 36 0 
C 98 36 0 
C 100 36 0 
C 0 38 0 
C 2 38 0 
C 4 38 0 
C 6 38 0 
C 8 38 0 
C 10 38 0 
C 12 38 0 
C 14 38 0 
C 16 38 0 
C 18 38 0 
C 20 38 0 
C 22 38 0 
C 24 38 0 
C 26 38 0 
C 28 38 0 
C 30 38 0 
C 32 38 0 
C 34 38 0 
C 36 38 0 
C 38 38 0 
C 40 38 0 
C 42 38 0 
C 44 38 0 
C 46 38 0 
C 48 38 0 
C 50 38 0 
C 52 38 0 
C 54 38 0 
C 56 38 0 
C 58 38 0 
C 60 38 0 
C 62 38 0 
C 64 38 0 
C 66 38 0 
C 68 38 0 
C 70 38 0 
C 72 38 0 
C 74 38 0 
C 76 38 0 
C 78 38 0 
C 80 38 0 
C 82 38 0 
C 84 38 0 
C 86 38 0 
C 88 38 0 
C 90 38 0 
C 92 38 0 
C 94 38 0 
C 96 38 0 
C 98 38 0 
C 100 38 0 
C 0 40 0 
C 2 40 0 
C 4 40 0 
C 6 40 0 
C 8 40 0 
C 10 40 0 
C 12 40 0 
C 14 40 0 
C 16 40 0 
C 18 40 0 
C 20 40 0 
C 22 40 0 
C 24 40 0 
C 26 40 0 
C 28 40 0 
C 30 40 0 
C 32 40 0 
C 34 40 0 
C 36 40 0 
C 38 40 0 
C 40 40 0 
C 42 40 0 
C 44 40 0 
C 46 40 0 
C 48 40 0 
C 50 40 0 
C 52 40 0 
C 54 40 0 
C 56 40 0 
C 58 40 0 
C 60 40 0 
C 62 40 0 
C 64 40 0 
C 66 40 0 
C 68 40 0 
C 70 40 0 
C 72 40 0 
C 74 40 0 
C 76 40 0 
C 78 40 0 
C 80 40 0 
C 82 40 0 
C 84 40 0 
C 86 40 0 
C 88 40 0 
C 90 40 0 
C 92 40 0 
C 94 40 0 
C 96 40 0 
C 98 40 0 
C 100 40 0 
C 0 42 0 
C 2 42 0 
C 4 42 0 
C 6 42 0 
C 8 42 0 
C 10 42 0 
C 12 42 0 
C 14 42 0 
C 16 42 0 
C 18 42 0 
C 20 42 0 
C 22 42 0 
C 24 42 0 
C 26 42 0 
C 28 42 0 
C 30 42 0 
C 32 42 0 
C 34 42 0 
C 36 42 0 
C 38 42 0 
C 40 42 0 
C 42 42 0 
C 44 42 0 
C 46 42 0 
C 48 42 0 
C 50 42 0 
C 52 42 0 
C 54 42 0 
C 56 42 0 
C 58 42 0 
C 60 42 0 
C 62 42 0 
C 64 42 0 
C 66 42 0 
C 68 42 0 
C 70 42 0 
C 72 42 0 
C 74 42 0 
C 76 42 0 
C 78 42 0 
C 80 42 0 
C 82 42 0 
C 84 42 0 
C 86 42 0 
C 88 42 0 
C 90 42 0 
C 92 42 0 
C 94 42 0 
C 96 42 0 
C 98 42 0 
C 100 42 0 
C 0 44 0 
C 2 44 0 
C 4 44 0 
C 6 44 0 
C 8 44 0 
C 10 44 0 
C 12 44 0 
C 14 44 0 
C 16 44 0 
C 18 44 0 
C 20 44 0 
C 22 44 0 
C 24 44 0 
C 26 44 0 
C 28 44 0 
C 30 44 0 
C 32 44 0 
C 34 44 0 
C 36 44 0 
C 38 44 0 
C 40 44 0 
C 42 44 0 
C 44 44 0 
C 46 44 0 
C 48 44 0 
C 50 44 0 
C 52 44 0 
C 54 44 0 
C 56 44 0 
C 58 44 0 
C 60 44 0 
C 62 44 0 
C 64 44 0 
C 66 44 0 
C 68 44 0 
C 70 44 0 
C 72 44 0 
C 74 44 0 
C 76 44 0 
C 78 44 0 
C 80 44 0 
C 82 44 0 
C 84 44 0 
C 86 44 0 
C 88 44 0 
C 90 44 0 
C 92 44 0 
C 94 44 0 
C 96 44 0 
C 98 44 0 
C 100 44 0 
C 0 46 0 
C 2 46 0 
C 4 46 0 
C 6 46 0 
C 8 46 0 
C 10 46 0 
C 12 46 0 
C 14 46 0 
C 16 46 0 
C 18 46 0 
C 20 46 0 
C 22 46 0 
C 24 46 0 
C 26 46 0 
C 28 46 0 
C 30 46 0 
C 32 46 0 
C 34 46 0 
C 36 46 0 
C 38 46 0 
C 40 46 0 
C 42 46 0 
C 44 46 0 
C 46 46 0 
C 48 46 0 
C 50 46 0 
C 52 46 0 
C 54 46 0 
C 56 46 0 
C 58 46 0 
C 60 46 0 
C 62 46 0 
C 64 46 0 
C 66 46 0 
C 68 46 0 
C 70 46 0 
C 72 46 0 
C 74 46 0 
C 76 46 0 
C 78 46 0 
C 80 46 0 
C 82 46 0 
C 84 46 0 
C 86 46 0 
C 88 46 0 
C 90 46 0 
C 92 46 0 
C 94 46 0 
C 96 46 0 
C 98 46 0 
C 100 46 0 
C 0 48 0 
C 2 48 0 
C 4 48 0 
C 6 48 0 
C 8 48 0 
C 10 48 0 
C 12 48 0 
C 14 48 0 
C 16 48 0 
C 18 48 0 
C 20 48 0 
C 22 48 0 
C 24 48 0 
C 26 48 0 
C 28 48 0 
C 30 48 0 
C 32 48 0 
C 34 48 0 
C 36 48 0 
C 38 48 0 
C 40 48 0 
C 42 48 0 
C 44 48 0 
C 46 48 0 
C 48 48 0 
C 50 48 0 
C 52 48 0 
C 54 48 0 
C 56 48 0 
C 58 48 0 
C 60 48 0 
C 62 48 0 
C 64 48 0 
C 66 48 0 
C 68 48 0 
C 70 48 0 
C 72 48 0 
C 74 48 0 
C 76 48 0 
C 78 48 0 
C 80 48 0 
C 82 48 0 
C 84 48 0 
C 86 48 0 
C 88 48 0 
C 90 48 0 
C 92 48 0 
C 94 48 0 
C 96 48 0 
C 98 48 0 
C 100 48 0 
C 0 50 0 
C 2 50 0 
C 4 50 0 
C 6 50 0 
C 8 50 0 
C 10 50 0 
C 12 50 0 
C 14 50 0 
C 16 50 0 
C 18 50 0 
C 20 50 0 
C 22 50 0 
C 24 50 0 
C 26 50 0 
C 28 50 0 
C 30 50 0 
C 32 50 0 
C 34 50 0 
C 36 50 0 
C 38 50 0 
C 40 50 0 
C 42 50 0 
C 44 50 0 
C 46 50 0 
C 48 50 0 
C 50 50 0 
C 52 50 0 
C 54 50 0 
C 56 50 0 
C 58 50 0 
C 60 50 0 
C 62 50 0 
C 64 50 0 
C 66 50 0 
C 68 50 0 
C 70 50 0 
C 72 50 0 
C 74 50 0 
C 76 50 0 
C 78 50 0 
C 80 50 0 
C 82 50 0 
C 84 50 0 
C 86 50 0 
C 88 50 0 
C 90 50 0 
C 92 50 0 
C 94 50 0 
C 96 50 0 
C 98 50 0 
C 100 50 0 
C 0 52 0 
C 2 52 0 
C 4 52 0 
C 6 52 0 
C 8 52 0 
C 10 52 0 
C 12 52 0 
C 14 52 0 
C 16 52 0 
C 18 52 0 
C 20 52 0 
C 22 52 0 
C 24 52 0 
C 26 52 0 
C 28 52 0 
C 30 52 0 
C 32 52 0 
C 34 52 0 
C 36 52 0 
C 38 52 0 
C 40 52 0 
C 42 52 0 
C 44 52 0 
C 46 52 0 
C 48 52 0 
C 50 52 0 
C 52 52 0 
C 54 52 0 
C 56 52 0 
C 58 52 0 
C 60 52 0 
C 62 52 0 
C 64 52 0 
C 66 52 0 
C 68 52 0 
C 70 52 0 
C 72 52 0 
C 74 52 0 
C 76 52 0 
C 78 52 0 
C 80 52 0 
C 82 52 0 
C 84 52 0 
C 86 52 0 
C 88 52 0 
C 90 52 0 
C 92 52 0 
C 94 52 0 
C 96 52 0 
C 98 52 0 
C 100 52 0 
C 0 54 0 
C 2 54 0 
C 4 54 0 
C 6 54 0 
C 8 54 0 
C 10 54 0 
C 12 54 0 
C 14 54 0 
C 16 54 0 
C 18 54 0 
C 20 54 0 
C 22 54 0 
C 24 54 0 
C 26 54 0 
C 28 54 0 
C 30 54 0 
C 32 54 0 
C 34 54 0 
C 36 54 0 
C 38 54 0 
C 40 54 0 
C 42 54 0 
C 44 54 0 
C 46 54 0 
C 48 54 0 
C 50 54 0 
C 52 54 0 
C 54 54 0 
C 56 54 0 
C 58 54 0 
C 60 54 0 
C 62 54 0 
C 64 54 0 
C 66 54 0 
C 68 54 0 
C 70 54 0 
C 72 54 0 
C 74 54 0 
C 76 54 0 
C 78 54 0 
C 80 54 0 
C 82 54 0 
C 84 54 0 
C 86 54 0 
C 88 54 0 
C 90 54 0 
C 92 54 0 
C 94 54 0 
C 96 54 0 
C 98 54 0 
C 100 54 0 
C 0 56 0 
C 2 56 0 
C 4 56 0 
C 6 56 0 
C 8 56 0 
C 10 56 0 
C 12 56 0 
C 14 56 0 
C 16 56 0 
C 18 56 0 
C 20 56 0 
C 22 56 0 
C 24 56 0 
C 26 56 0 
C 28 56 0 
C 30 56 0 
C 32 56 0 
C 34 56 0 
C 36 56 0 
C 38 56 0 
C 40 56 0 
C 42 56 0 
C 44 56 0 
C 46 56 0 
C 48 56 0 
C 50 56 0 
C 52 56 0 
C 54 56 0 
C 56 56 0 
C 58 56 0 
C 60 56 0 
C 62 56 0 
C 64 56 0 
C 66 56 0 
C 68 56 0 
C 70 56 0 
C 72 56 0 
C 74 56 0 
C 76 56 0 
C 78 56 0 
C 80 56 0 
C 82 56 0 
C 84 56 0 
C 86 56 0 
C 88 56 0 
C 90 56 0 
C 92 56 0 
C 94 56 0 
C 96 56 0 
C 98 56 0 
C 100 56 0 
C 0 58 0 
C 2 58 0 
C 4 58 0 
C 6 58 0 
C 8 58 0 
C 10 58 0 
C 12 58 0 
C 14 58 0 
C 16 58 0 
C 18 58 0 
C 20 58 0 
C 22 58 0 
C 24 58 0 
C 26 58 0 
C 28 58 0 
C 30 58 0 
C 32 58 0 
C 34 58 0 
C 36 58 0 
C 38 58 0 
C 40 58 0 
C 42 58 0 
C 44 58 0 
C 46 58 0 
C 48 58 0 
C 50 58 0 
C 52 58 0 
C 54 58 0 
C 56 58 0 
C 58 58 0 
C 60 58 0 
C 62 58 0 
C 64 58 0 
C 66 58 0 
C 68 58 0 
C 70 58 0 
C 72 58 0 
C 74 58 0 
C 76 58 0 
C 78 58 0 
C 80 58 0 
C 82 58 0 
C 84 58 0 
C 86 58 0 
C 88 58 0 
C 90 58 0 
C 92 58 0 
C 94 58 0 
C 96 58 0 
C 98 58 0 
C 100 58 0 
C 0 60 0 
C 2 60 0 
C 4 60 0 
C 6 60 0 
C 8 60 0 
C 10 60 0 
C 12 60 0 
C 14 60 0 
C 16 60 0 
C 18 60 0 
C 20 60 0 
C 22 60 0 
C 24 60 0 
C 26 60 0 
C 28 60 0 
C 30 60 0 
C 32 60 0 
C 34 60 0 
C 36 60 0 
C 38 60 0 
C 40 60 0 
C 42 60 0 
C 44 60 0 
C 46 60 0 
C 48 60 0 
C 50 60 0 
C 52 60 0 
C 54 60 0 
C 56 60 0 
C 58 60 0 
C 60 60 0 
C 62 60 0 
C 64 60 0 
C 66 60 0 
C 68 60 0 
C 70 60 0 
C 72 60 0 
C 74 60 0 
C 76 60 0 
C 78 60 0 
C 80 60 0 
C 82 60 0 
C 84 60 0 
C 86 60 0 
C 88 60 0 
C 90 60 0 
C 92 60 0 
C 94 60 0 
C 96 60 0 
C 98 60 0 
C 100 60 0 
C 0 62 0 
C 2 62 0 
C 4 62 0 
C 6 62 0 
C 8 62 0 
C 10 62 0 
C 12 62 0 
C 14 62 0 
C 16 62 0 
C 18 62 0 
C 20 62 0 
C 22 62 0 
C 24 62 0 
C 26 62 0 
C 28 62 0 
C 30 62 0 
C 32 62 0 
C 34 62 0 
C 36 62 0 
C 38 62 0 
C 40 62 0 
C 42 62 0 
C 44 62 0 
C 46 62 0 
C 48 62 0 
C 50 62 0 
C 52 62 0 
C 54 62 0 
C 56 62 0 
C 58 62 0 
C 60 62 0 
C 62 62 0 
C 64 62 0 
C 66 62 0 
C 68 62 0 
C 70 62 0 
C 72 62 0 
C 74 62 0 
C 76 62 0 
C 78 62 0 
C 80 62 0 
C 82 62 0 
C 84 62 0 
C 86 62 0 
C 88 62 0 
C 90 62 0 
C 92 62 0 
C 94 62 0 
C 96 62 0 
C 98 62 0 
C 100 62 0 
C 0 64 0 
C 2 64 0 
C 4 64 0 
C 6 64 0 
C 8 64 0 
C 10 64 0 
C 12 64 0 
C 14 64 0 
C 16 64 0 
C 18 64 0 
C 20 64 0 
C 22 64 0 
C 24 64 0 
C 26 64 0 
C 28 64 0 
C 30 64 0 
C 32 64 0 
C 34 64 0 
C 36 64 0 
C 38 64 0 
C 40 64 0 
C 42 64 0 
C 44 64 0 
C 46 64 0 
C 48 64 0 
C 50 64 0 
C 52 64 0 
C 54 64 0 
C 56 64 0 
C 58 64 0 
C 60 64 0 
C 62 64 0 
C 64 64 0 
C 66 64 0 
C 68 64 0 
C 70 64 0 
C 72 64 0 
C 74 64 0 
C 76 64 0 
C 78 64 0 
C 80 64 0 
C 82 64 0 
C 84 64 0 
C 86 64 0 
C 88 64 0 
C 90 64 0 
C 92 64 0 
C 94 64 0 
C 96 64 0 
C 98 64 0 
C 100 64 0 
C 0 66 0 
C 2 66 0 
C 4 66 0 
C 6 66 0 
C 8 66 0 
C 10 66 0 
C 12 66 0 
C 14 66 0 
C 16 66 0 
C 18 66 0 
C 20 66 0 
C 22 66 0 
C 24 66 0 
C 26 66 0 
C 28 66 0 
C 30 66 0 
C 32 66 0 
C 34 66 0 
C 36 66 0 
C 38 66 0 
C 40 66 0 
C 42 66 0 
C 44 66 0 
C 46 66 0 
C 48 66 0 
C 50 66 0 
C 52 66 0 
C 54 66 0 
C 56 66 0 
C 58 66 0 
C 60 66 0 
C 62 66 0 
C 64 66 0 
C 66 66 0 
C 68 66 0 
C 70 66 0 
C 72 66 0 
C 74 66 0 
C 76 66 0 
C 78 66 0 
C 80 66 0 
C 82 66 0 
C 84 66 0 
C 86 66 0 
C 88 66 0 
C 90 66 0 
C 92 66 0 
C 94 66 0 
C 96 66 0 
C 98 66 0 
C 100 66 0 
C 0 68 0 
C 2 68 0 
C 4 68 0 
C 6 68 0 
C 8 68 0 
C 10 68 0 
C 12 68 0 
C 14 68 0 
C 16 68 0 
C 18 68 0 
C 20 68 0 
C 22 68 0 
C 24 68 0 
C 26 68 0 
C 28 68 0 
C 30 68 0 
C 32 68 0 
C 34 68 0 
C 36 68 0 
C 38 68 0 
C 40 68 0 
C 42 68 0 
C 44 68 0 
C 46 68 0 
C 48 68 0 
C 50 68 0 
C 52 68 0 
C 54 68 0 
C 56 68 0 
C 58 68 0 
C 60 68 0 
C 62 68 0 
C 64 68 0 
C 66 68 0 
C 68 68 0 
C 70 68 0 
C 72 68 0 
C 74 68 0 
C 76 68 0 
C 78 68 0 
C 80 68 0 
C 82 68 0 
C 84 68 0 
C 86 68 0 
C 88 68 0 
C 90 68 0 
C 92 68 0 
C 94 68 0 
C 96 68 0 
C 98 68 0 
C 100 68 0 
C 0 70 0 
C 2 70 0 
C 4 70 0 
C 6 70 0 
C 8 70 0 
C 10 70 0 
C 12 70 0 
C 14 70 0 
C 16 70 0 
C 18 70 0 
C 20 70 0 
C 22 70 0 
C 24 70 0 
C 26 70 0 
C 28 70 0 
C 30 70 0 
C 32 70 0 
C 34 70 0 
C 36 70 0 
C 38 70 0 
C 40 70 0 
C 42 70 0 
C 44 70 0 
C 46 70 0 
C 48 70 0 
C 50 70 0 
C 52 70 0 
C 54 70 0 
C 56 70 0 
C 58 70 0 
C 60 70 0 
C 62 70 0 
C 64 70 0 
C 66 70 0 
C 68 70 0 
C 70 70 0 
C 72 70 0 
C 74 70 0 
C 76 70 0 
C 78 70 0 
C 80 70 0 
C 82 70 0 
C 84 70 0 
C 86 70 0 
C 88 70 0 
C 90 70 0 
C 92 70 0 
C 94 70 0 
C 96 70 0 
C 98 70 0 
C 100 70 0 
C 0 72 0 
C 2 72 0 
C 4 72 0 
C 6 72 0 
C 8 72 0 
C 10 72 0 
C 12 72 0 
C 14 72 0 
C 16 72 0 
C 18 72 0 
C 20 72 0 
C 22 72 0 
C 24 72 0 
C 26 72 0 
C 28 72 0 
C 30 72 0 
C 32 72 0 
C 34 72 0 
C 36 72 0 
C 38 72 0 
C 40 72 0 
C 42 72 0 
C 44 72 0 
C 46 72 0 
C 48 72 0 
C 50 72 0 
C 52 72 0 
C 54 72 0 
C 56 72 0 
C 58 72 0 
C 60 72 0 
C 62 72 0 
C 64 72 0 
C 66 72 0 
C 68 72 0 
C 70 72 0 
C 72 72 0 
C 74 72 0 
C 76 72 0 
C 78 72 0 
C 80 72 0 
C 82 72 0 
C 84 72 0 
C 86 72 0 
C 88 72 0 
C 90 72 0 
C 92 72 0 
C 94 72 0 
C 96 72 0 
C 98 72 0 
C 100 72 0 
C 0 74 0 
C 2 74 0 
C 4 74 0 
C 6 74 0 
C 8 74 0 
C 10 74 0 
C 12 74 0 
C 14 74 0 
C 16 74 0 
C 18 74 0 
C 20 74 0 
C 22 74 0 
C 24 74 0 
C 26 74 0 
C 28 74 0 
C 30 74 0 
C 32 74 0 
C 34 74 0 
C 36 74 0 
C 38 74 0 
C 40 74 0 
C 42 74 0 
C 44 74 0 
C 46 74 0 
C 48 74 0 
C 50 74 0 
C 52 74 0 
C 54 74 0 
C 56 74 0 
C 58 74 0 
C 60 74 0 
C 62 74 0 
C 64 74 0 
C 66 74 0 
C 68 74 0 
C 70 74 0 
C 72 74 0 
C 74 74 0 
C 76 74 0 
C 78 74 0 
C 80 74 0 
C 82 74 0 
C 84 74 0 
C 86 74 0 
C 88 74 0 
C 90 74 0 
C 92 74 0 
C 94 74 0 
C 96 74 0 
C 98 74 0 
C 100 74 0 
C 0 76 0 
C 2 76 0 
C 4 76 0 
C 6 76 0 
C 8 76 0 
C 10 76 0 
C 12 76 0 
C 14 76 0 
C 16 76 0 
C 18 76 0 
C 20 76 0 
C 22 76 0 
C 24 76 0 
C 26 76 0 
C 28 76 0 
C 30 76 0 
C 32 76 0 
C 34 76 0 
C 36 76 0 
C 38 76 0 
C 40 76 0 
C 42 76 0 
C 44 76 0 
C 46 76 0 
C 48 76 0 
C 50 76 0 
C 52 76 0 
C 54 76 0 
C 56 76 0 
C 58 76 0 
C 60 76 0 
C 62 76 0 
C 64 76 0 
C 66 76 0 
C 68 76 0 
C 70 76 0 
C 72 76 0 
C 74 76 0 
C 76 76 0 
C 78 76 0 
C 80 76 0 
C 82 76 0 
C 84 76 0 
C 86 76 0 
C 88 76 0 
C 90 76 0 
C 92 76 0 
C 94 76 0 
C 96 76 0 
C 98 76 0 
C 100 76 0 
C 0 78 0 
C 2 78 0 
C 4 78 0 
C 6 78 0 
C 8 78 0 
C 10 78 0 
C 12 78 0 
C 14 78 0 
C 16 78 0 
C 18 78 0 
C 20 78 0 
C 22 78 0 
C 24 78 0 
C 26 78 0 
C 28 78 0 
C 30 78 0 
C 32 78 0 
C 34 78 0 
C 36 78 0 
C 38 78 0 
C 40 78 0 
C 42 78 0 
C 44 78 0 
C 46 78 0 
C 48 78 0 
C 50 78 0 
C 52 78 0 
C 54 78 0 
C 56 78 0 
C 58 78 0 
C 60 78 0 
C 62 78 0 
C 64 78 0 
C 66 78 0 
C 68 78 0 
C 70 78 0 
C 72 78 0 
C 74 78 0 
C 76 78 0 
C 78 78 0 
C 80 78 0 
C 82 78 0 
C 84 78 0 
C 86 78 0 
C 88 78 0 
C 90 78 0 
C 92 78 0 
C 94 78 0 
C 96 78 0 
C 98 78 0 
C 100 78 0 
C 0 80 0 
C 2 80 0 
C 4 80 0 
C 6 80 0 
C 8 80 0 
C 10 80 0 
C 12 80 0 
C 14 80 0 
C 16 80 0 
C 18 80 0 
C 20 80 0 
C 22 80 0 
C 24 80 0 
C 26 80 0 
C 28 80 0 
C 30 80 0 
C 32 80 0 
C 34 80 0 
C 36 80 0 
C 38 80 0 
C 40 80 0 
C 42 80 0 
C 44 80 0 
C 46 80 0 
C 48 80 0 
C 50 80 0 
C 52 80 0 
C 54 80 0 
C 56 80 0 
C 58 80 0 
C 60 80 0 
C 62 80 0 
C 64 80 0 
C 66 80 0 
C 68 80 0 
C 70 80 0 
C 72 80 0 
C 74 80 0 
C 76 80 0 
C 78 80 0 
C 80 80 0 
C 82 80 0 
C 84 80 0 
C 86 80 0 
C 88 80 0 
C 90 80 0 
C 92 80 0 
C 94 80 0 
C 96 80 0 
C 98 80 0 
C 100 80 0 
C 0 82 0 
C 2 82 0 
C 4 82 0 
C 6 82 0 
C 8 82 0 
C 10 82 0 
C 12 82 0 
C 14 82 0 
C 16 82 0 
C 18 82 0 
C 20 82 0 
C 22 82 0 
C 24 82 0 
C 26 82 0 
C 28 82 0 
C 30 82 0 
C 32 82 0 
C 34 82 0 
C 36 82 0 
C 38 82 0 
C 40 82 0 
C 42 82 0 
C 44 82 0 
C 46 82 0 
C 48 82 0 
C 50 82 0 
C 52 82 0 
C 54 82 0 
C 56 82 0 
C 58 82 0 
C 60 82 0 
C 62 82 0 
C 64 82 0 
C 66 82 0 
C 68 82 0 
C 70 82 0 
C 72 82 0 
C 74 82 0 
C 76 82 0 
C 78 82 0 
C 80 82 0 
C 82 82 0 
C 84 82 0 
C 86 82 0 
C 88 82 0 
C 90 82 0 
C 92 82 0 
C 94 82 0 
C 96 82 0 
C 98 82 0 
C 100 82 0 
C 0 84 0 
C 2 84 0 
C 4 84 0 
C 6 84 0 
C 8 84 0 
C 10 84 0 
C 12 84 0 
C 14 84 0 
C 16 84 0 
C 18 84 0 
C 20 84 0 
C 22 84 0 
C 24 84 0 
C 26 84 0 
C 28 84 0 
C 30 84 0 
C 32 84 0 
C 34 84 0 
C 36 84 0 
C 38 84 0 
C 40 84 0 
C 42 84 0 
C 44 84 0 
C 46 84 0 
C 48 84 0 
C 50 84 0 
C 52 84 0 
C 54 84 0 
C 56 84 0 
C 58 84 0 
C 60 84 0 
C 62 84 0 
C 64 84 0 
C 66 84 0 
C 68 84 0 
C 70 84 0 
C 72 84 0 
C 74 84 0 
C 76 84 0 
C 78 84 0 
C 80 84 0 
C 82 84 0 
C 84 84 0 
C 86 84 0 
C 88 84 0 
C 90 84 0 
C 92 84 0 
C 94 84 0 
C 96 84 0 
C 98 84 0 
C 100 84 0 
C 0 86 0 
C 2 86 0 
C 4 86 0 
C 6 86 0 
C 8 86 0 
C 10 86 0 
C 12 86 0 
C 14 86 0 
C 16 86 0 
C 18 86 0 
C 20 86 0 
C 22 86 0 
C 24 86 0 
C 26 86 0 
C 28 86 0 
C 30 86 0 
C 32 86 0 
C 34 86 0 
C 36 86 0 
C 38 86 0 
C 40 86 0 
C 42 86 0 
C 44 86 0 
C 46 86 0 
C 48 86 0 
C 50 86 0 
C 52 86 0 
C 54 86 0 
C 56 86 0 
C 58 86 0 
C 60 86 0 
C 62 86 0 
C 64 86 0 
C 66 86 0 
C 68 86 0 
C 70 86 0 
C 72 86 0 
C 74 86 0 
C 76 86 0 
C 78 86 0 
C 80 86 0 
C 82 86 0 
C 84 86 0 
C 86 86 0 
C 88 86 0 
C 90 86 0 
C 92 86 0 
C 94 86 0 
C 96 86 0 
C 98 86 0 
C 100 86 0 
C 0 88 0 
C 2 88 0 
C 4 88 0 
C 6 88 0 
C 8 88 0 
C 10 88 0 
C 12 88 0 
C 14 88 0 
C 16 88 0 
C 18 88 0 
C 20 88 0 
C 22 88 0 
C 24 88 0 
C 26 88 0 
C 28 88 0 
C 30 88 0 
C 32 88 0 
C 34 88 0 
C 36 88 0 
C 38 88 0 
C 40 88 0 
C 42 88 0 
C 44 88 0 
C 46 88 0 
C 48 88 0 
C 50 88 0 
C 52 88 0 
C 54 88 0 
C 56 88 0 
C 58 88 0 
C 60 88 0 
C 62 88 0 
C 64 88 0 
C 66 88 0 
C 68 88 0 
C 70 88 0 
C 72 88 0 
C 74 88 0 
C 76 88 0 
C 78 88 0 
C 80 88 0 
C 82 88 0 
C 84 88 0 
C 86 88 0 
C 88 88 0 
C 90 88 0 
C 92 88 0 
C 94 88 0 
C 96 88 0 
C 98 88 0 
C 100 88 0 
C 0 90 0 
C 2 90 0 
C 4 90 0 
C 6 90 0 
C 8 90 0 
C 10 90 0 
C 12 90 0 
C 14 90 0 
C 16 90 0 
C 18 90 0 
C 20 90 0 
C 22 90 0 
C 24 90 0 
C 26 90 0 
C 28 90 0 
C 30 90 0 
C 32 90 0 
C 34 90 0 
C 36 90 0 
C 38 90 0 
C 40 90 0 
C 42 90 0 
C 44 90 0 
C 46 90 0 
C 48 90 0 
C 50 90 0 
C 52 90 0 
C 54 90 0 
C 56 90 0 
C 58 90 0 
C 60 90 0 
C 62 90 0 
C 64 90 0 
C 66 90 0 
C 68 90 0 
C 70 90 0 
C 72 90 0 
C 74 90 0 
C 76 90 0 
C 78 90 0 
C 80 90 0 
C 82 90 0 
C 84 90 0 
C 86 90 0 
C 88 90 0 
C 90 90 0 
C 92 90 0 
C 94 90 0 
C 96 90 0 
C 98 90 0 
C 100 90 0 
C 0 92 0 
C 2 92 0 
C 4 92 0 
C 6 92 0 
C 8 92 0 
C 10 92 0 
C 12 92 0 
C 14 92 0 
C 16 92 0 
C 18 92 0 
C 20 92 0 
C 22 92 0 
C 24 92 0 
C 26 92 0 
C 28 92 0 
C 30 92 0 
C 32 92 0 
C 34 92 0 
C 36 92 0 
C 38 92 0 
C 40 92 0 
C 42 92 0 
C 44 92 0 
C 46 92 0 
C 48 92 0 
C 50 92 0 
C 52 92 0 
C 54 92 0 
C 56 92 0 
C 58 92 0 
C 60 92 0 
C 62 92 0 
C 64 92 0 
C 66 92 0 
C 68 92 0 
C 70 92 0 
C 72 92 0 
C 74 92 0 
C 76 92 0 
C 78 92 0 
C 80 92 0 
C 82 92 0 
C 84 92 0 
C 86 92 0 
C 88 92 0 
C 90 92 0 
C 92 92 0 
C 94 92 0 
C 96 92 0 
C 98 92 0 
C 100 92 0 
C 0 94 0 
C 2 94 0 
C 4 94 0 
C 6 94 0 
C 8 94 0 
C 10 94 0 
C 12 94 0 
C 14 94 0 
C 16 94 0 
C 18 94 0 
C 20 94 0 
C 22 94 0 
C 24 94 0 
C 26 94 0 
C 28 94 0 
C 30 94 0 
C 32 94 0 
C 34 94 0 
C 36 94 0 
C 38 94 0 
C 40 94 0 
C 42 94 0 
C 44 94 0 
C 46 94 0 
C 48 94 0 
C 50 94 0 
C 52 94 0 
C 54 94 0 
C 56 94 0 
C 58 94 0 
C 60 94 0 
C 62 94 0 
C 64 94 0 
C 66 94 0 
C 68 94 0 
C 70 94 0 
C 72 94 0 
C 74 94 0 
C 76 94 0 
C 78 94 0 
C 80 94 0 
C 82 94 0 
C 84 94 0 
C 86 94 0 
C 88 94 0 
C 90 94 0 
C 92 94 0 
C 94 94 0 
C 96 94 0 
C 98 94 0 
C 100 94 0 
C 0 96 0 
C 2 96 0 
C 4 96 0 
C 6 96 0 
C 8 96 0 
C 10 96 0 
C 12 96 0 
C 14 96 0 
C 16 96 0 
C 18 96 0 
C 20 96 0 
C 22 96 0 
C 24 96 0 
C 26 96 0 
C 28 96 0 
C 30 96 0 
C 32 96 0 
C 34 96 0 
C 36 96 0 
C 38 96 0 
C 40 96 0 
C 42 96 0 
C 44 96 0 
C 46 96 0 
C 48 96 0 
C 50 96 0 
C 52 96 0 
C 54 96 0 
C 56 96 0 
C 58 96 0 
C 60 96 0 
C 62 96 0 
C 64 96 0 
C 66 96 0 
C 68 96 0 
C 70 96 0 
C 72 96 0 
C 74 96 0 
C 76 96 0 
C 78 96 0 
C 80 96 0 
C 82 96 0 
C 84 96 0 
C 86 96 0 
C 88 96 0 
C 90 96 0 
C 92 96 0 
C 94 96 0 
C 96 96 0 
C 98 96 0 
C 100 96 0 
C 0 98 0 
C 2 98 0 
C 4 98 0 
C 6 98 0 
C 8 98 0 
C 10 98 0 
C 12 98 0 
C 14 98 0 
C 16 98 0 
C 18 98 0 
C 20 98 0 
C 22 98 0 
C 24 98 0 
C 26 98 0 
C 28 98 0 
C 30 98 0 
C 32 98 0 
C 34 98 0 
C 36 98 0 
C 38 98 0 
C 40 98 0 
C 42 98 0 
C 44 98 0 
C 46 98 0 
C 48 98 0 
C 50 98 0 
C 52 98 0 
C 54 98 0 
C 56 98 0 
C 58 98 0 
C 60 98 0 
C 62 98 0 
C 64 98 0 
C 66 98 0 
C 68 98 0 
C 70 98 0 
C 72 98 0 
C 74 98 0 
C 76 98 0 
C 78 98 0 
C 80 98 0 
C 82 98 0 
C 84 98 0 
C 86 98 0 
C 88 98 0 
C 90 98 0 
C 92 98 0 
C 94 98 0 
C 96 98 0 
C 98 98 0 
C 100 98 0 
C 0 100 0 
C 2 100 0 
C 4 100 0 
C 6 100 0 
C 8 100 0 
C 10 100 0 
C 12 100 0 
C 14 100 0 
C 16 100 0 
C 18 100 0 
C 20 100 0 
C 22 100 0 
C 24 100 0 
C 26 100 0 
C 28 100 0 
C 30 100 0 
C 32 100 0 
C 34 100 0 
C 36 100 0 
C 38 100 0 
C 40 100 0 
C 42 100 0 
C 44 100 0 
C 46 100 0 
C 48 100 0 
C 50 100 0 
C 52 100 0 
C 54 100 0 
C 56 100 0 
C 58 100 0 
C 60 100 0 
C 62 100 0 
C 64 100 0 
C 66 100 0 
C 68 100 0 
C 70 100 0 
C 72 100 0 
C 74 100 0 
C 76 100 0 
C 78 100 0 
C 80 100 0 
C 82 100 0 
C 84 100 0 
C 86 100 0 
C 88 100 0 
C 90 100 0 
C 92 100 0 
C 94 100 0 
C 96 100 0 
C 98 100 0 
C 100 100 0 
O 99 90 0 
3102
Atoms. Timestep: 15
N 83 23 0 
N 19 54 0 
N 19 69 0 
N 49 96 0 
N 36 23 0 
N 61 25 0 
N 87 69 0 
N 6 57 0 
N 13 48 0 
N 49 26 0 
N 13 10 0 
N 59 29 0 
N 67 14 0 
N 81 86 0 
N 57 90 0 
N 48 61 0 
N 41 76 0 
N 3 90 0 
N 3 13 0 
N 84 27 0 
N 13 41 0 
N 81 13 0 
N 16 25 0 
N 49 81 0 
N 69 98 0 
N 11 91 0 
N 92 13 0 
N 67 96 0 
N 0 35 0 
N 33 45 0 
N 78 35 0 
N 60 21 0 
N 23 71 0 
N 96 51 0 
N 25 19 0 
N 79 53 0 
N 96 79 0 
N 70 13 0 
N 69 93 0 
N 97 7 0 
N 46 13 0 
N 27 96 0 
N 85 29 0 
N 29 60 0 
N 50 41 0 
N 61 27 0 
N 52 77 0 
N 49 33 0 
N 92 81 0 
N 27 14 0 
N 59 25 0 
N 44 35 0 
N 9 21 0 
N 19 24 0 
N 97 78 0 
N 18 81 0 
N 49 71 0 
N 87 11 0 
N 6 21 0 
N 69 77 0 
N 97 69 0 
N 79 98 0 
N 5 33 0 
N 75 89 0 
N 73 19 0 
N 5 64 0 
N 75 67 0 
N 81 29 0 
N 39 21 0 
N 67 29 0 
N 43 22 0 
N 3 97 0 
N 5 50 0 
N 19 76 0 
N 41 90 0 
N 37 23 0 
N 53 92 0 
N 3 36 0 
N 29 49 0 
N 76 13 0 
N 59 42 0 
N 95 25 0 
N 72 97 0 
N 92 45 0 
N 1 35 0 
N 5 24 0 
N 39 71 0 
N 7 81 0 
N 20 27 0 
N 83 87 0 
N 70 83 0 
N 99 98 0 
N 11 19 0 
N 93 67 0 
N 91 12 0 
N 76 9 0 
N 68 57 0 
N 97 17 0 
N 73 69 0 
N 9 31 0 
N 44 67 0 
N 65 94 0 
N 43 41 0 
N 82 15 0 
N 93 90 0 
N 55 90 0 
N 69 74 0 
N 70 53 0 
N 26 91 0 
N 23 80 0 
N 25 47 0 
N 74 73 0 
N 19 77 0 
N 83 13 0 
N 47 70 0 
N 48 47 0 
N 9 58 0 
N 1 83 0 
N 71 95 0 
N 25 96 0 
N 35 27 0 
N 51 85 0 
N 45 23 0 
N 55 65 0 
N 9 27 0 
N 78 13 0 
N 7 75 0 
N 4 13 0 
N 25 14 0 
N 94 89 0 
N 8 87 0 
N 66 45 0 
N 11 45 0 
N 77 98 0 
N 13 13 0 
N 15 77 0 
N 33 61 0 
N 80 45 0 
N 97 43 0 
N 81 18 0 
N 10 41 0 
N 76 81 0 
N 79 6 0 
N 63 9 0 
N 88 89 0 
N 45 93 0 
N 98 51 0 
N 41 60 0 
N 99 85 0 
N 67 93 0 
N 91 41 0 
N 95 71 0 
N 27 34 0 
N 11 99 0 
N 50 75 0 
N 23 82 0 
N 97 87 0 
N 8 69 0 
N 1 4 0 
N 15 46 0 
N 88 37 0 
N 45 63 0 
N 91 39 0 
N 23 1 0 
N 40 89 0 
N 39 81 0 
N 78 15 0 
N 89 89 0 
N 99 26 0 
N 49 78 0 
N 1 99 0 
N 77 37 0 
N 17 43 0 
N 12 19 0 
N 72 29 0 
N 47 90 0 
N 93 70 0 
N 55 4 0 
N 80 83 0 
N 80 89 0 
N 68 33 0 
N 15 11 0 
N 83 55 0 
N 45 62 0 
N 3 67 0 
N 6 71 0 
N 95 56 0 
N 71 85 0 
N 95 75 0 
N 18 19 0 
N 24 77 0 
N 1 92 0 
N 71 69 0 
N 21 90 0 
N 57 73 0 
N 97 28 0 
N 69 79 0 
N 95 27 0 
N 45 37 0 
N 97 30 0 
N 79 9 0 
N 69 91 0 
N 65 29 0 
N 44 95 0 
N 67 9 0 
N 33 69 0 
N 68 27 0 
N 55 40 0 
N 95 86 0 
N 92 61 0 
N 28 59 0 
N 23 68 0 
N 18 9 0 
N 99 27 0 
N 24 17 0 
N 11 76 0 
N 63 72 0 
N 55 69 0 
N 86 89 0 
N 26 85 0 
N 7 61 0 
N 83 27 0 
N 99 72 0 
N 61 29 0 
N 19 45 0 
N 97 83 0 
N 79 43 0 
N 93 56 0 
N 77 31 0 
N 97 73 0 
N 91 85 0 
N 54 47 0 
N 41 25 0 
N 89 82 0 
N 69 63 0 
N 78 59 0 
N 29 31 0 
N 74 85 0 
N 5 37 0 
N 24 15 0 
N 77 59 0 
N 21 71 0 
N 93 58 0 
N 7 23 0 
N 53 51 0 
N 25 1 0 
N 29 12 0 
N 21 72 0 
N 13 71 0 
N 14 15 0 
N 82 93 0 
N 50 61 0 
N 43 89 0 
N 19 26 0 
N 9 33 0 
N 12 25 0 
N 79 46 0 
N 59 37 0 
N 53 26 0 
N 17 83 0 
N 11 71 0 
N 3 37 0 
N 94 47 0 
N 6 25 0 
N 47 81 0 
N 91 91 0 
N 54 41 0 
N 75 49 0 
N 87 80 0 
N 60 43 0 
N 93 99 0 
N 19 11 0 
N 35 90 0 
N 11 7 0 
N 41 45 0 
N 57 59 0 
N 3 29 0 
N 32 35 0 
N 53 71 0 
N 1 33 0 
N 57 78 0 
N 15 17 0 
N 41 75 0 
N 75 28 0 
N 32 81 0 
N 64 25 0 
N 91 89 0 
N 41 40 0 
N 95 11 0 
N 89 9 0 
N 47 10 0 
N 37 25 0 
N 65 93 0 
N 65 16 0 
N 47 13 0 
N 29 77 0 
N 39 39 0 
N 17 68 0 
N 18 47 0 
N 91 49 0 
N 78 95 0 
N 7 63 0 
N 25 90 0 
N 9 1 0 
N 51 59 0 
N 61 9 0 
N 69 81 0 
N 11 48 0 
N 77 9 0 
N 23 90 0 
N 99 77 0 
N 37 55 0 
N 42 5 0 
N 7 33 0 
N 27 99 0 
N 31 78 0 
N 27 9 0 
N 68 39 0 
N 1 12 0 
N 45 27 0 
N 72 79 0 
N 4 15 0 
N 93 52 0 
N 25 75 0 
N 40 13 0 
N 72 9 0 
N 65 25 0 
N 97 5 0 
N 52 89 0 
N 10 47 0 
N 47 33 0 
N 84 7 0 
N 91 47 0 
N 67 26 0 
N 91 54 0 
N 42 31 0 
N 15 98 0 
N 9 95 0 
N 81 7 0 
N 79 71 0 
N 39 30 0 
N 32 37 0 
N 58 7 0 
N 78 47 0 
N 7 20 0 
N 15 95 0 
N 88 5 0 
N 49 90 0 
N 79 95 0 
N 55 88 0 
N 77 27 0 
N 71 89 0 
N 11 51 0 
N 97 67 0 
N 13 20 0 
N 42 27 0 
N 49 32 0 
N 36 1 0 
N 24 99 0 
N 45 59 0 
N 79 22 0 
N 64 31 0 
N 47 74 0 
N 45 29 0 
N 35 31 0 
N 2 35 0 
N 77 18 0 
N 47 39 0 
N 97 44 0 
N 99 44 0 
N 27 85 0 
N 71 15 0 
N 43 82 0 
N 65 27 0 
N 35 67 0 
N 44 11 0 
N 54 45 0 
N 91 15 0 
N 57 31 0 
N 72 95 0 
N 27 1 0 
N 5 92 0 
N 43 13 0 
N 33 79 0 
N 32 69 0 
N 57 49 0 
N 63 49 0 
N 39 25 0 
N 79 51 0 
N 11 27 0 
N 85 99 0 
N 98 83 0 
N 53 91 0 
N 77 29 0 
N 91 50 0 
N 1 36 0 
N 51 3 0 
N 59 30 0 
N 81 90 0 
N 53 78 0 
N 79 90 0 
N 9 69 0 
N 9 51 0 
N 30 63 0 
N 21 85 0 
N 79 39 0 
N 34 65 0 
N 81 75 0 
N 87 44 0 
N 43 29 0 
N 77 12 0 
N 65 9 0 
N 95 7 0 
N 6 39 0 
N 93 15 0 
N 51 45 0 
N 9 56 0 
N 31 30 0 
N 67 49 0 
N 88 43 0 
N 97 81 0 
N 92 29 0 
N 18 89 0 
N 47 63 0 
N 96 67 0 
N 79 17 0 
N 41 49 0 
N 11 67 0 
N 78 27 0 
N 5 26 0 
N 25 87 0 
N 33 27 0 
N 79 20 0 
N 37 69 0 
N 70 51 0 
N 93 60 0 
N 83 45 0 
N 1 9 0 
N 53 88 0 
N 78 69 0 
N 71 7 0 
N 9 65 0 
N 27 2 0 
N 17 69 0 
N 17 44 0 
N 15 28 0 
N 72 81 0 
N 71 90 0 
N 22 67 0 
N 19 71 0 
N 60 81 0 
N 95 84 0 
N 99 31 0 
N 74 19 0 
N 69 30 0 
N 63 33 0 
N 41 59 0 
N 93 72 0 
N 79 72 0 
N 1 5 0 
N 43 83 0 
N 59 35 0 
N 9 28 0 
N 19 89 0 
N 31 65 0 
N 14 13 0 
N 5 27 0 
N 79 68 0 
N 51 81 0 
N 17 73 0 
N 45 90 0 
N 5 15 0 
N 7 5 0 
N 43 15 0 
N 83 19 0 
N 44 47 0 
N 3 71 0 
N 45 89 0 
N 41 69 0 
N 33 10 0 
N 49 62 0 
N 95 39 0 
N 85 95 0 
N 64 29 0 
N 53 39 0 
N 76 25 0 
N 20 91 0 
N 99 29 0 
N 79 25 0 
N 83 15 0 
N 43 87 0 
N 47 23 0 
N 43 17 0 
N 33 26 0 
N 41 79 0 
N 51 38 0 
N 7 64 0 
N 79 19 0 
N 38 81 0 
N 96 71 0 
C 0 0 0 
C 2 0 0 
C 4 0 0 
C 6 0 0 
C 8 0 0 
C 10 0 0 
C 12 0 0 
C 14 0 0 
C 16 0 0 
C 18 0 0 
C 20 0 0 
C 22 0 0 
C 24 0 0 
C 26 0 0 
C 28 0 0 
C 30 0 0 
C 32 0 0 
C 34 0 0 
C 36 0 0 
C 38 0 0 
C 40 0 0 
C 42 0 0 
C 44 0 0 
C 46 0 0 
C 48 0 0 
C 50 0 0 
C 52 0 0 
C 54 0 0 
C 56 0 0 
C 58 0 0 
C 60 0 0 
C 62 0 0 
C 64 0 0 
C 66 0 0 
C 68 0 0 
C 70 0 0 
C 72 0 0 
C 74 0 0 
C 76 0 0 
C 78 0 0 
C 80 0 0 
C 82 0 0 
C 84 0 0 
C 86 0 0 
C 88 0 0 
C 90 0 0 
C 92 0 0 
C 94 0 0 
C 96 0 0 
C 98 0 0 
C 100 0 0 
C 0 2 0 
C 2 2 0 
C 4 2 0 
C 6 2 0 
C 8 2 0 
C 10 2 0 
C 12 2 0 
C 14 2 0 
C 16 2 0 
C 18 2 0 
C 20 2 0 
C 22 2 0 
C 24 2 0 
C 26 2 0 
C 28 2 0 
C 30 2 0 
C 32 2 0 
C 34 2 0 
C 36 2 0 
C 38 2 0 
C 40 2 0 
C 42 2 0 
C 44 2 0 
C 46 2 0 
C 48 2 0 
C 50 2 0 
C 52 2 0 
C 54 2 0 
C 56 2 0 
C 58 2 0 
C 60 2 0 
C 62 2 0 
C 64 2 0 
C 66 2 0 
C 68 2 0 
C 70 2 0 
C 72 2 0 
C 74 2 0 
C 76 2 0 
C 78 2 0 
C 80 2 0 
C 82 2 0 
C 84 2 0 
C 86 2 0 
C 88 2 0 
C 90 2 0 
C 92 2 0 
C 94 2 0 
C 96 2 0 
C 98 2 0 
C 100 2 0 
C 0 4 0 
C 2 4 0 
C 4 4 0 
C 6 4 0 
C 8 4 0 
C 10 4 0 
C 12 4 0 
C 14 4 0 
C 16 4 0 
C 18 4 0 
C 20 4 0 
C 22 4 0 
C 24 4 0 
C 26 4 0 
C 28 4 0 
C 30 4 0 
C 32 4 0 
C 34 4 0 
C 36 4 0 
C 38 4 0 
C 40 4 0 
C 42 4 0 
C 44 4 0 
C 46 4 0 
C 48 4 0 
C 50 4 0 
C 52 4 0 
C 54 4 0 
C 56 4 0 
C 58 4 0 
C 60 4 0 
C 62 4 0 
C 64 4 0 
C 66 4 0 
C 68 4 0 
C 70 4 0 
C 72 4 0 
C 74 4 0 
C 76 4 0 
C 78 4 0 
C 80 4 0 
C 82 4 0 
C 84 4 0 
C 86 4 0 
C 88 4 0 
C 90 4 0 
C 92 4 0 
C 94 4 0 
C 96 4 0 
C 98 4 0 
C 100 4 0 
C 0 6 0 
C 2 6 0 
C 4 6 0 
C 6 6 0 
C 8 6 0 
C 10 6 0 
C 12 6 0 
C 14 6 0 
C 16 6 0 
C 18 6 0 
C 20 6 0 
C 22 6 0 
C 24 6 0 
C 26 6 0 
C 28 6 0 
C 30 6 0 
C 32 6 0 
C 34 6 0 
C 36 6 0 
C 38 6 0 
C 40 6 0 
C 42 6 0 
C 44 6 0 
C 46 6 0 
C 48 6 0 
C 50 6 0 
C 52 6 0 
C 54 6 0 
C 56 6 0 
C 58 6 0 
C 60 6 0 
C 62 6 0 
C 64 6 0 
C 66 6 0 
C 68 6 0 
C 70 6 0 
C 72 6 0 
C 74 6 0 
C 76 6 0 
C 78 6 0 
C 80 6 0 
C 82 6 0 
C 84 6 0 
C 86 6 0 
C 88 6 0 
C 90 6 0 
C 92 6 0 
C 94 6 0 
C 96 6 0 
C 98 6 0 
C 100 6 0 
C 0 8 0 
C 2 8 0 
C 4 8 0 
C 6 8 0 
C 8 8 0 
C 10 8 0 
C 12 8 0 
C 14 8 0 
C 16 8 0 
C 18 8 0 
C 20 8 0 
C 22 8 0 
C 24 8 0 
C 26 8 0 
C 28 8 0 
C 30 8 0 
C 32 8 0 
C 34 8 0 
C 36 8 0 
C 38 8 0 
C 40 8 0 
C 42 8 0 
C 44 8 0 
C 46 8 0 
C 48 8 0 
C 50 8 0 
C 52 8 0 
C 54 8 0 
C 56 8 0 
C 58 8 0 
C 60 8 0 
C 62 8 0 
C 64 8 0 
C 66 8 0 
C 68 8 0 
C 70 8 0 
C 72 8 0 
C 74 8 0 
C 76 8 0 
C 78 8 0 
C 80 8 0 
C 82 8 0 
C 84 8 0 
C 86 8 0 
C 88 8 0 
C 90 8 0 
C 92 8 0 
C 94 8 0 
C 96 8 0 
C 98 8 0 
C 100 8 0 
C 0 10 0 
C 2 10 0 
C 4 10 0 
C 6 10 0 
C 8 10 0 
C 10 10 0 
C 12 10 0 
C 14 10 0 
C 16 10 0 
C 18 10 0 
C 20 10 0 
C 22 10 0 
C 24 10 0 
C 26 10 0 
C 28 10 0 
C 30 10 0 
C 32 10 0 
C 34 10 0 
C 36 10 0 
C 38 10 0 
C 40 10 0 
C 42 10 0 
C 44 10 0 
C 46 10 0 
C 48 10 0 
C 50 10 0 
C 52 10 0 
C 54 10 0 
C 56 10 0 
C 58 10 0 
C 60 10 0 
C 62 10 0 
C 64 10 0 
C 66 10 0 
C 68 10 0 
C 70 10 0 
C 72 10 0 
C 74 10 0 
C 76 10 0 
C 78 10 0 
C 80 10 0 
C 82 10 0 
C 84 10 0 
C 86 10 0 
C 88 10 0 
C 90 10 0 
C 92 10 0 
C 94 10 0 
C 96 10 0 
C 98 10 0 
C 100 10 0 
C 0 12 0 
C 2 12 0 
C 4 12 0 
C 6 12 0 
C 8 12 0 
C 10 12 0 
C 12 12 0 
C 14 12 0 
C 16 12 0 
C 18 12 0 
C 20 12 0 
C 22 12 0 
C 24 12 0 
C 26 12 0 
C 28 12 0 
C 30 12 0 
C 32 12 0 
C 34 12 0 
C 36 12 0 
C 38 12 0 
C 40 12 0 
C 42 12 0 
C 44 12 0 
C 46 12 0 
C 48 12 0 
C 50 12 0 
C 52 12 0 
C 54 12 0 
C 56 12 0 
C 58 12 0 
C 60 12 0 
C 62 12 0 
C 64 12 0 
C 66 12 0 
C 68 12 0 
C 70 12 0 
C 72 12 0 
C 74 12 0 
C 76 12 0 
C 78 12 0 
C 80 12 0 
C 82 12 0 
C 84 12 0 
C 86 12 0 
C 88 12 0 
C 90 12 0 
C 92 12 0 
C 94 12 0 
C 96 12 0 
C 98 12 0 
C 100 12 0 
C 0 14 0 
C 2 14 0 
C 4 14 0 
C 6 14 0 
C 8 14 0 
C 10 14 0 
C 12 14 0 
C 14 14 0 
C 16 14 0 
C 18 14 0 
C 20 14 0 
C 22 14 0 
C 24 14 0 
C 26 14 0 
C 28 14 0 
C 30 14 0 
C 32 14 0 
C 34 14 0 
C 36 14 0 
C 38 14 0 
C 40 14 0 
C 42 14 0 
C 44 14 0 
C 46 14 0 
C 48 14 0 
C 50 14 0 
C 52 14 0 
C 54 14 0 
C 56 14 0 
C 58 14 0 
C 60 14 0 
C 62 14 0 
C 64 14 0 
C 66 14 0 
C 68 14 0 
C 70 14 0 
C 72 14 0 
C 74 14 0 
C 76 14 0 
C 78 14 0 
C 80 14 0 
C 82 14 0 
C 84 14 0 
C 86 14 0 
C 88 14 0 
C 90 14 0 
C 92 14 0 
C 94 14 0 
C 96 14 0 
C 98 14 0 
C 100 14 0 
C 0 16 0 
C 2 16 0 
C 4 16 0 
C 6 16 0 
C 8 16 0 
C 10 16 0 
C 12 16 0 
C 14 16 0 
C 16 16 0 
C 18 16 0 
C 20 16 0 
C 22 16 0 
C 24 16 0 
C 26 16 0 
C 28 16 0 
C 30 16 0 
C 32 16 0 
C 34 16 0 
C 36 16 0 
C 38 16 0 
C 40 16 0 
C 42 16 0 
C 44 16 0 
C 46 16 0 
C 48 16 0 
C 50 16 0 
C 52 16 0 
C 54 16 0 
C 56 16 0 
C 58 16 0 
C 60 16 0 
C 62 16 0 
C 64 16 0 
C 66 16 0 
C 68 16 0 
C 70 16 0 
C 72 16 0 
C 74 16 0 
C 76 16 0 
C 78 16 0 
C 80 16 0 
C 82 16 0 
C 84 16 0 
C 86 16 0 
C 88 16 0 
C 90 16 0 
C 92 16 0 
C 94 16 0 
C 96 16 0 
C 98 16 0 
C 100 16 0 
C 0 18 0 
C 2 18 0 
C 4 18 0 
C 6 18 0 
C 8 18 0 
C 10 18 0 
C 12 18 0 
C 14 18 0 
C 16 18 0 
C 18 18 0 
C 20 18 0 
C 22 18 0 
C 24 18 0 
C 26 18 0 
C 28 18 0 
C 30 18 0 
C 32 18 0 
C 34 18 0 
C 36 18 0 
C 38 18 0 
C 40 18 0 
C 42 18 0 
C 44 18 0 
C 46 18 0 
C 48 18 0 
C 50 18 0 
C 52 18 0 
C 54 18 0 
C 56 18 0 
C 58 18 0 
C 60 18 0 
C 62 18 0 
C 64 18 0 
C 66 18 0 
C 68 18 0 
C 70 18 0 
C 72 18 0 
C 74 18 0 
C 76 18 0 
C 78 18 0 
C 80 18 0 
C 82 18 0 
C 84 18 0 
C 86 18 0 
C 88 18 0 
C 90 18 0 
C 92 18 0 
C 94 18 0 
C 96 18 0 
C 98 18 0 
C 100 18 0 
C 0 20 0 
C 2 20 0 
C 4 20 0 
C 6 20 0 
C 8 20 0 
C 10 20 0 
C 12 20 0 
C 14 20 0 
C 16 20 0 
C 18 20 0 
C 20 20 0 
C 22 20 0 
C 24 20 0 
C 26 20 0 
C 28 20 0 
C 30 20 0 
C 32 20 0 
C 34 20 0 
C 36 20 0 
C 38 20 0 
C 40 20 0 
C 42 20 0 
C 44 20 0 
C 46 20 0 
C 48 20 0 
C 50 20 0 
C 52 20 0 
C 54 20 0 
C 56 20 0 
C 58 20 0 
C 60 20 0 
C 62 20 0 
C 64 20 0 
C 66 20 0 
C 68 20 0 
C 70 20 0 
C 72 20 0 
C 74 20 0 
C 76 20 0 
C 78 20 0 
C 80 20 0 
C 82 20 0 
C 84 20 0 
C 86 20 0 
C 88 20 0 
C 90 20 0 
C 92 20 0 
C 94 20 0 
C 96 20 0 
C 98 20 0 
C 100 20 0 
C 0 22 0 
C 2 22 0 
C 4 22 0 
C 6 22 0 
C 8 22 0 
C 10 22 0 
C 12 22 0 
C 14 22 0 
C 16 22 0 
C 18 22 0 
C 20 22 0 
C 22 22 0 
C 24 22 0 
C 26 22 0 
C 28 22 0 
C 30 22 0 
C 32 22 0 
C 34 22 0 
C 36 22 0 
C 38 22 0 
C 40 22 0 
C 42 22 0 
C 44 22 0 
C 46 22 0 
C 48 22 0 
C 50 22 0 
C 52 22 0 
C 54 22 0 
C 56 22 0 
C 58 22 0 
C 60 22 0 
C 62 22 0 
C 64 22 0 
C 66 22 0 
C 68 22 0 
C 70 22 0 
C 72 22 0 
C 74 22 0 
C 76 22 0 
C 78 22 0 
C 80 22 0 
C 82 22 0 
C 84 22 0 
C 86 22 0 
C 88 22 0 
C 90 22 0 
C 92 22 0 
C 94 22 0 
C 96 22 0 
C 98 22 0 
C 100 22 0 
C 0 24 0 
C 2 24 0 
C 4 24 0 
C 6 24 0 
C 8 24 0 
C 10 24 0 
C 12 24 0 
C 14 24 0 
C 16 24 0 
C 18 24 0 
C 20 24 0 
C 22 24 0 
C 24 24 0 
C 26 24 0 
C 28 24 0 
C 30 24 0 
C 32 24 0 
C 34 24 0 
C 36 24 0 
C 38 24 0 
C 40 24 0 
C 42 24 0 
C 44 24 0 
C 46 24 0 
C 48 24 0 
C 50 24 0 
C 52 24 0 
C 54 24 0 
C 56 24 0 
C 58 24 0 
C 60 24 0 
C 62 24 0 
C 64 24 0 
C 66 24 0 
C 68 24 0 
C 70 24 0 
C 72 24 0 
C 74 24 0 
C 76 24 0 
C 78 24 0 
C 80 24 0 
C 82 24 0 
C 84 24 0 
C 86 24 0 
C 88 24 0 
C 90 24 0 
C 92 24 0 
C 94 24 0 
C 96 24 0 
C 98 24 0 
C 100 24 0 
C 0 26 0 
C 2 26 0 
C 4 26 0 
C 6 26 0 
C 8 26 0 
C 10 26 0 
C 12 26 0 
C 14 26 0 
C 16 26 0 
C 18 26 0 
C 20 26 0 
C 22 26 0 
C 24 26 0 
C 26 26 0 
C 28 26 0 
C 30 26 0 
C 32 26 0 
C 34 26 0 
C 36 26 0 
C 38 26 0 
C 40 26 0 
C 42 26 0 
C 44 26 0 
C 46 26 0 
C 48 26 0 
C 50 26 0 
C 52 26 0 
C 54 26 0 
C 56 26 0 
C 58 26 0 
C 60 26 0 
C 62 26 0 
C 64 26 0 
C 66 26 0 
C 68 26 0 
C 70 26 0 
C 72 26 0 
C 74 26 0 
C 76 26 0 
C 78 26 0 
C 80 26 0 
C 82 26 0 
C 84 26 0 
C 86 26 0 
C 88 26 0 
C 90 26 0 
C 92 26 0 
C 94 26 0 
C 96 26 0 
C 98 26 0 
C 100 26 0 
C 0 28 0 
C 2 28 0 
C 4 28 0 
C 6 28 0 
C 8 28 0 
C 10 28 0 
C 12 28 0 
C 14 28 0 
C 16 28 0 
C 18 28 0 
C 20 28 0 
C 22 28 0 
C 24 28 0 
C 26 28 0 
C 28 28 0 
C 30 28 0 
C 32 28 0 
C 34 28 0 
C 36 28 0 
C 38 28 0 
C 40 28 0 
C 42 28 0 
C 44 28 0 
C 46 28 0 
C 48 28 0 
C 50 28 0 
C 52 28 0 
C 54 28 0 
C 56 28 0 
C 58 28 0 
C 60 28 0 
C 62 28 0 
C 64 28 0 
C 66 28 0 
C 68 28 0 
C 70 28 0 
C 72 28 0 
C 74 28 0 
C 76 28 0 
C 78 28 0 
C 80 28 0 
C 82 28 0 
C 84 28 0 
C 86 28 0 
C 88 28 0 
C 90 28 0 
C 92 28 0 
C 94 28 0 
C 96 28 0 
C 98 28 0 
C 100 28 0 
C 0 30 0 
C 2 30 0 
C 4 30 0 
C 6 30 0 
C 8 30 0 
C 10 30 0 
C 12 30 0 
C 14 30 0 
C 16 30 0 
C 18 30 0 
C 20 30 0 
C 22 30 0 
C 24 30 0 
C 26 30 0 
C 28 30 0 
C 30 30 0 
C 32 30 0 
C 34 30 0 
C 36 30 0 
C 38 30 0 
C 40 30 0 
C 42 30 0 
C 44 30 0 
C 46 30 0 
C 48 30 0 
C 50 30 0 
C 52 30 0 
C 54 30 0 
C 56 30 0 
C 58 30 0 
C 60 30 0 
C 62 30 0 
C 64 30 0 
C 66 30 0 
C 68 30 0 
C 70 30 0 
C 72 30 0 
C 74 30 0 
C 76 30 0 
C 78 30 0 
C 80 30 0 
C 82 30 0 
C 84 30 0 
C 86 30 0 
C 88 30 0 
C 90 30 0 
C 92 30 0 
C 94 30 0 
C 96 30 0 
C 98 30 0 
C 100 30 0 
C 0 32 0 
C 2 32 0 
C 4 32 0 
C 6 32 0 
C 8 32 0 
C 10 32 0 
C 12 32 0 
C 14 32 0 
C 16 32 0 
C 18 32 0 
C 20 32 0 
C 22 32 0 
C 24 32 0 
C 26 32 0 
C 28 32 0 
C 30 32 0 
C 32 32 0 
C 34 32 0 
C 36 32 0 
C 38 32 0 
C 40 32 0 
C 42 32 0 
C 44 32 0 
C 46 32 0 
C 48 32 0 
C 50 32 0 
C 52 32 0 
C 54 32 0 
C 56 32 0 
C 58 32 0 
C 60 32 0 
C 62 32 0 
C 64 32 0 
C 66 32 0 
C 68 32 0 
C 70 32 0 
C 72 32 0 
C 74 32 0 
C 76 32 0 
C 78 32 0 
C 80 32 0 
C 82 32 0 
C 84 32 0 
C 86 32 0 
C 88 32 0 
C 90 32 0 
C 92 32 0 
C 94 32 0 
C 96 32 0 
C 98 32 0 
C 100 32 0 
C 0 34 0 
C 2 34 0 
C 4 34 0 
C 6 34 0 
C 8 34 0 
C 10 34 0 
C 12 34 0 
C 14 34 0 
C 16 34 0 
C 18 34 0 
C 20 34 0 
C 22 34 0 
C 24 34 0 
C 26 34 0 
C 28 34 0 
C 30 34 0 
C 32 34 0 
C 34 34 0 
C 36 34 0 
C 38 34 0 
C 40 34 0 
C 42 34 0 
C 44 34 0 
C 46 34 0 
C 48 34 0 
C 50 34 0 
C 52 34 0 
C 54 34 0 
C 56 34 0 
C 58 34 0 
C 60 34 0 
C 62 34 0 
C 64 34 0 
C 66 34 0 
C 68 34 0 
C 70 34 0 
C 72 34 0 
C 74 34 0 
C 76 34 0 
C 78 34 0 
C 80 34 0 
C 82 34 0 
C 84 34 0 
C 86 34 0 
C 88 34 0 
C 90 34 0 
C 92 34 0 
C 94 34 0 
C 96 34 0 
C 98 34 0 
C 100 34 0 
C 0 36 0 
C 2 36 0 
C 4 36 0 
C 6 36 0 
C 8 36 0 
C 10 36 0 
C 12 36 0 
C 14 36 0 
C 16 36 0 
C 18 36 0 
C 20 36 0 
C 22 36 0 
C 24 36 0 
C 26 36 0 
C 28 36 0 
C 30 36 0 
C 32 36 0 
C 34 36 0 
C 36 36 0 
C 38 36 0 
C 40 36 0 
C 42 36 0 
C 44 36 0 
C 46 36 0 
C 48 36 0 
C 50 36 0 
C 52 36 0 
C 54 36 0 
C 56 36 0 
C 58 36 0 
C 60 36 0 
C 62 36 0 
C 64 36 0 
C 66 36 0 
C 68 36 0 
C 70 36 0 
C 72 36 0 
C 74 36 0 
C 76 36 0 
C 78 36 0 
C 80 36 0 
C 82 36 0 
C 84 36 0 
C 86 36 0 
C 88 36 0 
C 90 36 0 
C 92 36 0 
C 94 36 0 
C 96 36 0 
C 98 36 0 
C 100 36 0 
C 0 38 0 
C 2 38 0 
C 4 38 0 
C 6 38 0 
C 8 38 0 
C 10 38 0 
C 12 38 0 
C 14 38 0 
C 16 38 0 
C 18 38 0 
C 20 38 0 
C 22 38 0 
C 24 38 0 
C 26 38 0 
C 28 38 0 
C 30 38 0 
C 32 38 0 
C 34 38 0 
C 36 38 0 
C 38 38 0 
C 40 38 0 
C 42 38 0 
C 44 38 0 
C 46 38 0 
C 48 38 0 
C 50 38 0 
C 52 38 0 
C 54 38 0 
C 56 38 0 
C 58 38 0 
C 60 38 0 
C 62 38 0 
C 64 38 0 
C 66 38 0 
C 68 38 0 
C 70 38 0 
C 72 38 0 
C 74 38 0 
C 76 38 0 
C 78 38 0 
C 80 38 0 
C 82 38 0 
C 84 38 0 
C 86 38 0 
C 88 38 0 
C 90 38 0 
C 92 38 0 
C 94 38 0 
C 96 38 0 
C 98 38 0 
C 100 38 0 
C 0 40 0 
C 2 40 0 
C 4 40 0 
C 6 40 0 
C 8 40 0 
C 10 40 0 
C 12 40 0 
C 14 40 0 
C 16 40 0 
C 18 40 0 
C 20 40 0 
C 22 40 0 
C 24 40 0 
C 26 40 0 
C 28 40 0 
C 30 40 0 
C 32 40 0 
C 34 40 0 
C 36 40 0 
C 38 40 0 
C 40 40 0 
C 42 40 0 
C 44 40 0 
C 46 40 0 
C 48 40 0 
C 50 40 0 
C 52 40 0 
C 54 40 0 
C 56 40 0 
C 58 40 0 
C 60 40 0 
C 62 40 0 
C 64 40 0 
C 66 40 0 
C 68 40 0 
C 70 40 0 
C 72 40 0 
C 74 40 0 
C 76 40 0 
C 78 40 0 
C 80 40 0 
C 82 40 0 
C 84 40 0 
C 86 40 0 
C 88 40 0 
C 90 40 0 
C 92 40 0 
C 94 40 0 
C 96 40 0 
C 98 40 0 
C 100 40 0 
C 0 42 0 
C 2 42 0 
C 4 42 0 
C 6 42 0 
C 8 42 0 
C 10 42 0 
C 12 42 0 
C 14 42 0 
C 16 42 0 
C 18 42 0 
C 20 42 0 
C 22 42 0 
C 24 42 0 
C 26 42 0 
C 28 42 0 
C 30 42 0 
C 32 42 0 
C 34 42 0 
C 36 42 0 
C 38 42 0 
C 40 42 0 
C 42 42 0 
C 44 42 0 
C 46 42 0 
C 48 42 0 
C 50 42 0 
C 52 42 0 
C 54 42 0 
C 56 42 0 
C 58 42 0 
C 60 42 0 
C 62 42 0 
C 64 42 0 
C 66 42 0 
C 68 42 0 
C 70 42 0 
C 72 42 0 
C 74 42 0 
C 76 42 0 
C 78 42 0 
C 80 42 0 
C 82 42 0 
C 84 42 0 
C 86 42 0 
C 88 42 0 
C 90 42 0 
C 92 42 0 
C 94 42 0 
C 96 42 0 
C 98 42 0 
C 100 42 0 
C 0 44 0 
C 2 44 0 
C 4 44 0 
C 6 44 0 
C 8 44 0 
C 10 44 0 
C 12 44 0 
C 14 44 0 
C 16 44 0 
C 18 44 0 
C 20 44 0 
C 22 44 0 
C 24 44 0 
C 26 44 0 
C 28 44 0 
C 30 44 0 
C 32 44 0 
C 34 44 0 
C 36 44 0 
C 38 44 0 
C 40 44 0 
C 42 44 0 
C 44 44 0 
C 46 44 0 
C 48 44 0 
C 50 44 0 
C 52 44 0 
C 54 44 0 
C 56 44 0 
C 58 44 0 
C 60 44 0 
C 62 44 0 
C 64 44 0 
C 66 44 0 
C 68 44 0 
C 70 44 0 
C 72 44 0 
C 74 44 0 
C 76 44 0 
C 78 44 0 
C 80 44 0 
C 82 44 0 
C 84 44 0 
C 86 44 0 
C 88 44 0 
C 90 44 0 
C 92 44 0 
C 94 44 0 
C 96 44 0 
C 98 44 0 
C 100 44 0 
C 0 46 0 
C 2 46 0 
C 4 46 0 
C 6 46 0 
C 8 46 0 
C 10 46 0 
C 12 46 0 
C 14 46 0 
C 16 46 0 
C 18 46 0 
C 20 46 0 
C 22 46 0 
C 24 46 0 
C 26 46 0 
C 28 46 0 
C 30 46 0 
C 32 46 0 
C 34 46 0 
C 36 46 0 
C 38 46 0 
C 40 46 0 
C 42 46 0 
C 44 46 0 
C 46 46 0 
C 48 46 0 
C 50 46 0 
C 52 46 0 
C 54 46 0 
C 56 46 0 
C 58 46 0 
C 60 46 0 
C 62 46 0 
C 64 46 0 
C 66 46 0 
C 68 46 0 
C 70 46 0 
C 72 46 0 
C 74 46 0 
C 76 46 0 
C 78 46 0 
C 80 46 0 
C 82 46 0 
C 84 46 0 
C 86 46 0 
C 88 46 0 
C 90 46 0 
C 92 46 0 
C 94 46 0 
C 96 46 0 
C 98 46 0 
C 100 46 0 
C 0 48 0 
C 2 48 0 
C 4 48 0 
C 6 48 0 
C 8 48 0 
C 10 48 0 
C 12 48 0 
C 14 48 0 
C 16 48 0 
C 18 48 0 
C 20 48 0 
C 22 48 0 
C 24 48 0 
C 26 48 0 
C 28 48 0 
C 30 48 0 
C 32 48 0 
C 34 48 0 
C 36 48 0 
C 38 48 0 
C 40 48 0 
C 42 48 0 
C 44 48 0 
C 46 48 0 
C 48 48 0 
C 50 48 0 
C 52 48 0 
C 54 48 0 
C 56 48 0 
C 58 48 0 
C 60 48 0 
C 62 48 0 
C 64 48 0 
C 66 48 0 
C 68 48 0 
C 70 48 0 
C 72 48 0 
C 74 48 0 
C 76 48 0 
C 78 48 0 
C 80 48 0 
C 82 48 0 
C 84 48 0 
C 86 48 0 
C 88 48 0 
C 90 48 0 
C 92 48 0 
C 94 48 0 
C 96 48 0 
C 98 48 0 
C 100 48 0 
C 0 50 0 
C 2 50 0 
C 4 50 0 
C 6 50 0 
C 8 50 0 
C 10 50 0 
C 12 50 0 
C 14 50 0 
C 16 50 0 
C 18 50 0 
C 20 50 0 
C 22 50 0 
C 24 50 0 
C 26 50 0 
C 28 50 0 
C 30 50 0 
C 32 50 0 
C 34 50 0 
C 36 50 0 
C 38 50 0 
C 40 50 0 
C 42 50 0 
C 44 50 0 
C 46 50 0 
C 48 50 0 
C 50 50 0 
C 52 50 0 
C 54 50 0 
C 56 50 0 
C 58 50 0 
C 60 50 0 
C 62 50 0 
C 64 50 0 
C 66 50 0 
C 68 50 0 
C 70 50 0 
C 72 50 0 
C 74 50 0 
C 76 50 0 
C 78 50 0 
C 80 50 0 
C 82 50 0 
C 84 50 0 
C 86 50 0 
C 88 50 0 
C 90 50 0 
C 92 50 0 
C 94 50 0 
C 96 50 0 
C 98 50 0 
C 100 50 0 
C 0 52 0 
C 2 52 0 
C 4 52 0 
C 6 52 0 
C 8 52 0 
C 10 52 0 
C 12 52 0 
C 14 52 0 
C 16 52 0 
C 18 52 0 
C 20 52 0 
C 22 52 0 
C 24 52 0 
C 26 52 0 
C 28 52 0 
C 30 52 0 
C 32 52 0 
C 34 52 0 
C 36 52 0 
C 38 52 0 
C 40 52 0 
C 42 52 0 
C 44 52 0 
C 46 52 0 
C 48 52 0 
C 50 52 0 
C 52 52 0 
C 54 52 0 
C 56 52 0 
C 58 52 0 
C 60 52 0 
C 62 52 0 
C 64 52 0 
C 66 52 0 
C 68 52 0 
C 70 52 0 
C 72 52 0 
C 74 52 0 
C 76 52 0 
C 78 52 0 
C 80 52 0 
C 82 52 0 
C 84 52 0 
C 86 52 0 
C 88 52 0 
C 90 52 0 
C 92 52 0 
C 94 52 0 
C 96 52 0 
C 98 52 0 
C 100 52 0 
C 0 54 0 
C 2 54 0 
C 4 54 0 
C 6 54 0 
C 8 54 0 
C 10 54 0 
C 12 54 0 
C 14 54 0 
C 16 54 0 
C 18 54 0 
C 20 54 0 
C 22 54 0 
C 24 54 0 
C 26 54 0 
C 28 54 0 
C 30 54 0 
C 32 54 0 
C 34 54 0 
C 36 54 0 
C 38 54 0 
C 40 54 0 
C 42 54 0 
C 44 54 0 
C 46 54 0 
C 48 54 0 
C 50 54 0 
C 52 54 0 
C 54 54 0 
C 56 54 0 
C 58 54 0 
C 60 54 0 
C 62 54 0 
C 64 54 0 
C 66 54 0 
C 68 54 0 
C 70 54 0 
C 72 54 0 
C 74 54 0 
C 76 54 0 
C 78 54 0 
C 80 54 0 
C 82 54 0 
C 84 54 0 
C 86 54 0 
C 88 54 0 
C 90 54 0 
C 92 54 0 
C 94 54 0 
C 96 54 0 
C 98 54 0 
C 100 54 0 
C 0 56 0 
C 2 56 0 
C 4 56 0 
C 6 56 0 
C 8 56 0 
C 10 56 0 
C 12 56 0 
C 14 56 0 
C 16 56 0 
C 18 56 0 
C 20 56 0 
C 22 56 0 
C 24 56 0 
C 26 56 0 
C 28 56 0 
C 30 56 0 
C 32 56 0 
C 34 56 0 
C 36 56 0 
C 38 56 0 
C 40 56 0 
C 42 56 0 
C 44 56 0 
C 46 56 0 
C 48 56 0 
C 50 56 0 
C 52 56 0 
C 54 56 0 
C 56 56 0 
C 58 56 0 
C 60 56 0 
C 62 56 0 
C 64 56 0 
C 66 56 0 
C 68 56 0 
C 70 56 0 
C 72 56 0 
C 74 56 0 
C 76 56 0 
C 78 56 0 
C 80 56 0 
C 82 56 0 
C 84 56 0 
C 86 56 0 
C 88 56 0 
C 90 56 0 
C 92 56 0 
C 94 56 0 
C 96 56 0 
C 98 56 0 
C 100 56 0 
C 0 58 0 
C 2 58 0 
C 4 58 0 
C 6 58 0 
C 8 58 0 
C 10 58 0 
C 12 58 0 
C 14 58 0 
C 16 58 0 
C 18 58 0 
C 20 58 0 
C 22 58 0 
C 24 58 0 
C 26 58 0 
C 28 58 0 
C 30 58 0 
C 32 58 0 
C 34 58 0 
C 36 58 0 
C 38 58 0 
C 40 58 0 
C 42 58 0 
C 44 58 0 
C 46 58 0 
C 48 58 0 
C 50 58 0 
C 52 58 0 
C 54 58 0 
C 56 58 0 
C 58 58 0 
C 60 58 0 
C 62 58 0 
C 64 58 0 
C 66 58 0 
C 68 58 0 
C 70 58 0 
C 72 58 0 
C 74 58 0 
C 76 58 0 
C 78 58 0 
C 80 58 0 
C 82 58 0 
C 84 58 0 
C 86 58 0 
C 88 58 0 
C 90 58 0 
C 92 58 0 
C 94 58 0 
C 96 58 0 
C 98 58 0 
C 100 58 0 
C 0 60 0 
C 2 60 0 
C 4 60 0 
C 6 60 0 
C 8 60 0 
C 10 60 0 
C 12 60 0 
C 14 60 0 
C 16 60 0 
C 18 60 0 
C 20 60 0 
C 22 60 0 
C 24 60 0 
C 26 60 0 
C 28 60 0 
C 30 60 0 
C 32 60 0 
C 34 60 0 
C 36 60 0 
C 38 60 0 
C 40 60 0 
C 42 60 0 
C 44 60 0 
C 46 60 0 
C 48 60 0 
C 50 60 0 
C 52 60 0 
C 54 60 0 
C 56 60 0 
C 58 60 0 
C 60 60 0 
C 62 60 0 
C 64 60 0 
C 66 60 0 
C 68 60 0 
C 70 60 0 
C 72 60 0 
C 74 60 0 
C 76 60 0 
C 78 60 0 
C 80 60 0 
C 82 60 0 
C 84 60 0 
C 86 60 0 
C 88 60 0 
C 90 60 0 
C 92 60 0 
C 94 60 0 
C 96 60 0 
C 98 60 0 
C 100 60 0 
C 0 62 0 
C 2 62 0 
C 4 62 0 
C 6 62 0 
C 8 62 0 
C 10 62 0 
C 12 62 0 
C 14 62 0 
C 16 62 0 
C 18 62 0 
C 20 62 0 
C 22 62 0 
C 24 62 0 
C 26 62 0 
C 28 62 0 
C 30 62 0 
C 32 62 0 
C 34 62 0 
C 36 62 0 
C 38 62 0 
C 40 62 0 
C 42 62 0 
C 44 62 0 
C 46 62 0 
C 48 62 0 
C 50 62 0 
C 52 62 0 
C 54 62 0 
C 56 62 0 
C 58 62 0 
C 60 62 0 
C 62 62 0 
C 64 62 0 
C 66 62 0 
C 68 62 0 
C 70 62 0 
C 72 62 0 
C 74 62 0 
C 76 62 0 
C 78 62 0 
C 80 62 0 
C 82 62 0 
C 84 62 0 
C 86 62 0 
C 88 62 0 
C 90 62 0 
C 92 62 0 
C 94 62 0 
C 96 62 0 
C 98 62 0 
C 100 62 0 
C 0 64 0 
C 2 64 0 
C 4 64 0 
C 6 64 0 
C 8 64 0 
C 10 64 0 
C 12 64 0 
C 14 64 0 
C 16 64 0 
C 18 64 0 
C 20 64 0 
C 22 64 0 
C 24 64 0 
C 26 64 0 
C 28 64 0 
C 30 64 0 
C 32 64 0 
C 34 64 0 
C 36 64 0 
C 38 64 0 
C 40 64 0 
C 42 64 0 
C 44 64 0 
C 46 64 0 
C 48 64 0 
C 50 64 0 
C 52 64 0 
C 54 64 0 
C 56 64 0 
C 58 64 0 
C 60 64 0 
C 62 64 0 
C 64 64 0 
C 66 64 0 
C 68 64 0 
C 70 64 0 
C 72 64 0 
C 74 64 0 
C 76 64 0 
C 78 64 0 
C 80 64 0 
C 82 64 0 
C 84 64 0 
C 86 64 0 
C 88 64 0 
C 90 64 0 
C 92 64 0 
C 94 64 0 
C 96 64 0 
C 98 64 0 
C 100 64 0 
C 0 66 0 
C 2 66 0 
C 4 66 0 
C 6 66 0 
C 8 66 0 
C 10 66 0 
C 12 66 0 
C 14 66 0 
C 16 66 0 
C 18 66 0 
C 20 66 0 
C 22 66 0 
C 24 66 0 
C 26 66 0 
C 28 66 0 
C 30 66 0 
C 32 66 0 
C 34 66 0 
C 36 66 0 
C 38 66 0 
C 40 66 0 
C 42 66 0 
C 44 66 0 
C 46 66 0 
C 48 66 0 
C 50 66 0 
C 52 66 0 
C 54 66 0 
C 56 66 0 
C 58 66 0 
C 60 66 0 
C 62 66 0 
C 64 66 0 
C 66 66 0 
C 68 66 0 
C 70 66 0 
C 72 66 0 
C 74 66 0 
C 76 66 0 
C 78 66 0 
C 80 66 0 
C 82 66 0 
C 84 66 0 
C 86 66 0 
C 88 66 0 
C 90 66 0 
C 92 66 0 
C 94 66 0 
C 96 66 0 
C 98 66 0 
C 100 66 0 
C 0 68 0 
C 2 68 0 
C 4 68 0 
C 6 68 0 
C 8 68 0 
C 10 68 0 
C 12 68 0 
C 14 68 0 
C 16 68 0 
C 18 68 0 
C 20 68 0 
C 22 68 0 
C 24 68 0 
C 26 68 0 
C 28 68 0 
C 30 68 0 
C 32 68 0 
C 34 68 0 
C 36 68 0 
C 38 68 0 
C 40 68 0 
C 42 68 0 
C 44 68 0 
C 46 68 0 
C 48 68 0 
C 50 68 0 
C 52 68 0 
C 54 68 0 
C 56 68 0 
C 58 68 0 
C 60 68 0 
C 62 68 0 
C 64 68 0 
C 66 68 0 
C 68 68 0 
C 70 68 0 
C 72 68 0 
C 74 68 0 
C 76 68 0 
C 78 68 0 
C 80 68 0 
C 82 68 0 
C 84 68 0 
C 86 68 0 
C 88 68 0 
C 90 68 0 
C 92 68 0 
C 94 68 0 
C 96 68 0 
C 98 68 0 
C 100 68 0 
C 0 70 0 
C 2 70 0 
C 4 70 0 
C 6 70 0 
C 8 70 0 
C 10 70 0 
C 12 70 0 
C 14 70 0 
C 16 70 0 
C 18 70 0 
C 20 70 0 
C 22 70 0 
C 24 70 0 
C 26 70 0 
C 28 70 0 
C 30 70 0 
C 32 70 0 
C 34 70 0 
C 36 70 0 
C 38 70 0 
C 40 70 0 
C 42 70 0 
C 44 70 0 
C 46 70 0 
C 48 70 0 
C 50 70 0 
C 52 70 0 
C 54 70 0 
C 56 70 0 
C 58 70 0 
C 60 70 0 
C 62 70 0 
C 64 70 0 
C 66 70 0 
C 68 70 0 
C 70 70 0 
C 72 70 0 
C 74 70 0 
C 76 70 0 
C 78 70 0 
C 80 70 0 
C 82 70 0 
C 84 70 0 
C 86 70 0 
C 88 70 0 
C 90 70 0 
C 92 70 0 
C 94 70 0 
C 96 70 0 
C 98 70 0 
C 100 70 0 
C 0 72 0 
C 2 72 0 
C 4 72 0 
C 6 72 0 
C 8 72 0 
C 10 72 0 
C 12 72 0 
C 14 72 0 
C 16 72 0 
C 18 72 0 
C 20 72 0 
C 22 72 0 
C 24 72 0 
C 26 72 0 
C 28 72 0 
C 30 72 0 
C 32 72 0 
C 34 72 0 
C 36 72 0 
C 38 72 0 
C 40 72 0 
C 42 72 0 
C 44 72 0 
C 46 72 0 
C 48 72 0 
C 50 72 0 
C 52 72 0 
C 54 72 0 
C 56 72 0 
C 58 72 0 
C 60 72 0 
C 62 72 0 
C 64 72 0 
C 66 72 0 
C 68 72 0 
C 70 72 0 
C 72 72 0 
C 74 72 0 
C 76 72 0 
C 78 72 0 
C 80 72 0 
C 82 72 0 
C 84 72 0 
C 86 72 0 
C 88 72 0 
C 90 72 0 
C 92 72 0 
C 94 72 0 
C 96 72 0 
C 98 72 0 
C 100 72 0 
C 0 74 0 
C 2 74 0 
C 4 74 0 
C 6 74 0 
C 8 74 0 
C 10 74 0 
C 12 74 0 
C 14 74 0 
C 16 74 0 
C 18 74 0 
C 20 74 0 
C 22 74 0 
C 24 74 0 
C 26 74 0 
C 28 74 0 
C 30 74 0 
C 32 74 0 
C 34 74 0 
C 36 74 0 
C 38 74 0 
C 40 74 0 
C 42 74 0 
C 44 74 0 
C 46 74 0 
C 48 74 0 
C 50 74 0 
C 52 74 0 
C 54 74 0 
C 56 74 0 
C 58 74 0 
C 60 74 0 
C 62 74 0 
C 64 74 0 
C 66 74 0 
C 68 74 0 
C 70 74 0 
C 72 74 0 
C 74 74 0 
C 76 74 0 
C 78 74 0 
C 80 74 0 
C 82 74 0 
C 84 74 0 
C 86 74 0 
C 88 74 0 
C 90 74 0 
C 92 74 0 
C 94 74 0 
C 96 74 0 
C 98 74 0 
C 100 74 0 
C 0 76 0 
C 2 76 0 
C 4 76 0 
C 6 76 0 
C 8 76 0 
C 10 76 0 
C 12 76 0 
C 14 76 0 
C 16 76 0 
C 18 76 0 
C 20 76 0 
C 22 76 0 
C 24 76 0 
C 26 76 0 
C 28 76 0 
C 30 76 0 
C 32 76 0 
C 34 76 0 
C 36 76 0 
C 38 76 0 
C 40 76 0 
C 42 76 0 
C 44 76 0 
C 46 76 0 
C 48 76 0 
C 50 76 0 
C 52 76 0 
C 54 76 0 
C 56 76 0 
C 58 76 0 
C 60 76 0 
C 62 76 0 
C 64 76 0 
C 66 76 0 
C 68 76 0 
C 70 76 0 
C 72 76 0 
C 74 76 0 
C 76 76 0 
C 78 76 0 
C 80 76 0 
C 82 76 0 
C 84 76 0 
C 86 76 0 
C 88 76 0 
C 90 76 0 
C 92 76 0 
C 94 76 0 
C 96 76 0 
C 98 76 0 
C 100 76 0 
C 0 78 0 
C 2 78 0 
C 4 78 0 
C 6 78 0 
C 8 78 0 
C 10 78 0 
C 12 78 0 
C 14 78 0 
C 16 78 0 
C 18 78 0 
C 20 78 0 
C 22 78 0 
C 24 78 0 
C 26 78 0 
C 28 78 0 
C 30 78 0 
C 32 78 0 
C 34 78 0 
C 36 78 0 
C 38 78 0 
C 40 78 0 
C 42 78 0 
C 44 78 0 
C 46 78 0 
C 48 78 0 
C 50 78 0 
C 52 78 0 
C 54 78 0 
C 56 78 0 
C 58 78 0 
C 60 78 0 
C 62 78 0 
C 64 78 0 
C 66 78 0 
C 68 78 0 
C 70 78 0 
C 72 78 0 
C 74 78 0 
C 76 78 0 
C 78 78 0 
C 80 78 0 
C 82 78 0 
C 84 78 0 
C 86 78 0 
C 88 78 0 
C 90 78 0 
C 92 78 0 
C 94 78 0 
C 96 78 0 
C 98 78 0 
C 100 78 0 
C 0 80 0 
C 2 80 0 
C 4 80 0 
C 6 80 0 
C 8 80 0 
C 10 80 0 
C 12 80 0 
C 14 80 0 
C 16 80 0 
C 18 80 0 
C 20 80 0 
C 22 80 0 
C 24 80 0 
C 26 80 0 
C 28 80 0 
C 30 80 0 
C 32 80 0 
C 34 80 0 
C 36 80 0 
C 38 80 0 
C 40 80 0 
C 42 80 0 
C 44 80 0 
C 46 80 0 
C 48 80 0 
C 50 80 0 
C 52 80 0 
C 54 80 0 
C 56 80 0 
C 58 80 0 
C 60 80 0 
C 62 80 0 
C 64 80 0 
C 66 80 0 
C 68 80 0 
C 70 80 0 
C 72 80 0 
C 74 80 0 
C 76 80 0 
C 78 80 0 
C 80 80 0 
C 82 80 0 
C 84 80 0 
C 86 80 0 
C 88 80 0 
C 90 80 0 
C 92 80 0 
C 94 80 0 
C 96 80 0 
C 98 80 0 
C 100 80 0 
C 0 82 0 
C 2 82 0 
C 4 82 0 
C 6 82 0 
C 8 82 0 
C 10 82 0 
C 12 82 0 
C 14 82 0 
C 16 82 0 
C 18 82 0 
C 20 82 0 
C 22 82 0 
C 24 82 0 
C 26 82 0 
C 28 82 0 
C 30 82 0 
C 32 82 0 
C 34 82 0 
C 36 82 0 
C 38 82 0 
C 40 82 0 
C 42 82 0 
C 44 82 0 
C 46 82 0 
C 48 82 0 
C 50 82 0 
C 52 82 0 
C 54 82 0 
C 56 82 0 
C 58 82 0 
C 60 82 0 
C 62 82 0 
C 64 82 0 
C 66 82 0 
C 68 82 0 
C 70 82 0 
C 72 82 0 
C 74 82 0 
C 76 82 0 
C 78 82 0 
C 80 82 0 
C 82 82 0 
C 84 82 0 
C 86 82 0 
C 88 82 0 
C 90 82 0 
C 92 82 0 
C 94 82 0 
C 96 82 0 
C 98 82 0 
C 100 82 0 
C 0 84 0 
C 2 84 0 
C 4 84 0 
C 6 84 0 
C 8 84 0 
C 10 84 0 
C 12 84 0 
C 14 84 0 
C 16 84 0 
C 18 84 0 
C 20 84 0 
C 22 84 0 
C 24 84 0 
C 26 84 0 
C 28 84 0 
C 30 84 0 
C 32 84 0 
C 34 84 0 
C 36 84 0 
C 38 84 0 
C 40 84 0 
C 42 84 0 
C 44 84 0 
C 46 84 0 
C 48 84 0 
C 50 84 0 
C 52 84 0 
C 54 84 0 
C 56 84 0 
C 58 84 0 
C 60 84 0 
C 62 84 0 
C 64 84 0 
C 66 84 0 
C 68 84 0 
C 70 84 0 
C 72 84 0 
C 74 84 0 
C 76 84 0 
C 78 84 0 
C 80 84 0 
C 82 84 0 
C 84 84 0 
C 86 84 0 
C 88 84 0 
C 90 84 0 
C 92 84 0 
C 94 84 0 
C 96 84 0 
C 98 84 0 
C 100 84 0 
C 0 86 0 
C 2 86 0 
C 4 86 0 
C 6 86 0 
C 8 86 0 
C 10 86 0 
C 12 86 0 
C 14 86 0 
C 16 86 0 
C 18 86 0 
C 20 86 0 
C 22 86 0 
C 24 86 0 
C 26 86 0 
C 28 86 0 
C 30 86 0 
C 32 86 0 
C 34 86 0 
C 36 86 0 
C 38 86 0 
C 40 86 0 
C 42 86 0 
C 44 86 0 
C 46 86 0 
C 48 86 0 
C 50 86 0 
C 52 86 0 
C 54 86 0 
C 56 86 0 
C 58 86 0 
C 60 86 0 
C 62 86 0 
C 64 86 0 
C 66 86 0 
C 68 86 0 
C 70 86 0 
C 72 86 0 
C 74 86 0 
C 76 86 0 
C 78 86 0 
C 80 86 0 
C 82 86 0 
C 84 86 0 
C 86 86 0 
C 88 86 0 
C 90 86 0 
C 92 86 0 
C 94 86 0 
C 96 86 0 
C 98 86 0 
C 100 86 0 
C 0 88 0 
C 2 88 0 
C 4 88 0 
C 6 88 0 
C 8 88 0 
C 10 88 0 
C 12 88 0 
C 14 88 0 
C 16 88 0 
C 18 88 0 
C 20 88 0 
C 22 88 0 
C 24 88 0 
C 26 88 0 
C 28 88 0 
C 30 88 0 
C 32 88 0 
C 34 88 0 
C 36 88 0 
C 38 88 0 
C 40 88 0 
C 42 88 0 
C 44 88 0 
C 46 88 0 
C 48 88 0 
C 50 88 0 
C 52 88 0 
C 54 88 0 
C 56 88 0 
C 58 88 0 
C 60 88 0 
C 62 88 0 
C 64 88 0 
C 66 88 0 
C 68 88 0 
C 70 88 0 
C 72 88 0 
C 74 88 0 
C 76 88 0 
C 78 88 0 
C 80 88 0 
C 82 88 0 
C 84 88 0 
C 86 88 0 
C 88 88 0 
C 90 88 0 
C 92 88 0 
C 94 88 0 
C 96 88 0 
C 98 88 0 
C 100 88 0 
C 0 90 0 
C 2 90 0 
C 4 90 0 
C 6 90 0 
C 8 90 0 
C 10 90 0 
C 12 90 0 
C 14 90 0 
C 16 90 0 
C 18 90 0 
C 20 90 0 
C 22 90 0 
C 24 90 0 
C 26 90 0 
C 28 90 0 
C 30 90 0 
C 32 90 0 
C 34 90 0 
C 36 90 0 
C 38 90 0 
C 40 90 0 
C 42 90 0 
C 44 90 0 
C 46 90 0 
C 48 90 0 
C 50 90 0 
C 52 90 0 
C 54 90 0 
C 56 90 0 
C 58 90 0 
C 60 90 0 
C 62 90 0 
C 64 90 0 
C 66 90 0 
C 68 90 0 
C 70 90 0 
C 72 90 0 
C 74 90 0 
C 76 90 0 
C 78 90 0 
C 80 90 0 
C 82 90 0 
C 84 90 0 
C 86 90 0 
C 88 90 0 
C 90 90 0 
C 92 90 0 
C 94 90 0 
C 96 90 0 
C 98 90 0 
C 100 90 0 
C 0 92 0 
C 2 92 0 
C 4 92 0 
C 6 92 0 
C 8 92 0 
C 10 92 0 
C 12 92 0 
C 14 92 0 
C 16 92 0 
C 18 92 0 
C 20 92 0 
C 22 92 0 
C 24 92 0 
C 26 92 0 
C 28 92 0 
C 30 92 0 
C 32 92 0 
C 34 92 0 
C 36 92 0 
C 38 92 0 
C 40 92 0 
C 42 92 0 
C 44 92 0 
C 46 92 0 
C 48 92 0 
C 50 92 0 
C 52 92 0 
C 54 92 0 
C 56 92 0 
C 58 92 0 
C 60 92 0 
C 62 92 0 
C 64 92 0 
C 66 92 0 
C 68 92 0 
C 70 92 0 
C 72 92 0 
C 74 92 0 
C 76 92 0 
C 78 92 0 
C 80 92 0 
C 82 92 0 
C 84 92 0 
C 86 92 0 
C 88 92 0 
C 90 92 0 
C 92 92 0 
C 94 92 0 
C 96 92 0 
C 98 92 0 
C 100 92 0 
C 0 94 0 
C 2 94 0 
C 4 94 0 
C 6 94 0 
C 8 94 0 
C 10 94 0 
C 12 94 0 
C 14 94 0 
C 16 94 0 
C 18 94 0 
C 20 94 0 
C 22 94 0 
C 24 94 0 
C 26 94 0 
C 28 94 0 
C 30 94 0 
C 32 94 0 
C 34 94 0 
C 36 94 0 
C 38 94 0 
C 40 94 0 
C 42 94 0 
C 44 94 0 
C 46 94 0 
C 48 94 0 
C 50 94 0 
C 52 94 0 
C 54 94 0 
C 56 94 0 
C 58 94 0 
C 60 94 0 
C 62 94 0 
C 64 94 0 
C 66 94 0 
C 68 94 0 
C 70 94 0 
C 72 94 0 
C 74 94 0 
C 76 94 0 
C 78 94 0 
C 80 94 0 
C 82 94 0 
C 84 94 0 
C 86 94 0 
C 88 94 0 
C 90 94 0 
C 92 94 0 
C 94 94 0 
C 96 94 0 
C 98 94 0 
C 100 94 0 
C 0 96 0 
C 2 96 0 
C 4 96 0 
C 6 96 0 
C 8 96 0 
C 10 96 0 
C 12 96 0 
C 14 96 0 
C 16 96 0 
C 18 96 0 
C 20 96 0 
C 22 96 0 
C 24 96 0 
C 26 96 0 
C 28 96 0 
C 30 96 0 
C 32 96 0 
C 34 96 0 
C 36 96 0 
C 38 96 0 
C 40 96 0 
C 42 96 0 
C 44 96 0 
C 46 96 0 
C 48 96 0 
C 50 96 0 
C 52 96 0 
C 54 96 0 
C 56 96 0 
C 58 96 0 
C 60 96 0 
C 62 96 0 
C 64 96 0 
C 66 96 0 
C 68 96 0 
C 70 96 0 
C 72 96 0 
C 74 96 0 
C 76 96 0 
C 78 96 0 
C 80 96 0 
C 82 96 0 
C 84 96 0 
C 86 96 0 
C 88 96 0 
C 90 96 0 
C 92 96 0 
C 94 96 0 
C 96 96 0 
C 98 96 0 
C 100 96 0 
C 0 98 0 
C 2 98 0 
C 4 98 0 
C 6 98 0 
C 8 98 0 
C 10 98 0 
C 12 98 0 
C 14 98 0 
C 16 98 0 
C 18 98 0 
C 20 98 0 
C 22 98 0 
C 24 98 0 
C 26 98 0 
C 28 98 0 
C 30 98 0 
C 32 98 0 
C 34 98 0 
C 36 98 0 
C 38 98 0 
C 40 98 0 
C 42 98 0 
C 44 98 0 
C 46 98 0 
C 48 98 0 
C 50 98 0 
C 52 98 0 
C 54 98 0 
C 56 98 0 
C 58 98 0 
C 60 98 0 
C 62 98 0 
C 64 98 0 
C 66 98 0 
C 68 98 0 
C 70 98 0 
C 72 98 0 
C 74 98 0 
C 76 98 0 
C 78 98 0 
C 80 98 0 
C 82 98 0 
C 84 98 0 
C 86 98 0 
C 88 98 0 
C 90 98 0 
C 92 98 0 
C 94 98 0 
C 96 98 0 
C 98 98 0 
C 100 98 0 
C 0 100 0 
C 2 100 0 
C 4 100 0 
C 6 100 0 
C 8 100 0 
C 10 100 0 
C 12 100 0 
C 14 100 0 
C 16 100 0 
C 18 100 0 
C 20 100 0 
C 22 100 0 
C 24 100 0 
C 26 100 0 
C 28 100 0 
C 30 100 0 
C 32 100 0 
C 34 100 0 
C 36 100 0 
C 38 100 0 
C 40 100 0 
C 42 100 0 
C 44 100 0 
C 46 100 0 
C 48 100 0 
C 50 100 0 
C 52 100 0 
C 54 100 0 
C 56 100 0 
C 58 100 0 
C 60 100 0 
C 62 100 0 
C 64 100 0 
C 66 100 0 
C 68 100 0 
C 70 100 0 
C 72 100 0 
C 74 100 0 
C 76 100 0 
C 78 100 0 
C 80 100 0 
C 82 100 0 
C 84 100 0 
C 86 100 0 
C 88 100 0 
C 90 100 0 
C 92 100 0 
C 94 100 0 
C 96 100 0 
C 98 100 0 
C 100 100 0 
O 99 91 0 
3102
Atoms. Timestep: 16
N 84 23 0 
N 19 53 0 
N 20 69 0 
N 49 95 0 
N 37 23 0 
N 62 25 0 
N 88 69 0 
N 7 57 0 
N 13 47 0 
N 49 27 0 
N 13 11 0 
N 59 28 0 
N 67 13 0 
N 81 87 0 
N 57 91 0 
N 47 61 0 
N 41 77 0 
N 3 91 0 
N 3 14 0 
N 85 27 0 
N 14 41 0 
N 82 13 0 
N 17 25 0 
N 48 81 0 
N 69 97 0 
N 12 91 0 
N 93 13 0 
N 67 97 0 
N 1 35 0 
N 32 45 0 
N 79 35 0 
N 61 21 0 
N 23 72 0 
N 97 51 0 
N 26 19 0 
N 79 54 0 
N 96 79 0 
N 71 13 0 
N 70 93 0 
N 97 8 0 
N 45 13 0 
N 27 97 0 
N 86 29 0 
N 29 61 0 
N 51 41 0 
N 62 27 0 
N 51 77 0 
N 49 34 0 
N 91 81 0 
N 27 13 0 
N 59 24 0 
N 43 35 0 
N 9 22 0 
N 19 23 0 
N 97 79 0 
N 19 81 0 
N 49 72 0 
N 88 11 0 
N 6 21 0 
N 70 77 0 
N 97 68 0 
N 79 97 0 
N 5 34 0 
N 76 89 0 
N 73 18 0 
N 5 65 0 
N 76 67 0 
N 81 28 0 
N 40 21 0 
N 67 30 0 
N 43 23 0 
N 3 96 0 
N 5 51 0 
N 19 77 0 
N 41 91 0 
N 38 23 0 
N 53 91 0 
N 3 37 0 
N 29 50 0 
N 76 13 0 
N 59 41 0 
N 96 25 0 
N 73 97 0 
N 93 45 0 
N 1 36 0 
N 5 25 0 
N 38 71 0 
N 8 81 0 
N 21 27 0 
N 82 87 0 
N 71 83 0 
N 99 97 0 
N 11 20 0 
N 94 67 0 
N 91 13 0 
N 77 9 0 
N 67 57 0 
N 98 17 0 
N 73 70 0 
N 10 31 0 
N 43 67 0 
N 65 93 0 
N 42 41 0 
N 83 15 0 
N 93 91 0 
N 55 91 0 
N 69 75 0 
N 69 53 0 
N 27 91 0 
N 23 81 0 
N 25 48 0 
N 75 73 0 
N 19 78 0 
N 83 14 0 
N 47 71 0 
N 47 47 0 
N 9 59 0 
N 1 84 0 
N 71 94 0 
N 25 95 0 
N 36 27 0 
N 50 85 0 
N 45 22 0 
N 56 65 0 
N 9 28 0 
N 79 13 0 
N 7 76 0 
N 5 13 0 
N 25 14 0 
N 95 89 0 
N 9 87 0 
N 67 45 0 
N 12 45 0 
N 77 97 0 
N 14 13 0 
N 16 77 0 
N 33 62 0 
N 81 45 0 
N 97 44 0 
N 81 19 0 
N 9 41 0 
N 77 81 0 
N 79 7 0 
N 62 9 0 
N 89 89 0 
N 46 93 0 
N 99 51 0 
N 41 59 0 
N 99 86 0 
N 67 92 0 
N 91 42 0 
N 96 71 0 
N 27 33 0 
N 11 98 0 
N 51 75 0 
N 23 83 0 
N 97 88 0 
N 9 69 0 
N 1 5 0 
N 15 47 0 
N 89 37 0 
N 44 63 0 
N 91 40 0 
N 23 2 0 
N 41 89 0 
N 40 81 0 
N 79 15 0 
N 90 89 0 
N 99 27 0 
N 49 79 0 
N 2 99 0 
N 77 38 0 
N 16 43 0 
N 13 19 0 
N 71 29 0 
N 47 91 0 
N 93 71 0 
N 55 3 0 
N 81 83 0 
N 81 89 0 
N 69 33 0 
N 15 12 0 
N 82 55 0 
N 45 61 0 
N 3 68 0 
N 7 71 0 
N 95 57 0 
N 71 86 0 
N 95 76 0 
N 19 19 0 
N 25 77 0 
N 1 91 0 
N 72 69 0 
N 21 90 0 
N 57 72 0 
N 97 29 0 
N 70 79 0 
N 96 27 0 
N 46 37 0 
N 97 31 0 
N 79 10 0 
N 70 91 0 
N 65 30 0 
N 45 95 0 
N 68 9 0 
N 33 70 0 
N 67 27 0 
N 55 39 0 
N 95 87 0 
N 93 61 0 
N 27 59 0 
N 23 69 0 
N 19 9 0 
N 99 28 0 
N 23 17 0 
N 11 77 0 
N 63 71 0 
N 56 69 0 
N 87 89 0 
N 27 85 0 
N 7 62 0 
N 83 28 0 
N 99 73 0 
N 61 28 0 
N 19 44 0 
N 97 84 0 
N 79 42 0 
N 93 57 0 
N 77 30 0 
N 98 73 0 
N 92 85 0 
N 53 47 0 
N 41 24 0 
N 89 83 0 
N 70 63 0 
N 79 59 0 
N 29 30 0 
N 75 85 0 
N 5 36 0 
N 25 15 0 
N 76 59 0 
N 21 72 0 
N 93 58 0 
N 8 23 0 
N 52 51 0 
N 26 1 0 
N 29 13 0 
N 21 73 0 
N 14 71 0 
N 15 15 0 
N 83 93 0 
N 51 61 0 
N 44 89 0 
N 19 25 0 
N 9 32 0 
N 13 25 0 
N 79 45 0 
N 60 37 0 
N 53 25 0 
N 18 83 0 
N 11 72 0 
N 4 37 0 
N 95 47 0 
N 7 25 0 
N 47 80 0 
N 92 91 0 
N 55 41 0 
N 75 50 0 
N 87 81 0 
N 59 43 0 
N 93 98 0 
N 20 11 0 
N 35 91 0 
N 12 7 0 
N 41 44 0 
N 57 58 0 
N 4 29 0 
N 33 35 0 
N 52 71 0 
N 1 34 0 
N 57 79 0 
N 16 17 0 
N 42 75 0 
N 75 27 0 
N 33 81 0 
N 65 25 0 
N 92 89 0 
N 41 39 0 
N 96 11 0 
N 89 10 0 
N 47 11 0 
N 38 25 0 
N 64 93 0 
N 65 17 0 
N 47 14 0 
N 29 78 0 
N 40 39 0 
N 17 67 0 
N 19 47 0 
N 92 49 0 
N 79 95 0 
N 7 64 0 
N 25 91 0 
N 10 1 0 
N 51 58 0 
N 60 9 0 
N 70 81 0 
N 11 49 0 
N 77 10 0 
N 23 91 0 
N 99 78 0 
N 37 54 0 
N 43 5 0 
N 7 34 0 
N 28 99 0 
N 31 79 0 
N 27 10 0 
N 67 39 0 
N 1 13 0 
N 44 27 0 
N 73 79 0 
N 5 15 0 
N 93 53 0 
N 26 75 0 
N 41 13 0 
N 71 9 0 
N 66 25 0 
N 98 5 0 
N 52 89 0 
N 11 47 0 
N 48 33 0 
N 85 7 0 
N 91 46 0 
N 67 25 0 
N 91 55 0 
N 41 31 0 
N 15 97 0 
N 9 94 0 
N 82 7 0 
N 79 72 0 
N 39 29 0 
N 31 37 0 
N 57 7 0 
N 79 47 0 
N 7 21 0 
N 15 94 0 
N 89 5 0 
N 49 91 0 
N 79 94 0 
N 55 89 0 
N 77 26 0 
N 72 89 0 
N 11 50 0 
N 98 67 0 
N 13 21 0 
N 41 27 0 
N 49 31 0 
N 37 1 0 
N 25 99 0 
N 45 58 0 
N 79 23 0 
N 63 31 0 
N 47 73 0 
N 45 28 0 
N 36 31 0 
N 3 35 0 
N 77 19 0 
N 48 39 0 
N 97 45 0 
N 99 45 0 
N 28 85 0 
N 71 14 0 
N 43 83 0 
N 66 27 0 
N 35 68 0 
N 43 11 0 
N 55 45 0 
N 92 15 0 
N 57 30 0 
N 73 95 0 
N 27 2 0 
N 5 91 0 
N 42 13 0 
N 33 80 0 
N 31 69 0 
N 57 50 0 
N 63 48 0 
N 39 26 0 
N 80 51 0 
N 12 27 0 
N 85 98 0 
N 99 83 0 
N 54 91 0 
N 78 29 0 
N 91 51 0 
N 1 37 0 
N 51 2 0 
N 59 31 0 
N 81 91 0 
N 53 77 0 
N 79 91 0 
N 9 70 0 
N 9 52 0 
N 31 63 0 
N 21 86 0 
N 78 39 0 
N 35 65 0 
N 82 75 0 
N 87 45 0 
N 44 29 0 
N 77 13 0 
N 66 9 0 
N 95 8 0 
N 7 39 0 
N 94 15 0 
N 51 44 0 
N 9 55 0 
N 31 29 0 
N 67 50 0 
N 87 43 0 
N 98 81 0 
N 93 29 0 
N 19 89 0 
N 46 63 0 
N 96 67 0 
N 80 17 0 
N 42 49 0 
N 12 67 0 
N 79 27 0 
N 5 27 0 
N 26 87 0 
N 33 28 0 
N 79 21 0 
N 37 70 0 
N 71 51 0 
N 93 59 0 
N 82 45 0 
N 2 9 0 
N 53 89 0 
N 78 69 0 
N 71 8 0 
N 10 65 0 
N 27 3 0 
N 17 70 0 
N 17 45 0 
N 15 27 0 
N 73 81 0 
N 71 91 0 
N 23 67 0 
N 19 72 0 
N 61 81 0 
N 95 85 0 
N 99 32 0 
N 75 19 0 
N 69 31 0 
N 62 33 0 
N 42 59 0 
N 93 73 0 
N 79 73 0 
N 1 6 0 
N 42 83 0 
N 59 36 0 
N 9 29 0 
N 19 90 0 
N 30 65 0 
N 15 13 0 
N 5 28 0 
N 79 69 0 
N 51 80 0 
N 17 74 0 
N 45 91 0 
N 6 15 0 
N 7 6 0 
N 42 15 0 
N 83 20 0 
N 45 47 0 
N 4 71 0 
N 46 89 0 
N 41 70 0 
N 33 11 0 
N 49 61 0 
N 94 39 0 
N 86 95 0 
N 63 29 0 
N 54 39 0 
N 77 25 0 
N 21 91 0 
N 99 30 0 
N 78 25 0 
N 83 16 0 
N 43 88 0 
N 47 22 0 
N 44 17 0 
N 33 25 0 
N 41 80 0 
N 51 39 0 
N 7 65 0 
N 79 18 0 
N 38 81 0 
N 97 71 0 
C 0 0 0 
C 2 0 0 
C 4 0 0 
C 6 0 0 
C 8 0 0 
C 10 0 0 
C 12 0 0 
C 14 0 0 
C 16 0 0 
C 18 0 0 
C 20 0 0 
C 22 0 0 
C 24 0 0 
C 26 0 0 
C 28 0 0 
C 30 0 0 
C 32 0 0 
C 34 0 0 
C 36 0 0 
C 38 0 0 
C 40 0 0 
C 42 0 0 
C 44 0 0 
C 46 0 0 
C 48 0 0 
C 50 0 0 
C 52 0 0 
C 54 0 0 
C 56 0 0 
C 58 0 0 
C 60 0 0 
C 62 0 0 
C 64 0 0 
C 66 0 0 
C 68 0 0 
C 70 0 0 
C 72 0 0 
C 74 0 0 
C 76 0 0 
C 78 0 0 
C 80 0 0 
C 82 0 0 
C 84 0 0 
C 86 0 0 
C 88 0 0 
C 90 0 0 
C 92 0 0 
C 94 0 0 
C 96 0 0 
C 98 0 0 
C 100 0 0 
C 0 2 0 
C 2 2 0 
C 4 2 0 
C 6 2 0 
C 8 2 0 
C 10 2 0 
C 12 2 0 
C 14 2 0 
C 16 2 0 
C 18 2 0 
C 20 2 0 
C 22 2 0 
C 24 2 0 
C 26 2 0 
C 28 2 0 
C 30 2 0 
C 32 2 0 
C 34 2 0 
C 36 2 0 
C 38 2 0 
C 40 2 0 
C 42 2 0 
C 44 2 0 
C 46 2 0 
C 48 2 0 
C 50 2 0 
C 52 2 0 
C 54 2 0 
C 56 2 0 
C 58 2 0 
C 60 2 0 
C 62 2 0 
C 64 2 0 
C 66 2 0 
C 68 2 0 
C 70 2 0 
C 72 2 0 
C 74 2 0 
C 76 2 0 
C 78 2 0 
C 80 2 0 
C 82 2 0 
C 84 2 0 
C 86 2 0 
C 88 2 0 
C 90 2 0 
C 92 2 0 
C 94 2 0 
C 96 2 0 
C 98 2 0 
C 100 2 0 
C 0 4 0 
C 2 4 0 
C 4 4 0 
C 6 4 0 
C 8 4 0 
C 10 4 0 
C 12 4 0 
C 14 4 0 
C 16 4 0 
C 18 4 0 
C 20 4 0 
C 22 4 0 
C 24 4 0 
C 26 4 0 
C 28 4 0 
C 30 4 0 
C 32 4 0 
C 34 4 0 
C 36 4 0 
C 38 4 0 
C 40 4 0 
C 42 4 0 
C 44 4 0 
C 46 4 0 
C 48 4 0 
C 50 4 0 
C 52 4 0 
C 54 4 0 
C 56 4 0 
C 58 4 0 
C 60 4 0 
C 62 4 0 
C 64 4 0 
C 66 4 0 
C 68 4 0 
C 70 4 0 
C 72 4 0 
C 74 4 0 
C 76 4 0 
C 78 4 0 
C 80 4 0 
C 82 4 0 
C 84 4 0 
C 86 4 0 
C 88 4 0 
C 90 4 0 
C 92 4 0 
C 94 4 0 
C 96 4 0 
C 98 4 0 
C 100 4 0 
C 0 6 0 
C 2 6 0 
C 4 6 0 
C 6 6 0 
C 8 6 0 
C 10 6 0 
C 12 6 0 
C 14 6 0 
C 16 6 0 
C 18 6 0 
C 20 6 0 
C 22 6 0 
C 24 6 0 
C 26 6 0 
C 28 6 0 
C 30 6 0 
C 32 6 0 
C 34 6 0 
C 36 6 0 
C 38 6 0 
C 40 6 0 
C 42 6 0 
C 44 6 0 
C 46 6 0 
C 48 6 0 
C 50 6 0 
C 52 6 0 
C 54 6 0 
C 56 6 0 
C 58 6 0 
C 60 6 0 
C 62 6 0 
C 64 6 0 
C 66 6 0 
C 68 6 0 
C 70 6 0 
C 72 6 0 
C 74 6 0 
C 76 6 0 
C 78 6 0 
C 80 6 0 
C 82 6 0 
C 84 6 0 
C 86 6 0 
C 88 6 0 
C 90 6 0 
C 92 6 0 
C 94 6 0 
C 96 6 0 
C 98 6 0 
C 100 6 0 
C 0 8 0 
C 2 8 0 
C 4 8 0 
C 6 8 0 
C 8 8 0 
C 10 8 0 
C 12 8 0 
C 14 8 0 
C 16 8 0 
C 18 8 0 
C 20 8 0 
C 22 8 0 
C 24 8 0 
C 26 8 0 
C 28 8 0 
C 30 8 0 
C 32 8 0 
C 34 8 0 
C 36 8 0 
C 38 8 0 
C 40 8 0 
C 42 8 0 
C 44 8 0 
C 46 8 0 
C 48 8 0 
C 50 8 0 
C 52 8 0 
C 54 8 0 
C 56 8 0 
C 58 8 0 
C 60 8 0 
C 62 8 0 
C 64 8 0 
C 66 8 0 
C 68 8 0 
C 70 8 0 
C 72 8 0 
C 74 8 0 
C 76 8 0 
C 78 8 0 
C 80 8 0 
C 82 8 0 
C 84 8 0 
C 86 8 0 
C 88 8 0 
C 90 8 0 
C 92 8 0 
C 94 8 0 
C 96 8 0 
C 98 8 0 
C 100 8 0 
C 0 10 0 
C 2 10 0 
C 4 10 0 
C 6 10 0 
C 8 10 0 
C 10 10 0 
C 12 10 0 
C 14 10 0 
C 16 10 0 
C 18 10 0 
C 20 10 0 
C 22 10 0 
C 24 10 0 
C 26 10 0 
C 28 10 0 
C 30 10 0 
C 32 10 0 
C 34 10 0 
C 36 10 0 
C 38 10 0 
C 40 10 0 
C 42 10 0 
C 44 10 0 
C 46 10 0 
C 48 10 0 
C 50 10 0 
C 52 10 0 
C 54 10 0 
C 56 10 0 
C 58 10 0 
C 60 10 0 
C 62 10 0 
C 64 10 0 
C 66 10 0 
C 68 10 0 
C 70 10 0 
C 72 10 0 
C 74 10 0 
C 76 10 0 
C 78 10 0 
C 80 10 0 
C 82 10 0 
C 84 10 0 
C 86 10 0 
C 88 10 0 
C 90 10 0 
C 92 10 0 
C 94 10 0 
C 96 10 0 
C 98 10 0 
C 100 10 0 
C 0 12 0 
C 2 12 0 
C 4 12 0 
C 6 12 0 
C 8 12 0 
C 10 12 0 
C 12 12 0 
C 14 12 0 
C 16 12 0 
C 18 12 0 
C 20 12 0 
C 22 12 0 
C 24 12 0 
C 26 12 0 
C 28 12 0 
C 30 12 0 
C 32 12 0 
C 34 12 0 
C 36 12 0 
C 38 12 0 
C 40 12 0 
C 42 12 0 
C 44 12 0 
C 46 12 0 
C 48 12 0 
C 50 12 0 
C 52 12 0 
C 54 12 0 
C 56 12 0 
C 58 12 0 
C 60 12 0 
C 62 12 0 
C 64 12 0 
C 66 12 0 
C 68 12 0 
C 70 12 0 
C 72 12 0 
C 74 12 0 
C 76 12 0 
C 78 12 0 
C 80 12 0 
C 82 12 0 
C 84 12 0 
C 86 12 0 
C 88 12 0 
C 90 12 0 
C 92 12 0 
C 94 12 0 
C 96 12 0 
C 98 12 0 
C 100 12 0 
C 0 14 0 
C 2 14 0 
C 4 14 0 
C 6 14 0 
C 8 14 0 
C 10 14 0 
C 12 14 0 
C 14 14 0 
C 16 14 0 
C 18 14 0 
C 20 14 0 
C 22 14 0 
C 24 14 0 
C 26 14 0 
C 28 14 0 
C 30 14 0 
C 32 14 0 
C 34 14 0 
C 36 14 0 
C 38 14 0 
C 40 14 0 
C 42 14 0 
C 44 14 0 
C 46 14 0 
C 48 14 0 
C 50 14 0 
C 52 14 0 
C 54 14 0 
C 56 14 0 
C 58 14 0 
C 60 14 0 
C 62 14 0 
C 64 14 0 
C 66 14 0 
C 68 14 0 
C 70 14 0 
C 72 14 0 
C 74 14 0 
C 76 14 0 
C 78 14 0 
C 80 14 0 
C 82 14 0 
C 84 14 0 
C 86 14 0 
C 88 14 0 
C 90 14 0 
C 92 14 0 
C 94 14 0 
C 96 14 0 
C 98 14 0 
C 100 14 0 
C 0 16 0 
C 2 16 0 
C 4 16 0 
C 6 16 0 
C 8 16 0 
C 10 16 0 
C 12 16 0 
C 14 16 0 
C 16 16 0 
C 18 16 0 
C 20 16 0 
C 22 16 0 
C 24 16 0 
C 26 16 0 
C 28 16 0 
C 30 16 0 
C 32 16 0 
C 34 16 0 
C 36 16 0 
C 38 16 0 
C 40 16 0 
C 42 16 0 
C 44 16 0 
C 46 16 0 
C 48 16 0 
C 50 16 0 
C 52 16 0 
C 54 16 0 
C 56 16 0 
C 58 16 0 
C 60 16 0 
C 62 16 0 
C 64 16 0 
C 66 16 0 
C 68 16 0 
C 70 16 0 
C 72 16 0 
C 74 16 0 
C 76 16 0 
C 78 16 0 
C 80 16 0 
C 82 16 0 
C 84 16 0 
C 86 16 0 
C 88 16 0 
C 90 16 0 
C 92 16 0 
C 94 16 0 
C 96 16 0 
C 98 16 0 
C 100 16 0 
C 0 18 0 
C 2 18 0 
C 4 18 0 
C 6 18 0 
C 8 18 0 
C 10 18 0 
C 12 18 0 
C 14 18 0 
C 16 18 0 
C 18 18 0 
C 20 18 0 
C 22 18 0 
C 24 18 0 
C 26 18 0 
C 28 18 0 
C 30 18 0 
C 32 18 0 
C 34 18 0 
C 36 18 0 
C 38 18 0 
C 40 18 0 
C 42 18 0 
C 44 18 0 
C 46 18 0 
C 48 18 0 
C 50 18 0 
C 52 18 0 
C 54 18 0 
C 56 18 0 
C 58 18 0 
C 60 18 0 
C 62 18 0 
C 64 18 0 
C 66 18 0 
C 68 18 0 
C 70 18 0 
C 72 18 0 
C 74 18 0 
C 76 18 0 
C 78 18 0 
C 80 18 0 
C 82 18 0 
C 84 18 0 
C 86 18 0 
C 88 18 0 
C 90 18 0 
C 92 18 0 
C 94 18 0 
C 96 18 0 
C 98 18 0 
C 100 18 0 
C 0 20 0 
C 2 20 0 
C 4 20 0 
C 6 20 0 
C 8 20 0 
C 10 20 0 
C 12 20 0 
C 14 20 0 
C 16 20 0 
C 18 20 0 
C 20 20 0 
C 22 20 0 
C 24 20 0 
C 26 20 0 
C 28 20 0 
C 30 20 0 
C 32 20 0 
C 34 20 0 
C 36 20 0 
C 38 20 0 
C 40 20 0 
C 42 20 0 
C 44 20 0 
C 46 20 0 
C 48 20 0 
C 50 20 0 
C 52 20 0 
C 54 20 0 
C 56 20 0 
C 58 20 0 
C 60 20 0 
C 62 20 0 
C 64 20 0 
C 66 20 0 
C 68 20 0 
C 70 20 0 
C 72 20 0 
C 74 20 0 
C 76 20 0 
C 78 20 0 
C 80 20 0 
C 82 20 0 
C 84 20 0 
C 86 20 0 
C 88 20 0 
C 90 20 0 
C 92 20 0 
C 94 20 0 
C 96 20 0 
C 98 20 0 
C 100 20 0 
C 0 22 0 
C 2 22 0 
C 4 22 0 
C 6 22 0 
C 8 22 0 
C 10 22 0 
C 12 22 0 
C 14 22 0 
C 16 22 0 
C 18 22 0 
C 20 22 0 
C 22 22 0 
C 24 22 0 
C 26 22 0 
C 28 22 0 
C 30 22 0 
C 32 22 0 
C 34 22 0 
C 36 22 0 
C 38 22 0 
C 40 22 0 
C 42 22 0 
C 44 22 0 
C 46 22 0 
C 48 22 0 
C 50 22 0 
C 52 22 0 
C 54 22 0 
C 56 22 0 
C 58 22 0 
C 60 22 0 
C 62 22 0 
C 64 22 0 
C 66 22 0 
C 68 22 0 
C 70 22 0 
C 72 22 0 
C 74 22 0 
C 76 22 0 
C 78 22 0 
C 80 22 0 
C 82 22 0 
C 84 22 0 
C 86 22 0 
C 88 22 0 
C 90 22 0 
C 92 22 0 
C 94 22 0 
C 96 22 0 
C 98 22 0 
C 100 22 0 
C 0 24 0 
C 2 24 0 
C 4 24 0 
C 6 24 0 
C 8 24 0 
C 10 24 0 
C 12 24 0 
C 14 24 0 
C 16 24 0 
C 18 24 0 
C 20 24 0 
C 22 24 0 
C 24 24 0 
C 26 24 0 
C 28 24 0 
C 30 24 0 
C 32 24 0 
C 34 24 0 
C 36 24 0 
C 38 24 0 
C 40 24 0 
C 42 24 0 
C 44 24 0 
C 46 24 0 
C 48 24 0 
C 50 24 0 
C 52 24 0 
C 54 24 0 
C 56 24 0 
C 58 24 0 
C 60 24 0 
C 62 24 0 
C 64 24 0 
C 66 24 0 
C 68 24 0 
C 70 24 0 
C 72 24 0 
C 74 24 0 
C 76 24 0 
C 78 24 0 
C 80 24 0 
C 82 24 0 
C 84 24 0 
C 86 24 0 
C 88 24 0 
C 90 24 0 
C 92 24 0 
C 94 24 0 
C 96 24 0 
C 98 24 0 
C 100 24 0 
C 0 26 0 
C 2 26 0 
C 4 26 0 
C 6 26 0 
C 8 26 0 
C 10 26 0 
C 12 26 0 
C 14 26 0 
C 16 26 0 
C 18 26 0 
C 20 26 0 
C 22 26 0 
C 24 26 0 
C 26 26 0 
C 28 26 0 
C 30 26 0 
C 32 26 0 
C 34 26 0 
C 36 26 0 
C 38 26 0 
C 40 26 0 
C 42 26 0 
C 44 26 0 
C 46 26 0 
C 48 26 0 
C 50 26 0 
C 52 26 0 
C 54 26 0 
C 56 26 0 
C 58 26 0 
C 60 26 0 
C 62 26 0 
C 64 26 0 
C 66 26 0 
C 68 26 0 
C 70 26 0 
C 72 26 0 
C 74 26 0 
C 76 26 0 
C 78 26 0 
C 80 26 0 
C 82 26 0 
C 84 26 0 
C 86 26 0 
C 88 26 0 
C 90 26 0 
C 92 26 0 
C 94 26 0 
C 96 26 0 
C 98 26 0 
C 100 26 0 
C 0 28 0 
C 2 28 0 
C 4 28 0 
C 6 28 0 
C 8 28 0 
C 10 28 0 
C 12 28 0 
C 14 28 0 
C 16 28 0 
C 18 28 0 
C 20 28 0 
C 22 28 0 
C 24 28 0 
C 26 28 0 
C 28 28 0 
C 30 28 0 
C 32 28 0 
C 34 28 0 
C 36 28 0 
C 38 28 0 
C 40 28 0 
C 42 28 0 
C 44 28 0 
C 46 28 0 
C 48 28 0 
C 50 28 0 
C 52 28 0 
C 54 28 0 
C 56 28 0 
C 58 28 0 
C 60 28 0 
C 62 28 0 
C 64 28 0 
C 66 28 0 
C 68 28 0 
C 70 28 0 
C 72 28 0 
C 74 28 0 
C 76 28 0 
C 78 28 0 
C 80 28 0 
C 82 28 0 
C 84 28 0 
C 86 28 0 
C 88 28 0 
C 90 28 0 
C 92 28 0 
C 94 28 0 
C 96 28 0 
C 98 28 0 
C 100 28 0 
C 0 30 0 
C 2 30 0 
C 4 30 0 
C 6 30 0 
C 8 30 0 
C 10 30 0 
C 12 30 0 
C 14 30 0 
C 16 30 0 
C 18 30 0 
C 20 30 0 
C 22 30 0 
C 24 30 0 
C 26 30 0 
C 28 30 0 
C 30 30 0 
C 32 30 0 
C 34 30 0 
C 36 30 0 
C 38 30 0 
C 40 30 0 
C 42 30 0 
C 44 30 0 
C 46 30 0 
C 48 30 0 
C 50 30 0 
C 52 30 0 
C 54 30 0 
C 56 30 0 
C 58 30 0 
C 60 30 0 
C 62 30 0 
C 64 30 0 
C 66 30 0 
C 68 30 0 
C 70 30 0 
C 72 30 0 
C 74 30 0 
C 76 30 0 
C 78 30 0 
C 80 30 0 
C 82 30 0 
C 84 30 0 
C 86 30 0 
C 88 30 0 
C 90 30 0 
C 92 30 0 
C 94 30 0 
C 96 30 0 
C 98 30 0 
C 100 30 0 
C 0 32 0 
C 2 32 0 
C 4 32 0 
C 6 32 0 
C 8 32 0 
C 10 32 0 
C 12 32 0 
C 14 32 0 
C 16 32 0 
C 18 32 0 
C 20 32 0 
C 22 32 0 
C 24 32 0 
C 26 32 0 
C 28 32 0 
C 30 32 0 
C 32 32 0 
C 34 32 0 
C 36 32 0 
C 38 32 0 
C 40 32 0 
C 42 32 0 
C 44 32 0 
C 46 32 0 
C 48 32 0 
C 50 32 0 
C 52 32 0 
C 54 32 0 
C 56 32 0 
C 58 32 0 
C 60 32 0 
C 62 32 0 
C 64 32 0 
C 66 32 0 
C 68 32 0 
C 70 32 0 
C 72 32 0 
C 74 32 0 
C 76 32 0 
C 78 32 0 
C 80 32 0 
C 82 32 0 
C 84 32 0 
C 86 32 0 
C 88 32 0 
C 90 32 0 
C 92 32 0 
C 94 32 0 
C 96 32 0 
C 98 32 0 
C 100 32 0 
C 0 34 0 
C 2 34 0 
C 4 34 0 
C 6 34 0 
C 8 34 0 
C 10 34 0 
C 12 34 0 
C 14 34 0 
C 16 34 0 
C 18 34 0 
C 20 34 0 
C 22 34 0 
C 24 34 0 
C 26 34 0 
C 28 34 0 
C 30 34 0 
C 32 34 0 
C 34 34 0 
C 36 34 0 
C 38 34 0 
C 40 34 0 
C 42 34 0 
C 44 34 0 
C 46 34 0 
C 48 34 0 
C 50 34 0 
C 52 34 0 
C 54 34 0 
C 56 34 0 
C 58 34 0 
C 60 34 0 
C 62 34 0 
C 64 34 0 
C 66 34 0 
C 68 34 0 
C 70 34 0 
C 72 34 0 
C 74 34 0 
C 76 34 0 
C 78 34 0 
C 80 34 0 
C 82 34 0 
C 84 34 0 
C 86 34 0 
C 88 34 0 
C 90 34 0 
C 92 34 0 
C 94 34 0 
C 96 34 0 
C 98 34 0 
C 100 34 0 
C 0 36 0 
C 2 36 0 
C 4 36 0 
C 6 36 0 
C 8 36 0 
C 10 36 0 
C 12 36 0 
C 14 36 0 
C 16 36 0 
C 18 36 0 
C 20 36 0 
C 22 36 0 
C 24 36 0 
C 26 36 0 
C 28 36 0 
C 30 36 0 
C 32 36 0 
C 34 36 0 
C 36 36 0 
C 38 36 0 
C 40 36 0 
C 42 36 0 
C 44 36 0 
C 46 36 0 
C 48 36 0 
C 50 36 0 
C 52 36 0 
C 54 36 0 
C 56 36 0 
C 58 36 0 
C 60 36 0 
C 62 36 0 
C 64 36 0 
C 66 36 0 
C 68 36 0 
C 70 36 0 
C 72 36 0 
C 74 36 0 
C 76 36 0 
C 78 36 0 
C 80 36 0 
C 82 36 0 
C 84 36 0 
C 86 36 0 
C 88 36 0 
C 90 36 0 
C 92 36 0 
C 94 36 0 
C 96 36 0 
C 98 36 0 
C 100 36 0 
C 0 38 0 
C 2 38 0 
C 4 38 0 
C 6 38 0 
C 8 38 0 
C 10 38 0 
C 12 38 0 
C 14 38 0 
C 16 38 0 
C 18 38 0 
C 20 38 0 
C 22 38 0 
C 24 38 0 
C 26 38 0 
C 28 38 0 
C 30 38 0 
C 32 38 0 
C 34 38 0 
C 36 38 0 
C 38 38 0 
C 40 38 0 
C 42 38 0 
C 44 38 0 
C 46 38 0 
C 48 38 0 
C 50 38 0 
C 52 38 0 
C 54 38 0 
C 56 38 0 
C 58 38 0 
C 60 38 0 
C 62 38 0 
C 64 38 0 
C 66 38 0 
C 68 38 0 
C 70 38 0 
C 72 38 0 
C 74 38 0 
C 76 38 0 
C 78 38 0 
C 80 38 0 
C 82 38 0 
C 84 38 0 
C 86 38 0 
C 88 38 0 
C 90 38 0 
C 92 38 0 
C 94 38 0 
C 96 38 0 
C 98 38 0 
C 100 38 0 
C 0 40 0 
C 2 40 0 
C 4 40 0 
C 6 40 0 
C 8 40 0 
C 10 40 0 
C 12 40 0 
C 14 40 0 
C 16 40 0 
C 18 40 0 
C 20 40 0 
C 22 40 0 
C 24 40 0 
C 26 40 0 
C 28 40 0 
C 30 40 0 
C 32 40 0 
C 34 40 0 
C 36 40 0 
C 38 40 0 
C 40 40 0 
C 42 40 0 
C 44 40 0 
C 46 40 0 
C 48 40 0 
C 50 40 0 
C 52 40 0 
C 54 40 0 
C 56 40 0 
C 58 40 0 
C 60 40 0 
C 62 40 0 
C 64 40 0 
C 66 40 0 
C 68 40 0 
C 70 40 0 
C 72 40 0 
C 74 40 0 
C 76 40 0 
C 78 40 0 
C 80 40 0 
C 82 40 0 
C 84 40 0 
C 86 40 0 
C 88 40 0 
C 90 40 0 
C 92 40 0 
C 94 40 0 
C 96 40 0 
C 98 40 0 
C 100 40 0 
C 0 42 0 
C 2 42 0 
C 4 42 0 
C 6 42 0 
C 8 42 0 
C 10 42 0 
C 12 42 0 
C 14 42 0 
C 16 42 0 
C 18 42 0 
C 20 42 0 
C 22 42 0 
C 24 42 0 
C 26 42 0 
C 28 42 0 
C 30 42 0 
C 32 42 0 
C 34 42 0 
C 36 42 0 
C 38 42 0 
C 40 42 0 
C 42 42 0 
C 44 42 0 
C 46 42 0 
C 48 42 0 
C 50 42 0 
C 52 42 0 
C 54 42 0 
C 56 42 0 
C 58 42 0 
C 60 42 0 
C 62 42 0 
C 64 42 0 
C 66 42 0 
C 68 42 0 
C 70 42 0 
C 72 42 0 
C 74 42 0 
C 76 42 0 
C 78 42 0 
C 80 42 0 
C 82 42 0 
C 84 42 0 
C 86 42 0 
C 88 42 0 
C 90 42 0 
C 92 42 0 
C 94 42 0 
C 96 42 0 
C 98 42 0 
C 100 42 0 
C 0 44 0 
C 2 44 0 
C 4 44 0 
C 6 44 0 
C 8 44 0 
C 10 44 0 
C 12 44 0 
C 14 44 0 
C 16 44 0 
C 18 44 0 
C 20 44 0 
C 22 44 0 
C 24 44 0 
C 26 44 0 
C 28 44 0 
C 30 44 0 
C 32 44 0 
C 34 44 0 
C 36 44 0 
C 38 44 0 
C 40 44 0 
C 42 44 0 
C 44 44 0 
C 46 44 0 
C 48 44 0 
C 50 44 0 
C 52 44 0 
C 54 44 0 
C 56 44 0 
C 58 44 0 
C 60 44 0 
C 62 44 0 
C 64 44 0 
C 66 44 0 
C 68 44 0 
C 70 44 0 
C 72 44 0 
C 74 44 0 
C 76 44 0 
C 78 44 0 
C 80 44 0 
C 82 44 0 
C 84 44 0 
C 86 44 0 
C 88 44 0 
C 90 44 0 
C 92 44 0 
C 94 44 0 
C 96 44 0 
C 98 44 0 
C 100 44 0 
C 0 46 0 
C 2 46 0 
C 4 46 0 
C 6 46 0 
C 8 46 0 
C 10 46 0 
C 12 46 0 
C 14 46 0 
C 16 46 0 
C 18 46 0 
C 20 46 0 
C 22 46 0 
C 24 46 0 
C 26 46 0 
C 28 46 0 
C 30 46 0 
C 32 46 0 
C 34 46 0 
C 36 46 0 
C 38 46 0 
C 40 46 0 
C 42 46 0 
C 44 46 0 
C 46 46 0 
C 48 46 0 
C 50 46 0 
C 52 46 0 
C 54 46 0 
C 56 46 0 
C 58 46 0 
C 60 46 0 
C 62 46 0 
C 64 46 0 
C 66 46 0 
C 68 46 0 
C 70 46 0 
C 72 46 0 
C 74 46 0 
C 76 46 0 
C 78 46 0 
C 80 46 0 
C 82 46 0 
C 84 46 0 
C 86 46 0 
C 88 46 0 
C 90 46 0 
C 92 46 0 
C 94 46 0 
C 96 46 0 
C 98 46 0 
C 100 46 0 
C 0 48 0 
C 2 48 0 
C 4 48 0 
C 6 48 0 
C 8 48 0 
C 10 48 0 
C 12 48 0 
C 14 48 0 
C 16 48 0 
C 18 48 0 
C 20 48 0 
C 22 48 0 
C 24 48 0 
C 26 48 0 
C 28 48 0 
C 30 48 0 
C 32 48 0 
C 34 48 0 
C 36 48 0 
C 38 48 0 
C 40 48 0 
C 42 48 0 
C 44 48 0 
C 46 48 0 
C 48 48 0 
C 50 48 0 
C 52 48 0 
C 54 48 0 
C 56 48 0 
C 58 48 0 
C 60 48 0 
C 62 48 0 
C 64 48 0 
C 66 48 0 
C 68 48 0 
C 70 48 0 
C 72 48 0 
C 74 48 0 
C 76 48 0 
C 78 48 0 
C 80 48 0 
C 82 48 0 
C 84 48 0 
C 86 48 0 
C 88 48 0 
C 90 48 0 
C 92 48 0 
C 94 48 0 
C 96 48 0 
C 98 48 0 
C 100 48 0 
C 0 50 0 
C 2 50 0 
C 4 50 0 
C 6 50 0 
C 8 50 0 
C 10 50 0 
C 12 50 0 
C 14 50 0 
C 16 50 0 
C 18 50 0 
C 20 50 0 
C 22 50 0 
C 24 50 0 
C 26 50 0 
C 28 50 0 
C 30 50 0 
C 32 50 0 
C 34 50 0 
C 36 50 0 
C 38 50 0 
C 40 50 0 
C 42 50 0 
C 44 50 0 
C 46 50 0 
C 48 50 0 
C 50 50 0 
C 52 50 0 
C 54 50 0 
C 56 50 0 
C 58 50 0 
C 60 50 0 
C 62 50 0 
C 64 50 0 
C 66 50 0 
C 68 50 0 
C 70 50 0 
C 72 50 0 
C 74 50 0 
C 76 50 0 
C 78 50 0 
C 80 50 0 
C 82 50 0 
C 84 50 0 
C 86 50 0 
C 88 50 0 
C 90 50 0 
C 92 50 0 
C 94 50 0 
C 96 50 0 
C 98 50 0 
C 100 50 0 
C 0 52 0 
C 2 52 0 
C 4 52 0 
C 6 52 0 
C 8 52 0 
C 10 52 0 
C 12 52 0 
C 14 52 0 
C 16 52 0 
C 18 52 0 
C 20 52 0 
C 22 52 0 
C 24 52 0 
C 26 52 0 
C 28 52 0 
C 30 52 0 
C 32 52 0 
C 34 52 0 
C 36 52 0 
C 38 52 0 
C 40 52 0 
C 42 52 0 
C 44 52 0 
C 46 52 0 
C 48 52 0 
C 50 52 0 
C 52 52 0 
C 54 52 0 
C 56 52 0 
C 58 52 0 
C 60 52 0 
C 62 52 0 
C 64 52 0 
C 66 52 0 
C 68 52 0 
C 70 52 0 
C 72 52 0 
C 74 52 0 
C 76 52 0 
C 78 52 0 
C 80 52 0 
C 82 52 0 
C 84 52 0 
C 86 52 0 
C 88 52 0 
C 90 52 0 
C 92 52 0 
C 94 52 0 
C 96 52 0 
C 98 52 0 
C 100 52 0 
C 0 54 0 
C 2 54 0 
C 4 54 0 
C 6 54 0 
C 8 54 0 
C 10 54 0 
C 12 54 0 
C 14 54 0 
C 16 54 0 
C 18 54 0 
C 20 54 0 
C 22 54 0 
C 24 54 0 
C 26 54 0 
C 28 54 0 
C 30 54 0 
C 32 54 0 
C 34 54 0 
C 36 54 0 
C 38 54 0 
C 40 54 0 
C 42 54 0 
C 44 54 0 
C 46 54 0 
C 48 54 0 
C 50 54 0 
C 52 54 0 
C 54 54 0 
C 56 54 0 
C 58 54 0 
C 60 54 0 
C 62 54 0 
C 64 54 0 
C 66 54 0 
C 68 54 0 
C 70 54 0 
C 72 54 0 
C 74 54 0 
C 76 54 0 
C 78 54 0 
C 80 54 0 
C 82 54 0 
C 84 54 0 
C 86 54 0 
C 88 54 0 
C 90 54 0 
C 92 54 0 
C 94 54 0 
C 96 54 0 
C 98 54 0 
C 100 54 0 
C 0 56 0 
C 2 56 0 
C 4 56 0 
C 6 56 0 
C 8 56 0 
C 10 56 0 
C 12 56 0 
C 14 56 0 
C 16 56 0 
C 18 56 0 
C 20 56 0 
C 22 56 0 
C 24 56 0 
C 26 56 0 
C 28 56 0 
C 30 56 0 
C 32 56 0 
C 34 56 0 
C 36 56 0 
C 38 56 0 
C 40 56 0 
C 42 56 0 
C 44 56 0 
C 46 56 0 
C 48 56 0 
C 50 56 0 
C 52 56 0 
C 54 56 0 
C 56 56 0 
C 58 56 0 
C 60 56 0 
C 62 56 0 
C 64 56 0 
C 66 56 0 
C 68 56 0 
C 70 56 0 
C 72 56 0 
C 74 56 0 
C 76 56 0 
C 78 56 0 
C 80 56 0 
C 82 56 0 
C 84 56 0 
C 86 56 0 
C 88 56 0 
C 90 56 0 
C 92 56 0 
C 94 56 0 
C 96 56 0 
C 98 56 0 
C 100 56 0 
C 0 58 0 
C 2 58 0 
C 4 58 0 
C 6 58 0 
C 8 58 0 
C 10 58 0 
C 12 58 0 
C 14 58 0 
C 16 58 0 
C 18 58 0 
C 20 58 0 
C 22 58 0 
C 24 58 0 
C 26 58 0 
C 28 58 0 
C 30 58 0 
C 32 58 0 
C 34 58 0 
C 36 58 0 
C 38 58 0 
C 40 58 0 
C 42 58 0 
C 44 58 0 
C 46 58 0 
C 48 58 0 
C 50 58 0 
C 52 58 0 
C 54 58 0 
C 56 58 0 
C 58 58 0 
C 60 58 0 
C 62 58 0 
C 64 58 0 
C 66 58 0 
C 68 58 0 
C 70 58 0 
C 72 58 0 
C 74 58 0 
C 76 58 0 
C 78 58 0 
C 80 58 0 
C 82 58 0 
C 84 58 0 
C 86 58 0 
C 88 58 0 
C 90 58 0 
C 92 58 0 
C 94 58 0 
C 96 58 0 
C 98 58 0 
C 100 58 0 
C 0 60 0 
C 2 60 0 
C 4 60 0 
C 6 60 0 
C 8 60 0 
C 10 60 0 
C 12 60 0 
C 14 60 0 
C 16 60 0 
C 18 60 0 
C 20 60 0 
C 22 60 0 
C 24 60 0 
C 26 60 0 
C 28 60 0 
C 30 60 0 
C 32 60 0 
C 34 60 0 
C 36 60 0 
C 38 60 0 
C 40 60 0 
C 42 60 0 
C 44 60 0 
C 46 60 0 
C 48 60 0 
C 50 60 0 
C 52 60 0 
C 54 60 0 
C 56 60 0 
C 58 60 0 
C 60 60 0 
C 62 60 0 
C 64 60 0 
C 66 60 0 
C 68 60 0 
C 70 60 0 
C 72 60 0 
C 74 60 0 
C 76 60 0 
C 78 60 0 
C 80 60 0 
C 82 60 0 
C 84 60 0 
C 86 60 0 
C 88 60 0 
C 90 60 0 
C 92 60 0 
C 94 60 0 
C 96 60 0 
C 98 60 0 
C 100 60 0 
C 0 62 0 
C 2 62 0 
C 4 62 0 
C 6 62 0 
C 8 62 0 
C 10 62 0 
C 12 62 0 
C 14 62 0 
C 16 62 0 
C 18 62 0 
C 20 62 0 
C 22 62 0 
C 24 62 0 
C 26 62 0 
C 28 62 0 
C 30 62 0 
C 32 62 0 
C 34 62 0 
C 36 62 0 
C 38 62 0 
C 40 62 0 
C 42 62 0 
C 44 62 0 
C 46 62 0 
C 48 62 0 
C 50 62 0 
C 52 62 0 
C 54 62 0 
C 56 62 0 
C 58 62 0 
C 60 62 0 
C 62 62 0 
C 64 62 0 
C 66 62 0 
C 68 62 0 
C 70 62 0 
C 72 62 0 
C 74 62 0 
C 76 62 0 
C 78 62 0 
C 80 62 0 
C 82 62 0 
C 84 62 0 
C 86 62 0 
C 88 62 0 
C 90 62 0 
C 92 62 0 
C 94 62 0 
C 96 62 0 
C 98 62 0 
C 100 62 0 
C 0 64 0 
C 2 64 0 
C 4 64 0 
C 6 64 0 
C 8 64 0 
C 10 64 0 
C 12 64 0 
C 14 64 0 
C 16 64 0 
C 18 64 0 
C 20 64 0 
C 22 64 0 
C 24 64 0 
C 26 64 0 
C 28 64 0 
C 30 64 0 
C 32 64 0 
C 34 64 0 
C 36 64 0 
C 38 64 0 
C 40 64 0 
C 42 64 0 
C 44 64 0 
C 46 64 0 
C 48 64 0 
C 50 64 0 
C 52 64 0 
C 54 64 0 
C 56 64 0 
C 58 64 0 
C 60 64 0 
C 62 64 0 
C 64 64 0 
C 66 64 0 
C 68 64 0 
C 70 64 0 
C 72 64 0 
C 74 64 0 
C 76 64 0 
C 78 64 0 
C 80 64 0 
C 82 64 0 
C 84 64 0 
C 86 64 0 
C 88 64 0 
C 90 64 0 
C 92 64 0 
C 94 64 0 
C 96 64 0 
C 98 64 0 
C 100 64 0 
C 0 66 0 
C 2 66 0 
C 4 66 0 
C 6 66 0 
C 8 66 0 
C 10 66 0 
C 12 66 0 
C 14 66 0 
C 16 66 0 
C 18 66 0 
C 20 66 0 
C 22 66 0 
C 24 66 0 
C 26 66 0 
C 28 66 0 
C 30 66 0 
C 32 66 0 
C 34 66 0 
C 36 66 0 
C 38 66 0 
C 40 66 0 
C 42 66 0 
C 44 66 0 
C 46 66 0 
C 48 66 0 
C 50 66 0 
C 52 66 0 
C 54 66 0 
C 56 66 0 
C 58 66 0 
C 60 66 0 
C 62 66 0 
C 64 66 0 
C 66 66 0 
C 68 66 0 
C 70 66 0 
C 72 66 0 
C 74 66 0 
C 76 66 0 
C 78 66 0 
C 80 66 0 
C 82 66 0 
C 84 66 0 
C 86 66 0 
C 88 66 0 
C 90 66 0 
C 92 66 0 
C 94 66 0 
C 96 66 0 
C 98 66 0 
C 100 66 0 
C 0 68 0 
C 2 68 0 
C 4 68 0 
C 6 68 0 
C 8 68 0 
C 10 68 0 
C 12 68 0 
C 14 68 0 
C 16 68 0 
C 18 68 0 
C 20 68 0 
C 22 68 0 
C 24 68 0 
C 26 68 0 
C 28 68 0 
C 30 68 0 
C 32 68 0 
C 34 68 0 
C 36 68 0 
C 38 68 0 
C 40 68 0 
C 42 68 0 
C 44 68 0 
C 46 68 0 
C 48 68 0 
C 50 68 0 
C 52 68 0 
C 54 68 0 
C 56 68 0 
C 58 68 0 
C 60 68 0 
C 62 68 0 
C 64 68 0 
C 66 68 0 
C 68 68 0 
C 70 68 0 
C 72 68 0 
C 74 68 0 
C 76 68 0 
C 78 68 0 
C 80 68 0 
C 82 68 0 
C 84 68 0 
C 86 68 0 
C 88 68 0 
C 90 68 0 
C 92 68 0 
C 94 68 0 
C 96 68 0 
C 98 68 0 
C 100 68 0 
C 0 70 0 
C 2 70 0 
C 4 70 0 
C 6 70 0 
C 8 70 0 
C 10 70 0 
C 12 70 0 
C 14 70 0 
C 16 70 0 
C 18 70 0 
C 20 70 0 
C 22 70 0 
C 24 70 0 
C 26 70 0 
C 28 70 0 
C 30 70 0 
C 32 70 0 
C 34 70 0 
C 36 70 0 
C 38 70 0 
C 40 70 0 
C 42 70 0 
C 44 70 0 
C 46 70 0 
C 48 70 0 
C 50 70 0 
C 52 70 0 
C 54 70 0 
C 56 70 0 
C 58 70 0 
C 60 70 0 
C 62 70 0 
C 64 70 0 
C 66 70 0 
C 68 70 0 
C 70 70 0 
C 72 70 0 
C 74 70 0 
C 76 70 0 
C 78 70 0 
C 80 70 0 
C 82 70 0 
C 84 70 0 
C 86 70 0 
C 88 70 0 
C 90 70 0 
C 92 70 0 
C 94 70 0 
C 96 70 0 
C 98 70 0 
C 100 70 0 
C 0 72 0 
C 2 72 0 
C 4 72 0 
C 6 72 0 
C 8 72 0 
C 10 72 0 
C 12 72 0 
C 14 72 0 
C 16 72 0 
C 18 72 0 
C 20 72 0 
C 22 72 0 
C 24 72 0 
C 26 72 0 
C 28 72 0 
C 30 72 0 
C 32 72 0 
C 34 72 0 
C 36 72 0 
C 38 72 0 
C 40 72 0 
C 42 72 0 
C 44 72 0 
C 46 72 0 
C 48 72 0 
C 50 72 0 
C 52 72 0 
C 54 72 0 
C 56 72 0 
C 58 72 0 
C 60 72 0 
C 62 72 0 
C 64 72 0 
C 66 72 0 
C 68 72 0 
C 70 72 0 
C 72 72 0 
C 74 72 0 
C 76 72 0 
C 78 72 0 
C 80 72 0 
C 82 72 0 
C 84 72 0 
C 86 72 0 
C 88 72 0 
C 90 72 0 
C 92 72 0 
C 94 72 0 
C 96 72 0 
C 98 72 0 
C 100 72 0 
C 0 74 0 
C 2 74 0 
C 4 74 0 
C 6 74 0 
C 8 74 0 
C 10 74 0 
C 12 74 0 
C 14 74 0 
C 16 74 0 
C 18 74 0 
C 20 74 0 
C 22 74 0 
C 24 74 0 
C 26 74 0 
C 28 74 0 
C 30 74 0 
C 32 74 0 
C 34 74 0 
C 36 74 0 
C 38 74 0 
C 40 74 0 
C 42 74 0 
C 44 74 0 
C 46 74 0 
C 48 74 0 
C 50 74 0 
C 52 74 0 
C 54 74 0 
C 56 74 0 
C 58 74 0 
C 60 74 0 
C 62 74 0 
C 64 74 0 
C 66 74 0 
C 68 74 0 
C 70 74 0 
C 72 74 0 
C 74 74 0 
C 76 74 0 
C 78 74 0 
C 80 74 0 
C 82 74 0 
C 84 74 0 
C 86 74 0 
C 88 74 0 
C 90 74 0 
C 92 74 0 
C 94 74 0 
C 96 74 0 
C 98 74 0 
C 100 74 0 
C 0 76 0 
C 2 76 0 
C 4 76 0 
C 6 76 0 
C 8 76 0 
C 10 76 0 
C 12 76 0 
C 14 76 0 
C 16 76 0 
C 18 76 0 
C 20 76 0 
C 22 76 0 
C 24 76 0 
C 26 76 0 
C 28 76 0 
C 30 76 0 
C 32 76 0 
C 34 76 0 
C 36 76 0 
C 38 76 0 
C 40 76 0 
C 42 76 0 
C 44 76 0 
C 46 76 0 
C 48 76 0 
C 50 76 0 
C 52 76 0 
C 54 76 0 
C 56 76 0 
C 58 76 0 
C 60 76 0 
C 62 76 0 
C 64 76 0 
C 66 76 0 
C 68 76 0 
C 70 76 0 
C 72 76 0 
C 74 76 0 
C 76 76 0 
C 78 76 0 
C 80 76 0 
C 82 76 0 
C 84 76 0 
C 86 76 0 
C 88 76 0 
C 90 76 0 
C 92 76 0 
C 94 76 0 
C 96 76 0 
C 98 76 0 
C 100 76 0 
C 0 78 0 
C 2 78 0 
C 4 78 0 
C 6 78 0 
C 8 78 0 
C 10 78 0 
C 12 78 0 
C 14 78 0 
C 16 78 0 
C 18 78 0 
C 20 78 0 
C 22 78 0 
C 24 78 0 
C 26 78 0 
C 28 78 0 
C 30 78 0 
C 32 78 0 
C 34 78 0 
C 36 78 0 
C 38 78 0 
C 40 78 0 
C 42 78 0 
C 44 78 0 
C 46 78 0 
C 48 78 0 
C 50 78 0 
C 52 78 0 
C 54 78 0 
C 56 78 0 
C 58 78 0 
C 60 78 0 
C 62 78 0 
C 64 78 0 
C 66 78 0 
C 68 78 0 
C 70 78 0 
C 72 78 0 
C 74 78 0 
C 76 78 0 
C 78 78 0 
C 80 78 0 
C 82 78 0 
C 84 78 0 
C 86 78 0 
C 88 78 0 
C 90 78 0 
C 92 78 0 
C 94 78 0 
C 96 78 0 
C 98 78 0 
C 100 78 0 
C 0 80 0 
C 2 80 0 
C 4 80 0 
C 6 80 0 
C 8 80 0 
C 10 80 0 
C 12 80 0 
C 14 80 0 
C 16 80 0 
C 18 80 0 
C 20 80 0 
C 22 80 0 
C 24 80 0 
C 26 80 0 
C 28 80 0 
C 30 80 0 
C 32 80 0 
C 34 80 0 
C 36 80 0 
C 38 80 0 
C 40 80 0 
C 42 80 0 
C 44 80 0 
C 46 80 0 
C 48 80 0 
C 50 80 0 
C 52 80 0 
C 54 80 0 
C 56 80 0 
C 58 80 0 
C 60 80 0 
C 62 80 0 
C 64 80 0 
C 66 80 0 
C 68 80 0 
C 70 80 0 
C 72 80 0 
C 74 80 0 
C 76 80 0 
C 78 80 0 
C 80 80 0 
C 82 80 0 
C 84 80 0 
C 86 80 0 
C 88 80 0 
C 90 80 0 
C 92 80 0 
C 94 80 0 
C 96 80 0 
C 98 80 0 
C 100 80 0 
C 0 82 0 
C 2 82 0 
C 4 82 0 
C 6 82 0 
C 8 82 0 
C 10 82 0 
C 12 82 0 
C 14 82 0 
C 16 82 0 
C 18 82 0 
C 20 82 0 
C 22 82 0 
C 24 82 0 
C 26 82 0 
C 28 82 0 
C 30 82 0 
C 32 82 0 
C 34 82 0 
C 36 82 0 
C 38 82 0 
C 40 82 0 
C 42 82 0 
C 44 82 0 
C 46 82 0 
C 48 82 0 
C 50 82 0 
C 52 82 0 
C 54 82 0 
C 56 82 0 
C 58 82 0 
C 60 82 0 
C 62 82 0 
C 64 82 0 
C 66 82 0 
C 68 82 0 
C 70 82 0 
C 72 82 0 
C 74 82 0 
C 76 82 0 
C 78 82 0 
C 80 82 0 
C 82 82 0 
C 84 82 0 
C 86 82 0 
C 88 82 0 
C 90 82 0 
C 92 82 0 
C 94 82 0 
C 96 82 0 
C 98 82 0 
C 100 82 0 
C 0 84 0 
C 2 84 0 
C 4 84 0 
C 6 84 0 
C 8 84 0 
C 10 84 0 
C 12 84 0 
C 14 84 0 
C 16 84 0 
C 18 84 0 
C 20 84 0 
C 22 84 0 
C 24 84 0 
C 26 84 0 
C 28 84 0 
C 30 84 0 
C 32 84 0 
C 34 84 0 
C 36 84 0 
C 38 84 0 
C 40 84 0 
C 42 84 0 
C 44 84 0 
C 46 84 0 
C 48 84 0 
C 50 84 0 
C 52 84 0 
C 54 84 0 
C 56 84 0 
C 58 84 0 
C 60 84 0 
C 62 84 0 
C 64 84 0 
C 66 84 0 
C 68 84 0 
C 70 84 0 
C 72 84 0 
C 74 84 0 
C 76 84 0 
C 78 84 0 
C 80 84 0 
C 82 84 0 
C 84 84 0 
C 86 84 0 
C 88 84 0 
C 90 84 0 
C 92 84 0 
C 94 84 0 
C 96 84 0 
C 98 84 0 
C 100 84 0 
C 0 86 0 
C 2 86 0 
C 4 86 0 
C 6 86 0 
C 8 86 0 
C 10 86 0 
C 12 86 0 
C 14 86 0 
C 16 86 0 
C 18 86 0 
C 20 86 0 
C 22 86 0 
C 24 86 0 
C 26 86 0 
C 28 86 0 
C 30 86 0 
C 32 86 0 
C 34 86 0 
C 36 86 0 
C 38 86 0 
C 40 86 0 
C 42 86 0 
C 44 86 0 
C 46 86 0 
C 48 86 0 
C 50 86 0 
C 52 86 0 
C 54 86 0 
C 56 86 0 
C 58 86 0 
C 60 86 0 
C 62 86 0 
C 64 86 0 
C 66 86 0 
C 68 86 0 
C 70 86 0 
C 72 86 0 
C 74 86 0 
C 76 86 0 
C 78 86 0 
C 80 86 0 
C 82 86 0 
C 84 86 0 
C 86 86 0 
C 88 86 0 
C 90 86 0 
C 92 86 0 
C 94 86 0 
C 96 86 0 
C 98 86 0 
C 100 86 0 
C 0 88 0 
C 2 88 0 
C 4 88 0 
C 6 88 0 
C 8 88 0 
C 10 88 0 
C 12 88 0 
C 14 88 0 
C 16 88 0 
C 18 88 0 
C 20 88 0 
C 22 88 0 
C 24 88 0 
C 26 88 0 
C 28 88 0 
C 30 88 0 
C 32 88 0 
C 34 88 0 
C 36 88 0 
C 38 88 0 
C 40 88 0 
C 42 88 0 
C 44 88 0 
C 46 88 0 
C 48 88 0 
C 50 88 0 
C 52 88 0 
C 54 88 0 
C 56 88 0 
C 58 88 0 
C 60 88 0 
C 62 88 0 
C 64 88 0 
C 66 88 0 
C 68 88 0 
C 70 88 0 
C 72 88 0 
C 74 88 0 
C 76 88 0 
C 78 88 0 
C 80 88 0 
C 82 88 0 
C 84 88 0 
C 86 88 0 
C 88 88 0 
C 90 88 0 
C 92 88 0 
C 94 88 0 
C 96 88 0 
C 98 88 0 
C 100 88 0 
C 0 90 0 
C 2 90 0 
C 4 90 0 
C 6 90 0 
C 8 90 0 
C 10 90 0 
C 12 90 0 
C 14 90 0 
C 16 90 0 
C 18 90 0 
C 20 90 0 
C 22 90 0 
C 24 90 0 
C 26 90 0 
C 28 90 0 
C 30 90 0 
C 32 90 0 
C 34 90 0 
C 36 90 0 
C 38 90 0 
C 40 90 0 
C 42 90 0 
C 44 90 0 
C 46 90 0 
C 48 90 0 
C 50 90 0 
C 52 90 0 
C 54 90 0 
C 56 90 0 
C 58 90 0 
C 60 90 0 
C 62 90 0 
C 64 90 0 
C 66 90 0 
C 68 90 0 
C 70 90 0 
C 72 90 0 
C 74 90 0 
C 76 90 0 
C 78 90 0 
C 80 90 0 
C 82 90 0 
C 84 90 0 
C 86 90 0 
C 88 90 0 
C 90 90 0 
C 92 90 0 
C 94 90 0 
C 96 90 0 
C 98 90 0 
C 100 90 0 
C 0 92 0 
C 2 92 0 
C 4 92 0 
C 6 92 0 
C 8 92 0 
C 10 92 0 
C 12 92 0 
C 14 92 0 
C 16 92 0 
C 18 92 0 
C 20 92 0 
C 22 92 0 
C 24 92 0 
C 26 92 0 
C 28 92 0 
C 30 92 0 
C 32 92 0 
C 34 92 0 
C 36 92 0 
C 38 92 0 
C 40 92 0 
C 42 92 0 
C 44 92 0 
C 46 92 0 
C 48 92 0 
C 50 92 0 
C 52 92 0 
C 54 92 0 
C 56 92 0 
C 58 92 0 
C 60 92 0 
C 62 92 0 
C 64 92 0 
C 66 92 0 
C 68 92 0 
C 70 92 0 
C 72 92 0 
C 74 92 0 
C 76 92 0 
C 78 92 0 
C 80 92 0 
C 82 92 0 
C 84 92 0 
C 86 92 0 
C 88 92 0 
C 90 92 0 
C 92 92 0 
C 94 92 0 
C 96 92 0 
C 98 92 0 
C 100 92 0 
C 0 94 0 
C 2 94 0 
C 4 94 0 
C 6 94 0 
C 8 94 0 
C 10 94 0 
C 12 94 0 
C 14 94 0 
C 16 94 0 
C 18 94 0 
C 20 94 0 
C 22 94 0 
C 24 94 0 
C 26 94 0 
C 28 94 0 
C 30 94 0 
C 32 94 0 
C 34 94 0 
C 36 94 0 
C 38 94 0 
C 40 94 0 
C 42 94 0 
C 44 94 0 
C 46 94 0 
C 48 94 0 
C 50 94 0 
C 52 94 0 
C 54 94 0 
C 56 94 0 
C 58 94 0 
C 60 94 0 
C 62 94 0 
C 64 94 0 
C 66 94 0 
C 68 94 0 
C 70 94 0 
C 72 94 0 
C 74 94 0 
C 76 94 0 
C 78 94 0 
C 80 94 0 
C 82 94 0 
C 84 94 0 
C 86 94 0 
C 88 94 0 
C 90 94 0 
C 92 94 0 
C 94 94 0 
C 96 94 0 
C 98 94 0 
C 100 94 0 
C 0 96 0 
C 2 96 0 
C 4 96 0 
C 6 96 0 
C 8 96 0 
C 10 96 0 
C 12 96 0 
C 14 96 0 
C 16 96 0 
C 18 96 0 
C 20 96 0 
C 22 96 0 
C 24 96 0 
C 26 96 0 
C 28 96 0 
C 30 96 0 
C 32 96 0 
C 34 96 0 
C 36 96 0 
C 38 96 0 
C 40 96 0 
C 42 96 0 
C 44 96 0 
C 46 96 0 
C 48 96 0 
C 50 96 0 
C 52 96 0 
C 54 96 0 
C 56 96 0 
C 58 96 0 
C 60 96 0 
C 62 96 0 
C 64 96 0 
C 66 96 0 
C 68 96 0 
C 70 96 0 
C 72 96 0 
C 74 96 0 
C 76 96 0 
C 78 96 0 
C 80 96 0 
C 82 96 0 
C 84 96 0 
C 86 96 0 
C 88 96 0 
C 90 96 0 
C 92 96 0 
C 94 96 0 
C 96 96 0 
C 98 96 0 
C 100 96 0 
C 0 98 0 
C 2 98 0 
C 4 98 0 
C 6 98 0 
C 8 98 0 
C 10 98 0 
C 12 98 0 
C 14 98 0 
C 16 98 0 
C 18 98 0 
C 20 98 0 
C 22 98 0 
C 24 98 0 
C 26 98 0 
C 28 98 0 
C 30 98 0 
C 32 98 0 
C 34 98 0 
C 36 98 0 
C 38 98 0 
C 40 98 0 
C 42 98 0 
C 44 98 0 
C 46 98 0 
C 48 98 0 
C 50 98 0 
C 52 98 0 
C 54 98 0 
C 56 98 0 
C 58 98 0 
C 60 98 0 
C 62 98 0 
C 64 98 0 
C 66 98 0 
C 68 98 0 
C 70 98 0 
C 72 98 0 
C 74 98 0 
C 76 98 0 
C 78 98 0 
C 80 98 0 
C 82 98 0 
C 84 98 0 
C 86 98 0 
C 88 98 0 
C 90 98 0 
C 92 98 0 
C 94 98 0 
C 96 98 0 
C 98 98 0 
C 100 98 0 
C 0 100 0 
C 2 100 0 
C 4 100 0 
C 6 100 0 
C 8 100 0 
C 10 100 0 
C 12 100 0 
C 14 100 0 
C 16 100 0 
C 18 100 0 
C 20 100 0 
C 22 100 0 
C 24 100 0 
C 26 100 0 
C 28 100 0 
C 30 100 0 
C 32 100 0 
C 34 100 0 
C 36 100 0 
C 38 100 0 
C 40 100 0 
C 42 100 0 
C 44 100 0 
C 46 100 0 
C 48 100 0 
C 50 100 0 
C 52 100 0 
C 54 100 0 
C 56 100 0 
C 58 100 0 
C 60 100 0 
C 62 100 0 
C 64 100 0 
C 66 100 0 
C 68 100 0 
C 70 100 0 
C 72 100 0 
C 74 100 0 
C 76 100 0 
C 78 100 0 
C 80 100 0 
C 82 100 0 
C 84 100 0 
C 86 100 0 
C 88 100 0 
C 90 100 0 
C 92 100 0 
C 94 100 0 
C 96 100 0 
C 98 100 0 
C 100 100 0 
O 0 91 0 
3101
Atoms. Timestep: 17
N 83 23 0 
N 20 53 0 
N 19 69 0 
N 49 96 0 
N 37 22 0 
N 63 25 0 
N 89 69 0 
N 8 57 0 
N 13 46 0 
N 49 28 0 
N 12 11 0 
N 59 27 0 
N 67 14 0 
N 82 87 0 
N 57 90 0 
N 47 62 0 
N 41 78 0 
N 3 90 0 
N 3 13 0 
N 84 27 0 
N 13 41 0 
N 81 13 0 
N 17 26 0 
N 49 81 0 
N 68 97 0 
N 13 91 0 
N 94 13 0 
N 66 97 0 
N 1 36 0 
N 33 45 0 
N 78 35 0 
N 61 22 0 
N 23 71 0 
N 98 51 0 
N 27 19 0 
N 79 55 0 
N 97 79 0 
N 71 12 0 
N 69 93 0 
N 97 9 0 
N 46 13 0 
N 27 96 0 
N 87 29 0 
N 30 61 0 
N 51 40 0 
N 61 27 0 
N 50 77 0 
N 49 35 0 
N 90 81 0 
N 27 12 0 
N 59 23 0 
N 43 34 0 
N 9 21 0 
N 19 24 0 
N 98 79 0 
N 20 81 0 
N 49 71 0 
N 87 11 0 
N 7 21 0 
N 71 77 0 
N 97 69 0 
N 79 98 0 
N 5 33 0 
N 75 89 0 
N 73 19 0 
N 5 66 0 
N 75 67 0 
N 81 29 0 
N 39 21 0 
N 67 29 0 
N 43 22 0 
N 3 97 0 
N 5 52 0 
N 19 78 0 
N 42 91 0 
N 39 23 0 
N 53 92 0 
N 2 37 0 
N 29 51 0 
N 75 13 0 
N 60 41 0 
N 97 25 0 
N 74 97 0 
N 92 45 0 
N 1 37 0 
N 6 25 0 
N 39 71 0 
N 9 81 0 
N 21 26 0 
N 83 87 0 
N 72 83 0 
N 99 98 0 
N 11 19 0 
N 93 67 0 
N 90 13 0 
N 76 9 0 
N 66 57 0 
N 97 17 0 
N 73 71 0 
N 11 31 0 
N 43 68 0 
N 64 93 0 
N 43 41 0 
N 84 15 0 
N 93 92 0 
N 55 92 0 
N 70 75 0 
N 69 54 0 
N 28 91 0 
N 23 80 0 
N 25 47 0 
N 75 72 0 
N 19 79 0 
N 83 13 0 
N 46 71 0 
N 47 46 0 
N 8 59 0 
N 1 83 0 
N 71 93 0 
N 25 94 0 
N 37 27 0 
N 49 85 0 
N 45 23 0 
N 57 65 0 
N 9 29 0 
N 79 12 0 
N 7 77 0 
N 5 12 0 
N 25 13 0 
N 96 89 0 
N 9 86 0 
N 68 45 0 
N 11 45 0 
N 78 97 0 
N 15 13 0 
N 17 77 0 
N 33 63 0 
N 82 45 0 
N 97 43 0 
N 82 19 0 
N 9 40 0 
N 77 82 0 
N 80 7 0 
N 63 9 0 
N 89 88 0 
N 45 93 0 
N 0 51 0 
N 42 59 0 
N 99 87 0 
N 67 93 0 
N 91 43 0 
N 95 71 0 
N 27 32 0 
N 11 99 0 
N 50 75 0 
N 23 84 0 
N 97 89 0 
N 9 68 0 
N 0 5 0 
N 14 47 0 
N 88 37 0 
N 43 63 0 
N 91 41 0 
N 23 1 0 
N 41 88 0 
N 39 81 0 
N 80 15 0 
N 90 89 0 
N 98 27 0 
N 48 79 0 
N 1 99 0 
N 77 37 0 
N 15 43 0 
N 13 18 0 
N 71 30 0 
N 47 92 0 
N 92 71 0 
N 55 4 0 
N 82 83 0 
N 80 89 0 
N 69 32 0 
N 15 11 0 
N 81 55 0 
N 44 61 0 
N 3 69 0 
N 6 71 0 
N 95 56 0 
N 71 87 0 
N 95 75 0 
N 20 19 0 
N 26 77 0 
N 0 91 0 
N 71 69 0 
N 21 91 0 
N 57 73 0 
N 97 30 0 
N 69 79 0 
N 95 27 0 
N 45 37 0 
N 96 31 0 
N 79 11 0 
N 69 91 0 
N 65 31 0 
N 44 95 0 
N 68 9 0 
N 33 69 0 
N 67 26 0 
N 54 39 0 
N 94 87 0 
N 93 62 0 
N 27 58 0 
N 23 68 0 
N 19 10 0 
N 99 29 0 
N 22 17 0 
N 10 77 0 
N 63 70 0 
N 55 69 0 
N 87 90 0 
N 26 85 0 
N 7 62 0 
N 83 29 0 
N 99 74 0 
N 61 29 0 
N 19 43 0 
N 97 85 0 
N 79 41 0 
N 92 57 0 
N 77 29 0 
N 97 73 0 
N 91 85 0 
N 53 46 0 
N 41 25 0 
N 88 83 0 
N 69 63 0 
N 79 60 0 
N 29 29 0 
N 75 86 0 
N 5 37 0 
N 25 16 0 
N 75 59 0 
N 21 73 0 
N 93 59 0 
N 7 23 0 
N 53 51 0 
N 25 1 0 
N 30 13 0 
N 20 73 0 
N 13 71 0 
N 14 15 0 
N 83 92 0 
N 51 62 0 
N 44 89 0 
N 20 25 0 
N 9 33 0 
N 12 25 0 
N 79 44 0 
N 61 37 0 
N 53 24 0 
N 17 83 0 
N 11 73 0 
N 4 37 0 
N 95 48 0 
N 7 26 0 
N 47 81 0 
N 91 91 0 
N 55 42 0 
N 75 49 0 
N 86 81 0 
N 60 43 0 
N 93 97 0 
N 19 11 0 
N 34 91 0 
N 11 7 0 
N 41 45 0 
N 57 57 0 
N 3 29 0 
N 33 36 0 
N 53 71 0 
N 1 34 0 
N 58 79 0 
N 15 17 0 
N 41 75 0 
N 74 27 0 
N 33 82 0 
N 64 25 0 
N 91 89 0 
N 40 39 0 
N 95 11 0 
N 89 11 0 
N 47 12 0 
N 39 25 0 
N 63 93 0 
N 66 17 0 
N 47 15 0 
N 29 79 0 
N 39 39 0 
N 17 68 0 
N 19 48 0 
N 91 49 0 
N 78 95 0 
N 7 63 0 
N 24 91 0 
N 9 1 0 
N 51 57 0 
N 59 9 0 
N 69 81 0 
N 11 50 0 
N 77 11 0 
N 22 91 0 
N 99 79 0 
N 37 55 0 
N 44 5 0 
N 7 35 0 
N 27 99 0 
N 31 80 0 
N 27 11 0 
N 67 38 0 
N 1 14 0 
N 43 27 0 
N 72 79 0 
N 5 16 0 
N 92 53 0 
N 25 75 0 
N 40 13 0 
N 71 10 0 
N 67 25 0 
N 97 5 0 
N 51 89 0 
N 10 47 0 
N 49 33 0 
N 85 8 0 
N 91 47 0 
N 68 25 0 
N 90 55 0 
N 41 32 0 
N 14 97 0 
N 9 93 0 
N 81 7 0 
N 79 73 0 
N 39 30 0 
N 31 36 0 
N 58 7 0 
N 79 46 0 
N 7 22 0 
N 15 93 0 
N 89 6 0 
N 48 91 0 
N 79 93 0 
N 55 90 0 
N 77 25 0 
N 71 89 0 
N 11 51 0 
N 97 67 0 
N 12 21 0 
N 40 27 0 
N 50 31 0 
N 37 2 0 
N 25 98 0 
N 45 59 0 
N 79 24 0 
N 62 31 0 
N 46 73 0 
N 45 27 0 
N 37 31 0 
N 3 36 0 
N 76 19 0 
N 49 39 0 
N 97 46 0 
N 99 46 0 
N 28 85 0 
N 71 15 0 
N 44 83 0 
N 65 27 0 
N 35 67 0 
N 43 10 0 
N 56 45 0 
N 91 15 0 
N 57 31 0 
N 73 94 0 
N 27 3 0 
N 4 91 0 
N 43 13 0 
N 33 80 0 
N 31 70 0 
N 57 49 0 
N 63 49 0 
N 39 27 0 
N 79 51 0 
N 11 27 0 
N 85 97 0 
N 98 83 0 
N 54 91 0 
N 79 29 0 
N 91 52 0 
N 1 38 0 
N 51 3 0 
N 59 30 0 
N 80 91 0 
N 52 77 0 
N 78 91 0 
N 9 71 0 
N 9 53 0 
N 30 63 0 
N 21 87 0 
N 79 39 0 
N 36 65 0 
N 81 75 0 
N 87 46 0 
N 45 29 0 
N 77 14 0 
N 67 9 0 
N 95 9 0 
N 8 39 0 
N 93 15 0 
N 51 45 0 
N 8 55 0 
N 31 28 0 
N 67 51 0 
N 87 44 0 
N 97 81 0 
N 92 29 0 
N 19 90 0 
N 47 63 0 
N 95 67 0 
N 79 17 0 
N 43 49 0 
N 11 67 0 
N 79 26 0 
N 5 28 0 
N 25 87 0 
N 33 29 0 
N 79 20 0 
N 37 71 0 
N 71 52 0 
N 93 60 0 
N 83 45 0 
N 1 9 0 
N 53 90 0 
N 77 69 0 
N 71 8 0 
N 9 65 0 
N 27 4 0 
N 17 71 0 
N 18 45 0 
N 14 27 0 
N 73 82 0 
N 71 91 0 
N 22 67 0 
N 19 73 0 
N 60 81 0 
N 95 86 0 
N 99 33 0 
N 74 19 0 
N 68 31 0 
N 61 33 0 
N 43 59 0 
N 93 74 0 
N 79 74 0 
N 1 7 0 
N 41 83 0 
N 59 35 0 
N 9 30 0 
N 19 91 0 
N 31 65 0 
N 15 14 0 
N 5 29 0 
N 79 70 0 
N 51 79 0 
N 17 75 0 
N 44 91 0 
N 6 15 0 
N 7 7 0 
N 43 15 0 
N 83 21 0 
N 46 47 0 
N 3 71 0 
N 45 89 0 
N 41 69 0 
N 32 11 0 
N 50 61 0 
N 93 39 0 
N 85 95 0 
N 62 29 0 
N 53 39 0 
N 78 25 0 
N 20 91 0 
N 99 31 0 
N 79 25 0 
N 83 17 0 
N 43 89 0 
N 47 21 0 
N 45 17 0 
N 32 25 0 
N 41 79 0 
N 50 39 0 
N 6 65 0 
N 79 19 0 
N 37 81 0 
N 97 72 0 
C 0 0 0 
C 2 0 0 
C 4 0 0 
C 6 0 0 
C 8 0 0 
C 10 0 0 
C 12 0 0 
C 14 0 0 
C 16 0 0 
C 18 0 0 
C 20 0 0 
C 22 0 0 
C 24 0 0 
C 26 0 0 
C 28 0 0 
C 30 0 0 
C 32 0 0 
C 34 0 0 
C 36 0 0 
C 38 0 0 
C 40 0 0 
C 42 0 0 
C 44 0 0 
C 46 0 0 
C 48 0 0 
C 50 0 0 
C 52 0 0 
C 54 0 0 
C 56 0 0 
C 58 0 0 
C 60 0 0 
C 62 0 0 
C 64 0 0 
C 66 0 0 
C 68 0 0 
C 70 0 0 
C 72 0 0 
C 74 0 0 
C 76 0 0 
C 78 0 0 
C 80 0 0 
C 82 0 0 
C 84 0 0 
C 86 0 0 
C 88 0 0 
C 90 0 0 
C 92 0 0 
C 94 0 0 
C 96 0 0 
C 98 0 0 
C 100 0 0 
C 0 2 0 
C 2 2 0 
C 4 2 0 
C 6 2 0 
C 8 2 0 
C 10 2 0 
C 12 2 0 
C 14 2 0 
C 16 2 0 
C 18 2 0 
C 20 2 0 
C 22 2 0 
C 24 2 0 
C 26 2 0 
C 28 2 0 
C 30 2 0 
C 32 2 0 
C 34 2 0 
C 36 2 0 
C 38 2 0 
C 40 2 0 
C 42 2 0 
C 44 2 0 
C 46 2 0 
C 48 2 0 
C 50 2 0 
C 52 2 0 
C 54 2 0 
C 56 2 0 
C 58 2 0 
C 60 2 0 
C 62 2 0 
C 64 2 0 
C 66 2 0 
C 68 2 0 
C 70 2 0 
C 72 2 0 
C 74 2 0 
C 76 2 0 
C 78 2 0 
C 80 2 0 
C 82 2 0 
C 84 2 0 
C 86 2 0 
C 88 2 0 
C 90 2 0 
C 92 2 0 
C 94 2 0 
C 96 2 0 
C 98 2 0 
C 100 2 0 
C 0 4 0 
C 2 4 0 
C 4 4 0 
C 6 4 0 
C 8 4 0 
C 10 4 0 
C 12 4 0 
C 14 4 0 
C 16 4 0 
C 18 4 0 
C 20 4 0 
C 22 4 0 
C 24 4 0 
C 26 4 0 
C 28 4 0 
C 30 4 0 
C 32 4 0 
C 34 4 0 
C 36 4 0 
C 38 4 0 
C 40 4 0 
C 42 4 0 
C 44 4 0 
C 46 4 0 
C 48 4 0 
C 50 4 0 
C 52 4 0 
C 54 4 0 
C 56 4 0 
C 58 4 0 
C 60 4 0 
C 62 4 0 
C 64 4 0 
C 66 4 0 
C 68 4 0 
C 70 4 0 
C 72 4 0 
C 74 4 0 
C 76 4 0 
C 78 4 0 
C 80 4 0 
C 82 4 0 
C 84 4 0 
C 86 4 0 
C 88 4 0 
C 90 4 0 
C 92 4 0 
C 94 4 0 
C 96 4 0 
C 98 4 0 
C 100 4 0 
C 0 6 0 
C 2 6 0 
C 4 6 0 
C 6 6 0 
C 8 6 0 
C 10 6 0 
C 12 6 0 
C 14 6 0 
C 16 6 0 
C 18 6 0 
C 20 6 0 
C 22 6 0 
C 24 6 0 
C 26 6 0 
C 28 6 0 
C 30 6 0 
C 32 6 0 
C 34 6 0 
C 36 6 0 
C 38 6 0 
C 40 6 0 
C 42 6 0 
C 44 6 0 
C 46 6 0 
C 48 6 0 
C 50 6 0 
C 52 6 0 
C 54 6 0 
C 56 6 0 
C 58 6 0 
C 60 6 0 
C 62 6 0 
C 64 6 0 
C 66 6 0 
C 68 6 0 
C 70 6 0 
C 72 6 0 
C 74 6 0 
C 76 6 0 
C 78 6 0 
C 80 6 0 
C 82 6 0 
C 84 6 0 
C 86 6 0 
C 88 6 0 
C 90 6 0 
C 92 6 0 
C 94 6 0 
C 96 6 0 
C 98 6 0 
C 100 6 0 
C 0 8 0 
C 2 8 0 
C 4 8 0 
C 6 8 0 
C 8 8 0 
C 10 8 0 
C 12 8 0 
C 14 8 0 
C 16 8 0 
C 18 8 0 
C 20 8 0 
C 22 8 0 
C 24 8 0 
C 26 8 0 
C 28 8 0 
C 30 8 0 
C 32 8 0 
C 34 8 0 
C 36 8 0 
C 38 8 0 
C 40 8 0 
C 42 8 0 
C 44 8 0 
C 46 8 0 
C 48 8 0 
C 50 8 0 
C 52 8 0 
C 54 8 0 
C 56 8 0 
C 58 8 0 
C 60 8 0 
C 62 8 0 
C 64 8 0 
C 66 8 0 
C 68 8 0 
C 70 8 0 
C 72 8 0 
C 74 8 0 
C 76 8 0 
C 78 8 0 
C 80 8 0 
C 82 8 0 
C 84 8 0 
C 86 8 0 
C 88 8 0 
C 90 8 0 
C 92 8 0 
C 94 8 0 
C 96 8 0 
C 98 8 0 
C 100 8 0 
C 0 10 0 
C 2 10 0 
C 4 10 0 
C 6 10 0 
C 8 10 0 
C 10 10 0 
C 12 10 0 
C 14 10 0 
C 16 10 0 
C 18 10 0 
C 20 10 0 
C 22 10 0 
C 24 10 0 
C 26 10 0 
C 28 10 0 
C 30 10 0 
C 32 10 0 
C 34 10 0 
C 36 10 0 
C 38 10 0 
C 40 10 0 
C 42 10 0 
C 44 10 0 
C 46 10 0 
C 48 10 0 
C 50 10 0 
C 52 10 0 
C 54 10 0 
C 56 10 0 
C 58 10 0 
C 60 10 0 
C 62 10 0 
C 64 10 0 
C 66 10 0 
C 68 10 0 
C 70 10 0 
C 72 10 0 
C 74 10 0 
C 76 10 0 
C 78 10 0 
C 80 10 0 
C 82 10 0 
C 84 10 0 
C 86 10 0 
C 88 10 0 
C 90 10 0 
C 92 10 0 
C 94 10 0 
C 96 10 0 
C 98 10 0 
C 100 10 0 
C 0 12 0 
C 2 12 0 
C 4 12 0 
C 6 12 0 
C 8 12 0 
C 10 12 0 
C 12 12 0 
C 14 12 0 
C 16 12 0 
C 18 12 0 
C 20 12 0 
C 22 12 0 
C 24 12 0 
C 26 12 0 
C 28 12 0 
C 30 12 0 
C 32 12 0 
C 34 12 0 
C 36 12 0 
C 38 12 0 
C 40 12 0 
C 42 12 0 
C 44 12 0 
C 46 12 0 
C 48 12 0 
C 50 12 0 
C 52 12 0 
C 54 12 0 
C 56 12 0 
C 58 12 0 
C 60 12 0 
C 62 12 0 
C 64 12 0 
C 66 12 0 
C 68 12 0 
C 70 12 0 
C 72 12 0 
C 74 12 0 
C 76 12 0 
C 78 12 0 
C 80 12 0 
C 82 12 0 
C 84 12 0 
C 86 12 0 
C 88 12 0 
C 90 12 0 
C 92 12 0 
C 94 12 0 
C 96 12 0 
C 98 12 0 
C 100 12 0 
C 0 14 0 
C 2 14 0 
C 4 14 0 
C 6 14 0 
C 8 14 0 
C 10 14 0 
C 12 14 0 
C 14 14 0 
C 16 14 0 
C 18 14 0 
C 20 14 0 
C 22 14 0 
C 24 14 0 
C 26 14 0 
C 28 14 0 
C 30 14 0 
C 32 14 0 
C 34 14 0 
C 36 14 0 
C 38 14 0 
C 40 14 0 
C 42 14 0 
C 44 14 0 
C 46 14 0 
C 48 14 0 
C 50 14 0 
C 52 14 0 
C 54 14 0 
C 56 14 0 
C 58 14 0 
C 60 14 0 
C 62 14 0 
C 64 14 0 
C 66 14 0 
C 68 14 0 
C 70 14 0 
C 72 14 0 
C 74 14 0 
C 76 14 0 
C 78 14 0 
C 80 14 0 
C 82 14 0 
C 84 14 0 
C 86 14 0 
C 88 14 0 
C 90 14 0 
C 92 14 0 
C 94 14 0 
C 96 14 0 
C 98 14 0 
C 100 14 0 
C 0 16 0 
C 2 16 0 
C 4 16 0 
C 6 16 0 
C 8 16 0 
C 10 16 0 
C 12 16 0 
C 14 16 0 
C 16 16 0 
C 18 16 0 
C 20 16 0 
C 22 16 0 
C 24 16 0 
C 26 16 0 
C 28 16 0 
C 30 16 0 
C 32 16 0 
C 34 16 0 
C 36 16 0 
C 38 16 0 
C 40 16 0 
C 42 16 0 
C 44 16 0 
C 46 16 0 
C 48 16 0 
C 50 16 0 
C 52 16 0 
C 54 16 0 
C 56 16 0 
C 58 16 0 
C 60 16 0 
C 62 16 0 
C 64 16 0 
C 66 16 0 
C 68 16 0 
C 70 16 0 
C 72 16 0 
C 74 16 0 
C 76 16 0 
C 78 16 0 
C 80 16 0 
C 82 16 0 
C 84 16 0 
C 86 16 0 
C 88 16 0 
C 90 16 0 
C 92 16 0 
C 94 16 0 
C 96 16 0 
C 98 16 0 
C 100 16 0 
C 0 18 0 
C 2 18 0 
C 4 18 0 
C 6 18 0 
C 8 18 0 
C 10 18 0 
C 12 18 0 
C 14 18 0 
C 16 18 0 
C 18 18 0 
C 20 18 0 
C 22 18 0 
C 24 18 0 
C 26 18 0 
C 28 18 0 
C 30 18 0 
C 32 18 0 
C 34 18 0 
C 36 18 0 
C 38 18 0 
C 40 18 0 
C 42 18 0 
C 44 18 0 
C 46 18 0 
C 48 18 0 
C 50 18 0 
C 52 18 0 
C 54 18 0 
C 56 18 0 
C 58 18 0 
C 60 18 0 
C 62 18 0 
C 64 18 0 
C 66 18 0 
C 68 18 0 
C 70 18 0 
C 72 18 0 
C 74 18 0 
C 76 18 0 
C 78 18 0 
C 80 18 0 
C 82 18 0 
C 84 18 0 
C 86 18 0 
C 88 18 0 
C 90 18 0 
C 92 18 0 
C 94 18 0 
C 96 18 0 
C 98 18 0 
C 100 18 0 
C 0 20 0 
C 2 20 0 
C 4 20 0 
C 6 20 0 
C 8 20 0 
C 10 20 0 
C 12 20 0 
C 14 20 0 
C 16 20 0 
C 18 20 0 
C 20 20 0 
C 22 20 0 
C 24 20 0 
C 26 20 0 
C 28 20 0 
C 30 20 0 
C 32 20 0 
C 34 20 0 
C 36 20 0 
C 38 20 0 
C 40 20 0 
C 42 20 0 
C 44 20 0 
C 46 20 0 
C 48 20 0 
C 50 20 0 
C 52 20 0 
C 54 20 0 
C 56 20 0 
C 58 20 0 
C 60 20 0 
C 62 20 0 
C 64 20 0 
C 66 20 0 
C 68 20 0 
C 70 20 0 
C 72 20 0 
C 74 20 0 
C 76 20 0 
C 78 20 0 
C 80 20 0 
C 82 20 0 
C 84 20 0 
C 86 20 0 
C 88 20 0 
C 90 20 0 
C 92 20 0 
C 94 20 0 
C 96 20 0 
C 98 20 0 
C 100 20 0 
C 0 22 0 
C 2 22 0 
C 4 22 0 
C 6 22 0 
C 8 22 0 
C 10 22 0 
C 12 22 0 
C 14 22 0 
C 16 22 0 
C 18 22 0 
C 20 22 0 
C 22 22 0 
C 24 22 0 
C 26 22 0 
C 28 22 0 
C 30 22 0 
C 32 22 0 
C 34 22 0 
C 36 22 0 
C 38 22 0 
C 40 22 0 
C 42 22 0 
C 44 22 0 
C 46 22 0 
C 48 22 0 
C 50 22 0 
C 52 22 0 
C 54 22 0 
C 56 22 0 
C 58 22 0 
C 60 22 0 
C 62 22 0 
C 64 22 0 
C 66 22 0 
C 68 22 0 
C 70 22 0 
C 72 22 0 
C 74 22 0 
C 76 22 0 
C 78 22 0 
C 80 22 0 
C 82 22 0 
C 84 22 0 
C 86 22 0 
C 88 22 0 
C 90 22 0 
C 92 22 0 
C 94 22 0 
C 96 22 0 
C 98 22 0 
C 100 22 0 
C 0 24 0 
C 2 24 0 
C 4 24 0 
C 6 24 0 
C 8 24 0 
C 10 24 0 
C 12 24 0 
C 14 24 0 
C 16 24 0 
C 18 24 0 
C 20 24 0 
C 22 24 0 
C 24 24 0 
C 26 24 0 
C 28 24 0 
C 30 24 0 
C 32 24 0 
C 34 24 0 
C 36 24 0 
C 38 24 0 
C 40 24 0 
C 42 24 0 
C 44 24 0 
C 46 24 0 
C 48 24 0 
C 50 24 0 
C 52 24 0 
C 54 24 0 
C 56 24 0 
C 58 24 0 
C 60 24 0 
C 62 24 0 
C 64 24 0 
C 66 24 0 
C 68 24 0 
C 70 24 0 
C 72 24 0 
C 74 24 0 
C 76 24 0 
C 78 24 0 
C 80 24 0 
C 82 24 0 
C 84 24 0 
C 86 24 0 
C 88 24 0 
C 90 24 0 
C 92 24 0 
C 94 24 0 
C 96 24 0 
C 98 24 0 
C 100 24 0 
C 0 26 0 
C 2 26 0 
C 4 26 0 
C 6 26 0 
C 8 26 0 
C 10 26 0 
C 12 26 0 
C 14 26 0 
C 16 26 0 
C 18 26 0 
C 20 26 0 
C 22 26 0 
C 24 26 0 
C 26 26 0 
C 28 26 0 
C 30 26 0 
C 32 26 0 
C 34 26 0 
C 36 26 0 
C 38 26 0 
C 40 26 0 
C 42 26 0 
C 44 26 0 
C 46 26 0 
C 48 26 0 
C 50 26 0 
C 52 26 0 
C 54 26 0 
C 56 26 0 
C 58 26 0 
C 60 26 0 
C 62 26 0 
C 64 26 0 
C 66 26 0 
C 68 26 0 
C 70 26 0 
C 72 26 0 
C 74 26 0 
C 76 26 0 
C 78 26 0 
C 80 26 0 
C 82 26 0 
C 84 26 0 
C 86 26 0 
C 88 26 0 
C 90 26 0 
C 92 26 0 
C 94 26 0 
C 96 26 0 
C 98 26 0 
C 100 26 0 
C 0 28 0 
C 2 28 0 
C 4 28 0 
C 6 28 0 
C 8 28 0 
C 10 28 0 
C 12 28 0 
C 14 28 0 
C 16 28 0 
C 18 28 0 
C 20 28 0 
C 22 28 0 
C 24 28 0 
C 26 28 0 
C 28 28 0 
C 30 28 0 
C 32 28 0 
C 34 28 0 
C 36 28 0 
C 38 28 0 
C 40 28 0 
C 42 28 0 
C 44 28 0 
C 46 28 0 
C 48 28 0 
C 50 28 0 
C 52 28 0 
C 54 28 0 
C 56 28 0 
C 58 28 0 
C 60 28 0 
C 62 28 0 
C 64 28 0 
C 66 28 0 
C 68 28 0 
C 70 28 0 
C 72 28 0 
C 74 28 0 
C 76 28 0 
C 78 28 0 
C 80 28 0 
C 82 28 0 
C 84 28 0 
C 86 28 0 
C 88 28 0 
C 90 28 0 
C 92 28 0 
C 94 28 0 
C 96 28 0 
C 98 28 0 
C 100 28 0 
C 0 30 0 
C 2 30 0 
C 4 30 0 
C 6 30 0 
C 8 30 0 
C 10 30 0 
C 12 30 0 
C 14 30 0 
C 16 30 0 
C 18 30 0 
C 20 30 0 
C 22 30 0 
C 24 30 0 
C 26 30 0 
C 28 30 0 
C 30 30 0 
C 32 30 0 
C 34 30 0 
C 36 30 0 
C 38 30 0 
C 40 30 0 
C 42 30 0 
C 44 30 0 
C 46 30 0 
C 48 30 0 
C 50 30 0 
C 52 30 0 
C 54 30 0 
C 56 30 0 
C 58 30 0 
C 60 30 0 
C 62 30 0 
C 64 30 0 
C 66 30 0 
C 68 30 0 
C 70 30 0 
C 72 30 0 
C 74 30 0 
C 76 30 0 
C 78 30 0 
C 80 30 0 
C 82 30 0 
C 84 30 0 
C 86 30 0 
C 88 30 0 
C 90 30 0 
C 92 30 0 
C 94 30 0 
C 96 30 0 
C 98 30 0 
C 100 30 0 
C 0 32 0 
C 2 32 0 
C 4 32 0 
C 6 32 0 
C 8 32 0 
C 10 32 0 
C 12 32 0 
C 14 32 0 
C 16 32 0 
C 18 32 0 
C 20 32 0 
C 22 32 0 
C 24 32 0 
C 26 32 0 
C 28 32 0 
C 30 32 0 
C 32 32 0 
C 34 32 0 
C 36 32 0 
C 38 32 0 
C 40 32 0 
C 42 32 0 
C 44 32 0 
C 46 32 0 
C 48 32 0 
C 50 32 0 
C 52 32 0 
C 54 32 0 
C 56 32 0 
C 58 32 0 
C 60 32 0 
C 62 32 0 
C 64 32 0 
C 66 32 0 
C 68 32 0 
C 70 32 0 
C 72 32 0 
C 74 32 0 
C 76 32 0 
C 78 32 0 
C 80 32 0 
C 82 32 0 
C 84 32 0 
C 86 32 0 
C 88 32 0 
C 90 32 0 
C 92 32 0 
C 94 32 0 
C 96 32 0 
C 98 32 0 
C 100 32 0 
C 0 34 0 
C 2 34 0 
C 4 34 0 
C 6 34 0 
C 8 34 0 
C 10 34 0 
C 12 34 0 
C 14 34 0 
C 16 34 0 
C 18 34 0 
C 20 34 0 
C 22 34 0 
C 24 34 0 
C 26 34 0 
C 28 34 0 
C 30 34 0 
C 32 34 0 
C 34 34 0 
C 36 34 0 
C 38 34 0 
C 40 34 0 
C 42 34 0 
C 44 34 0 
C 46 34 0 
C 48 34 0 
C 50 34 0 
C 52 34 0 
C 54 34 0 
C 56 34 0 
C 58 34 0 
C 60 34 0 
C 62 34 0 
C 64 34 0 
C 66 34 0 
C 68 34 0 
C 70 34 0 
C 72 34 0 
C 74 34 0 
C 76 34 0 
C 78 34 0 
C 80 34 0 
C 82 34 0 
C 84 34 0 
C 86 34 0 
C 88 34 0 
C 90 34 0 
C 92 34 0 
C 94 34 0 
C 96 34 0 
C 98 34 0 
C 100 34 0 
C 0 36 0 
C 2 36 0 
C 4 36 0 
C 6 36 0 
C 8 36 0 
C 10 36 0 
C 12 36 0 
C 14 36 0 
C 16 36 0 
C 18 36 0 
C 20 36 0 
C 22 36 0 
C 24 36 0 
C 26 36 0 
C 28 36 0 
C 30 36 0 
C 32 36 0 
C 34 36 0 
C 36 36 0 
C 38 36 0 
C 40 36 0 
C 42 36 0 
C 44 36 0 
C 46 36 0 
C 48 36 0 
C 50 36 0 
C 52 36 0 
C 54 36 0 
C 56 36 0 
C 58 36 0 
C 60 36 0 
C 62 36 0 
C 64 36 0 
C 66 36 0 
C 68 36 0 
C 70 36 0 
C 72 36 0 
C 74 36 0 
C 76 36 0 
C 78 36 0 
C 80 36 0 
C 82 36 0 
C 84 36 0 
C 86 36 0 
C 88 36 0 
C 90 36 0 
C 92 36 0 
C 94 36 0 
C 96 36 0 
C 98 36 0 
C 100 36 0 
C 0 38 0 
C 2 38 0 
C 4 38 0 
C 6 38 0 
C 8 38 0 
C 10 38 0 
C 12 38 0 
C 14 38 0 
C 16 38 0 
C 18 38 0 
C 20 38 0 
C 22 38 0 
C 24 38 0 
C 26 38 0 
C 28 38 0 
C 30 38 0 
C 32 38 0 
C 34 38 0 
C 36 38 0 
C 38 38 0 
C 40 38 0 
C 42 38 0 
C 44 38 0 
C 46 38 0 
C 48 38 0 
C 50 38 0 
C 52 38 0 
C 54 38 0 
C 56 38 0 
C 58 38 0 
C 60 38 0 
C 62 38 0 
C 64 38 0 
C 66 38 0 
C 68 38 0 
C 70 38 0 
C 72 38 0 
C 74 38 0 
C 76 38 0 
C 78 38 0 
C 80 38 0 
C 82 38 0 
C 84 38 0 
C 86 38 0 
C 88 38 0 
C 90 38 0 
C 92 38 0 
C 94 38 0 
C 96 38 0 
C 98 38 0 
C 100 38 0 
C 0 40 0 
C 2 40 0 
C 4 40 0 
C 6 40 0 
C 8 40 0 
C 10 40 0 
C 12 40 0 
C 14 40 0 
C 16 40 0 
C 18 40 0 
C 20 40 0 
C 22 40 0 
C 24 40 0 
C 26 40 0 
C 28 40 0 
C 30 40 0 
C 32 40 0 
C 34 40 0 
C 36 40 0 
C 38 40 0 
C 40 40 0 
C 42 40 0 
C 44 40 0 
C 46 40 0 
C 48 40 0 
C 50 40 0 
C 52 40 0 
C 54 40 0 
C 56 40 0 
C 58 40 0 
C 60 40 0 
C 62 40 0 
C 64 40 0 
C 66 40 0 
C 68 40 0 
C 70 40 0 
C 72 40 0 
C 74 40 0 
C 76 40 0 
C 78 40 0 
C 80 40 0 
C 82 40 0 
C 84 40 0 
C 86 40 0 
C 88 40 0 
C 90 40 0 
C 92 40 0 
C 94 40 0 
C 96 40 0 
C 98 40 0 
C 100 40 0 
C 0 42 0 
C 2 42 0 
C 4 42 0 
C 6 42 0 
C 8 42 0 
C 10 42 0 
C 12 42 0 
C 14 42 0 
C 16 42 0 
C 18 42 0 
C 20 42 0 
C 22 42 0 
C 24 42 0 
C 26 42 0 
C 28 42 0 
C 30 42 0 
C 32 42 0 
C 34 42 0 
C 36 42 0 
C 38 42 0 
C 40 42 0 
C 42 42 0 
C 44 42 0 
C 46 42 0 
C 48 42 0 
C 50 42 0 
C 52 42 0 
C 54 42 0 
C 56 42 0 
C 58 42 0 
C 60 42 0 
C 62 42 0 
C 64 42 0 
C 66 42 0 
C 68 42 0 
C 70 42 0 
C 72 42 0 
C 74 42 0 
C 76 42 0 
C 78 42 0 
C 80 42 0 
C 82 42 0 
C 84 42 0 
C 86 42 0 
C 88 42 0 
C 90 42 0 
C 92 42 0 
C 94 42 0 
C 96 42 0 
C 98 42 0 
C 100 42 0 
C 0 44 0 
C 2 44 0 
C 4 44 0 
C 6 44 0 
C 8 44 0 
C 10 44 0 
C 12 44 0 
C 14 44 0 
C 16 44 0 
C 18 44 0 
C 20 44 0 
C 22 44 0 
C 24 44 0 
C 26 44 0 
C 28 44 0 
C 30 44 0 
C 32 44 0 
C 34 44 0 
C 36 44 0 
C 38 44 0 
C 40 44 0 
C 42 44 0 
C 44 44 0 
C 46 44 0 
C 48 44 0 
C 50 44 0 
C 52 44 0 
C 54 44 0 
C 56 44 0 
C 58 44 0 
C 60 44 0 
C 62 44 0 
C 64 44 0 
C 66 44 0 
C 68 44 0 
C 70 44 0 
C 72 44 0 
C 74 44 0 
C 76 44 0 
C 78 44 0 
C 80 44 0 
C 82 44 0 
C 84 44 0 
C 86 44 0 
C 88 44 0 
C 90 44 0 
C 92 44 0 
C 94 44 0 
C 96 44 0 
C 98 44 0 
C 100 44 0 
C 0 46 0 
C 2 46 0 
C 4 46 0 
C 6 46 0 
C 8 46 0 
C 10 46 0 
C 12 46 0 
C 14 46 0 
C 16 46 0 
C 18 46 0 
C 20 46 0 
C 22 46 0 
C 24 46 0 
C 26 46 0 
C 28 46 0 
C 30 46 0 
C 32 46 0 
C 34 46 0 
C 36 46 0 
C 38 46 0 
C 40 46 0 
C 42 46 0 
C 44 46 0 
C 46 46 0 
C 48 46 0 
C 50 46 0 
C 52 46 0 
C 54 46 0 
C 56 46 0 
C 58 46 0 
C 60 46 0 
C 62 46 0 
C 64 46 0 
C 66 46 0 
C 68 46 0 
C 70 46 0 
C 72 46 0 
C 74 46 0 
C 76 46 0 
C 78 46 0 
C 80 46 0 
C 82 46 0 
C 84 46 0 
C 86 46 0 
C 88 46 0 
C 90 46 0 
C 92 46 0 
C 94 46 0 
C 96 46 0 
C 98 46 0 
C 100 46 0 
C 0 48 0 
C 2 48 0 
C 4 48 0 
C 6 48 0 
C 8 48 0 
C 10 48 0 
C 12 48 0 
C 14 48 0 
C 16 48 0 
C 18 48 0 
C 20 48 0 
C 22 48 0 
C 24 48 0 
C 26 48 0 
C 28 48 0 
C 30 48 0 
C 32 48 0 
C 34 48 0 
C 36 48 0 
C 38 48 0 
C 40 48 0 
C 42 48 0 
C 44 48 0 
C 46 48 0 
C 48 48 0 
C 50 48 0 
C 52 48 0 
C 54 48 0 
C 56 48 0 
C 58 48 0 
C 60 48 0 
C 62 48 0 
C 64 48 0 
C 66 48 0 
C 68 48 0 
C 70 48 0 
C 72 48 0 
C 74 48 0 
C 76 48 0 
C 78 48 0 
C 80 48 0 
C 82 48 0 
C 84 48 0 
C 86 48 0 
C 88 48 0 
C 90 48 0 
C 92 48 0 
C 94 48 0 
C 96 48 0 
C 98 48 0 
C 100 48 0 
C 0 50 0 
C 2 50 0 
C 4 50 0 
C 6 50 0 
C 8 50 0 
C 10 50 0 
C 12 50 0 
C 14 50 0 
C 16 50 0 
C 18 50 0 
C 20 50 0 
C 22 50 0 
C 24 50 0 
C 26 50 0 
C 28 50 0 
C 30 50 0 
C 32 50 0 
C 34 50 0 
C 36 50 0 
C 38 50 0 
C 40 50 0 
C 42 50 0 
C 44 50 0 
C 46 50 0 
C 48 50 0 
C 50 50 0 
C 52 50 0 
C 54 50 0 
C 56 50 0 
C 58 50 0 
C 60 50 0 
C 62 50 0 
C 64 50 0 
C 66 50 0 
C 68 50 0 
C 70 50 0 
C 72 50 0 
C 74 50 0 
C 76 50 0 
C 78 50 0 
C 80 50 0 
C 82 50 0 
C 84 50 0 
C 86 50 0 
C 88 50 0 
C 90 50 0 
C 92 50 0 
C 94 50 0 
C 96 50 0 
C 98 50 0 
C 100 50 0 
C 0 52 0 
C 2 52 0 
C 4 52 0 
C 6 52 0 
C 8 52 0 
C 10 52 0 
C 12 52 0 
C 14 52 0 
C 16 52 0 
C 18 52 0 
C 20 52 0 
C 22 52 0 
C 24 52 0 
C 26 52 0 
C 28 52 0 
C 30 52 0 
C 32 52 0 
C 34 52 0 
C 36 52 0 
C 38 52 0 
C 40 52 0 
C 42 52 0 
C 44 52 0 
C 46 52 0 
C 48 52 0 
C 50 52 0 
C 52 52 0 
C 54 52 0 
C 56 52 0 
C 58 52 0 
C 60 52 0 
C 62 52 0 
C 64 52 0 
C 66 52 0 
C 68 52 0 
C 70 52 0 
C 72 52 0 
C 74 52 0 
C 76 52 0 
C 78 52 0 
C 80 52 0 
C 82 52 0 
C 84 52 0 
C 86 52 0 
C 88 52 0 
C 90 52 0 
C 92 52 0 
C 94 52 0 
C 96 52 0 
C 98 52 0 
C 100 52 0 
C 0 54 0 
C 2 54 0 
C 4 54 0 
C 6 54 0 
C 8 54 0 
C 10 54 0 
C 12 54 0 
C 14 54 0 
C 16 54 0 
C 18 54 0 
C 20 54 0 
C 22 54 0 
C 24 54 0 
C 26 54 0 
C 28 54 0 
C 30 54 0 
C 32 54 0 
C 34 54 0 
C 36 54 0 
C 38 54 0 
C 40 54 0 
C 42 54 0 
C 44 54 0 
C 46 54 0 
C 48 54 0 
C 50 54 0 
C 52 54 0 
C 54 54 0 
C 56 54 0 
C 58 54 0 
C 60 54 0 
C 62 54 0 
C 64 54 0 
C 66 54 0 
C 68 54 0 
C 70 54 0 
C 72 54 0 
C 74 54 0 
C 76 54 0 
C 78 54 0 
C 80 54 0 
C 82 54 0 
C 84 54 0 
C 86 54 0 
C 88 54 0 
C 90 54 0 
C 92 54 0 
C 94 54 0 
C 96 54 0 
C 98 54 0 
C 100 54 0 
C 0 56 0 
C 2 56 0 
C 4 56 0 
C 6 56 0 
C 8 56 0 
C 10 56 0 
C 12 56 0 
C 14 56 0 
C 16 56 0 
C 18 56 0 
C 20 56 0 
C 22 56 0 
C 24 56 0 
C 26 56 0 
C 28 56 0 
C 30 56 0 
C 32 56 0 
C 34 56 0 
C 36 56 0 
C 38 56 0 
C 40 56 0 
C 42 56 0 
C 44 56 0 
C 46 56 0 
C 48 56 0 
C 50 56 0 
C 52 56 0 
C 54 56 0 
C 56 56 0 
C 58 56 0 
C 60 56 0 
C 62 56 0 
C 64 56 0 
C 66 56 0 
C 68 56 0 
C 70 56 0 
C 72 56 0 
C 74 56 0 
C 76 56 0 
C 78 56 0 
C 80 56 0 
C 82 56 0 
C 84 56 0 
C 86 56 0 
C 88 56 0 
C 90 56 0 
C 92 56 0 
C 94 56 0 
C 96 56 0 
C 98 56 0 
C 100 56 0 
C 0 58 0 
C 2 58 0 
C 4 58 0 
C 6 58 0 
C 8 58 0 
C 10 58 0 
C 12 58 0 
C 14 58 0 
C 16 58 0 
C 18 58 0 
C 20 58 0 
C 22 58 0 
C 24 58 0 
C 26 58 0 
C 28 58 0 
C 30 58 0 
C 32 58 0 
C 34 58 0 
C 36 58 0 
C 38 58 0 
C 40 58 0 
C 42 58 0 
C 44 58 0 
C 46 58 0 
C 48 58 0 
C 50 58 0 
C 52 58 0 
C 54 58 0 
C 56 58 0 
C 58 58 0 
C 60 58 0 
C 62 58 0 
C 64 58 0 
C 66 58 0 
C 68 58 0 
C 70 58 0 
C 72 58 0 
C 74 58 0 
C 76 58 0 
C 78 58 0 
C 80 58 0 
C 82 58 0 
C 84 58 0 
C 86 58 0 
C 88 58 0 
C 90 58 0 
C 92 58 0 
C 94 58 0 
C 96 58 0 
C 98 58 0 
C 100 58 0 
C 0 60 0 
C 2 60 0 
C 4 60 0 
C 6 60 0 
C 8 60 0 
C 10 60 0 
C 12 60 0 
C 14 60 0 
C 16 60 0 
C 18 60 0 
C 20 60 0 
C 22 60 0 
C 24 60 0 
C 26 60 0 
C 28 60 0 
C 30 60 0 
C 32 60 0 
C 34 60 0 
C 36 60 0 
C 38 60 0 
C 40 60 0 
C 42 60 0 
C 44 60 0 
C 46 60 0 
C 48 60 0 
C 50 60 0 
C 52 60 0 
C 54 60 0 
C 56 60 0 
C 58 60 0 
C 60 60 0 
C 62 60 0 
C 64 60 0 
C 66 60 0 
C 68 60 0 
C 70 60 0 
C 72 60 0 
C 74 60 0 
C 76 60 0 
C 78 60 0 
C 80 60 0 
C 82 60 0 
C 84 60 0 
C 86 60 0 
C 88 60 0 
C 90 60 0 
C 92 60 0 
C 94 60 0 
C 96 60 0 
C 98 60 0 
C 100 60 0 
C 0 62 0 
C 2 62 0 
C 4 62 0 
C 6 62 0 
C 8 62 0 
C 10 62 0 
C 12 62 0 
C 14 62 0 
C 16 62 0 
C 18 62 0 
C 20 62 0 
C 22 62 0 
C 24 62 0 
C 26 62 0 
C 28 62 0 
C 30 62 0 
C 32 62 0 
C 34 62 0 
C 36 62 0 
C 38 62 0 
C 40 62 0 
C 42 62 0 
C 44 62 0 
C 46 62 0 
C 48 62 0 
C 50 62 0 
C 52 62 0 
C 54 62 0 
C 56 62 0 
C 58 62 0 
C 60 62 0 
C 62 62 0 
C 64 62 0 
C 66 62 0 
C 68 62 0 
C 70 62 0 
C 72 62 0 
C 74 62 0 
C 76 62 0 
C 78 62 0 
C 80 62 0 
C 82 62 0 
C 84 62 0 
C 86 62 0 
C 88 62 0 
C 90 62 0 
C 92 62 0 
C 94 62 0 
C 96 62 0 
C 98 62 0 
C 100 62 0 
C 0 64 0 
C 2 64 0 
C 4 64 0 
C 6 64 0 
C 8 64 0 
C 10 64 0 
C 12 64 0 
C 14 64 0 
C 16 64 0 
C 18 64 0 
C 20 64 0 
C 22 64 0 
C 24 64 0 
C 26 64 0 
C 28 64 0 
C 30 64 0 
C 32 64 0 
C 34 64 0 
C 36 64 0 
C 38 64 0 
C 40 64 0 
C 42 64 0 
C 44 64 0 
C 46 64 0 
C 48 64 0 
C 50 64 0 
C 52 64 0 
C 54 64 0 
C 56 64 0 
C 58 64 0 
C 60 64 0 
C 62 64 0 
C 64 64 0 
C 66 64 0 
C 68 64 0 
C 70 64 0 
C 72 64 0 
C 74 64 0 
C 76 64 0 
C 78 64 0 
C 80 64 0 
C 82 64 0 
C 84 64 0 
C 86 64 0 
C 88 64 0 
C 90 64 0 
C 92 64 0 
C 94 64 0 
C 96 64 0 
C 98 64 0 
C 100 64 0 
C 0 66 0 
C 2 66 0 
C 4 66 0 
C 6 66 0 
C 8 66 0 
C 10 66 0 
C 12 66 0 
C 14 66 0 
C 16 66 0 
C 18 66 0 
C 20 66 0 
C 22 66 0 
C 24 66 0 
C 26 66 0 
C 28 66 0 
C 30 66 0 
C 32 66 0 
C 34 66 0 
C 36 66 0 
C 38 66 0 
C 40 66 0 
C 42 66 0 
C 44 66 0 
C 46 66 0 
C 48 66 0 
C 50 66 0 
C 52 66 0 
C 54 66 0 
C 56 66 0 
C 58 66 0 
C 60 66 0 
C 62 66 0 
C 64 66 0 
C 66 66 0 
C 68 66 0 
C 70 66 0 
C 72 66 0 
C 74 66 0 
C 76 66 0 
C 78 66 0 
C 80 66 0 
C 82 66 0 
C 84 66 0 
C 86 66 0 
C 88 66 0 
C 90 66 0 
C 92 66 0 
C 94 66 0 
C 96 66 0 
C 98 66 0 
C 100 66 0 
C 0 68 0 
C 2 68 0 
C 4 68 0 
C 6 68 0 
C 8 68 0 
C 10 68 0 
C 12 68 0 
C 14 68 0 
C 16 68 0 
C 18 68 0 
C 20 68 0 
C 22 68 0 
C 24 68 0 
C 26 68 0 
C 28 68 0 
C 30 68 0 
C 32 68 0 
C 34 68 0 
C 36 68 0 
C 38 68 0 
C 40 68 0 
C 42 68 0 
C 44 68 0 
C 46 68 0 
C 48 68 0 
C 50 68 0 
C 52 68 0 
C 54 68 0 
C 56 68 0 
C 58 68 0 
C 60 68 0 
C 62 68 0 
C 64 68 0 
C 66 68 0 
C 68 68 0 
C 70 68 0 
C 72 68 0 
C 74 68 0 
C 76 68 0 
C 78 68 0 
C 80 68 0 
C 82 68 0 
C 84 68 0 
C 86 68 0 
C 88 68 0 
C 90 68 0 
C 92 68 0 
C 94 68 0 
C 96 68 0 
C 98 68 0 
C 100 68 0 
C 0 70 0 
C 2 70 0 
C 4 70 0 
C 6 70 0 
C 8 70 0 
C 10 70 0 
C 12 70 0 
C 14 70 0 
C 16 70 0 
C 18 70 0 
C 20 70 0 
C 22 70 0 
C 24 70 0 
C 26 70 0 
C 28 70 0 
C 30 70 0 
C 32 70 0 
C 34 70 0 
C 36 70 0 
C 38 70 0 
C 40 70 0 
C 42 70 0 
C 44 70 0 
C 46 70 0 
C 48 70 0 
C 50 70 0 
C 52 70 0 
C 54 70 0 
C 56 70 0 
C 58 70 0 
C 60 70 0 
C 62 70 0 
C 64 70 0 
C 66 70 0 
C 68 70 0 
C 70 70 0 
C 72 70 0 
C 74 70 0 
C 76 70 0 
C 78 70 0 
C 80 70 0 
C 82 70 0 
C 84 70 0 
C 86 70 0 
C 88 70 0 
C 90 70 0 
C 92 70 0 
C 94 70 0 
C 96 70 0 
C 98 70 0 
C 100 70 0 
C 0 72 0 
C 2 72 0 
C 4 72 0 
C 6 72 0 
C 8 72 0 
C 10 72 0 
C 12 72 0 
C 14 72 0 
C 16 72 0 
C 18 72 0 
C 20 72 0 
C 22 72 0 
C 24 72 0 
C 26 72 0 
C 28 72 0 
C 30 72 0 
C 32 72 0 
C 34 72 0 
C 36 72 0 
C 38 72 0 
C 40 72 0 
C 42 72 0 
C 44 72 0 
C 46 72 0 
C 48 72 0 
C 50 72 0 
C 52 72 0 
C 54 72 0 
C 56 72 0 
C 58 72 0 
C 60 72 0 
C 62 72 0 
C 64 72 0 
C 66 72 0 
C 68 72 0 
C 70 72 0 
C 72 72 0 
C 74 72 0 
C 76 72 0 
C 78 72 0 
C 80 72 0 
C 82 72 0 
C 84 72 0 
C 86 72 0 
C 88 72 0 
C 90 72 0 
C 92 72 0 
C 94 72 0 
C 96 72 0 
C 98 72 0 
C 100 72 0 
C 0 74 0 
C 2 74 0 
C 4 74 0 
C 6 74 0 
C 8 74 0 
C 10 74 0 
C 12 74 0 
C 14 74 0 
C 16 74 0 
C 18 74 0 
C 20 74 0 
C 22 74 0 
C 24 74 0 
C 26 74 0 
C 28 74 0 
C 30 74 0 
C 32 74 0 
C 34 74 0 
C 36 74 0 
C 38 74 0 
C 40 74 0 
C 42 74 0 
C 44 74 0 
C 46 74 0 
C 48 74 0 
C 50 74 0 
C 52 74 0 
C 54 74 0 
C 56 74 0 
C 58 74 0 
C 60 74 0 
C 62 74 0 
C 64 74 0 
C 66 74 0 
C 68 74 0 
C 70 74 0 
C 72 74 0 
C 74 74 0 
C 76 74 0 
C 78 74 0 
C 80 74 0 
C 82 74 0 
C 84 74 0 
C 86 74 0 
C 88 74 0 
C 90 74 0 
C 92 74 0 
C 94 74 0 
C 96 74 0 
C 98 74 0 
C 100 74 0 
C 0 76 0 
C 2 76 0 
C 4 76 0 
C 6 76 0 
C 8 76 0 
C 10 76 0 
C 12 76 0 
C 14 76 0 
C 16 76 0 
C 18 76 0 
C 20 76 0 
C 22 76 0 
C 24 76 0 
C 26 76 0 
C 28 76 0 
C 30 76 0 
C 32 76 0 
C 34 76 0 
C 36 76 0 
C 38 76 0 
C 40 76 0 
C 42 76 0 
C 44 76 0 
C 46 76 0 
C 48 76 0 
C 50 76 0 
C 52 76 0 
C 54 76 0 
C 56 76 0 
C 58 76 0 
C 60 76 0 
C 62 76 0 
C 64 76 0 
C 66 76 0 
C 68 76 0 
C 70 76 0 
C 72 76 0 
C 74 76 0 
C 76 76 0 
C 78 76 0 
C 80 76 0 
C 82 76 0 
C 84 76 0 
C 86 76 0 
C 88 76 0 
C 90 76 0 
C 92 76 0 
C 94 76 0 
C 96 76 0 
C 98 76 0 
C 100 76 0 
C 0 78 0 
C 2 78 0 
C 4 78 0 
C 6 78 0 
C 8 78 0 
C 10 78 0 
C 12 78 0 
C 14 78 0 
C 16 78 0 
C 18 78 0 
C 20 78 0 
C 22 78 0 
C 24 78 0 
C 26 78 0 
C 28 78 0 
C 30 78 0 
C 32 78 0 
C 34 78 0 
C 36 78 0 
C 38 78 0 
C 40 78 0 
C 42 78 0 
C 44 78 0 
C 46 78 0 
C 48 78 0 
C 50 78 0 
C 52 78 0 
C 54 78 0 
C 56 78 0 
C 58 78 0 
C 60 78 0 
C 62 78 0 
C 64 78 0 
C 66 78 0 
C 68 78 0 
C 70 78 0 
C 72 78 0 
C 74 78 0 
C 76 78 0 
C 78 78 0 
C 80 78 0 
C 82 78 0 
C 84 78 0 
C 86 78 0 
C 88 78 0 
C 90 78 0 
C 92 78 0 
C 94 78 0 
C 96 78 0 
C 98 78 0 
C 100 78 0 
C 0 80 0 
C 2 80 0 
C 4 80 0 
C 6 80 0 
C 8 80 0 
C 10 80 0 
C 12 80 0 
C 14 80 0 
C 16 80 0 
C 18 80 0 
C 20 80 0 
C 22 80 0 
C 24 80 0 
C 26 80 0 
C 28 80 0 
C 30 80 0 
C 32 80 0 
C 34 80 0 
C 36 80 0 
C 38 80 0 
C 40 80 0 
C 42 80 0 
C 44 80 0 
C 46 80 0 
C 48 80 0 
C 50 80 0 
C 52 80 0 
C 54 80 0 
C 56 80 0 
C 58 80 0 
C 60 80 0 
C 62 80 0 
C 64 80 0 
C 66 80 0 
C 68 80 0 
C 70 80 0 
C 72 80 0 
C 74 80 0 
C 76 80 0 
C 78 80 0 
C 80 80 0 
C 82 80 0 
C 84 80 0 
C 86 80 0 
C 88 80 0 
C 90 80 0 
C 92 80 0 
C 94 80 0 
C 96 80 0 
C 98 80 0 
C 100 80 0 
C 0 82 0 
C 2 82 0 
C 4 82 0 
C 6 82 0 
C 8 82 0 
C 10 82 0 
C 12 82 0 
C 14 82 0 
C 16 82 0 
C 18 82 0 
C 20 82 0 
C 22 82 0 
C 24 82 0 
C 26 82 0 
C 28 82 0 
C 30 82 0 
C 32 82 0 
C 34 82 0 
C 36 82 0 
C 38 82 0 
C 40 82 0 
C 42 82 0 
C 44 82 0 
C 46 82 0 
C 48 82 0 
C 50 82 0 
C 52 82 0 
C 54 82 0 
C 56 82 0 
C 58 82 0 
C 60 82 0 
C 62 82 0 
C 64 82 0 
C 66 82 0 
C 68 82 0 
C 70 82 0 
C 72 82 0 
C 74 82 0 
C 76 82 0 
C 78 82 0 
C 80 82 0 
C 82 82 0 
C 84 82 0 
C 86 82 0 
C 88 82 0 
C 90 82 0 
C 92 82 0 
C 94 82 0 
C 96 82 0 
C 98 82 0 
C 100 82 0 
C 0 84 0 
C 2 84 0 
C 4 84 0 
C 6 84 0 
C 8 84 0 
C 10 84 0 
C 12 84 0 
C 14 84 0 
C 16 84 0 
C 18 84 0 
C 20 84 0 
C 22 84 0 
C 24 84 0 
C 26 84 0 
C 28 84 0 
C 30 84 0 
C 32 84 0 
C 34 84 0 
C 36 84 0 
C 38 84 0 
C 40 84 0 
C 42 84 0 
C 44 84 0 
C 46 84 0 
C 48 84 0 
C 50 84 0 
C 52 84 0 
C 54 84 0 
C 56 84 0 
C 58 84 0 
C 60 84 0 
C 62 84 0 
C 64 84 0 
C 66 84 0 
C 68 84 0 
C 70 84 0 
C 72 84 0 
C 74 84 0 
C 76 84 0 
C 78 84 0 
C 80 84 0 
C 82 84 0 
C 84 84 0 
C 86 84 0 
C 88 84 0 
C 90 84 0 
C 92 84 0 
C 94 84 0 
C 96 84 0 
C 98 84 0 
C 100 84 0 
C 0 86 0 
C 2 86 0 
C 4 86 0 
C 6 86 0 
C 8 86 0 
C 10 86 0 
C 12 86 0 
C 14 86 0 
C 16 86 0 
C 18 86 0 
C 20 86 0 
C 22 86 0 
C 24 86 0 
C 26 86 0 
C 28 86 0 
C 30 86 0 
C 32 86 0 
C 34 86 0 
C 36 86 0 
C 38 86 0 
C 40 86 0 
C 42 86 0 
C 44 86 0 
C 46 86 0 
C 48 86 0 
C 50 86 0 
C 52 86 0 
C 54 86 0 
C 56 86 0 
C 58 86 0 
C 60 86 0 
C 62 86 0 
C 64 86 0 
C 66 86 0 
C 68 86 0 
C 70 86 0 
C 72 86 0 
C 74 86 0 
C 76 86 0 
C 78 86 0 
C 80 86 0 
C 82 86 0 
C 84 86 0 
C 86 86 0 
C 88 86 0 
C 90 86 0 
C 92 86 0 
C 94 86 0 
C 96 86 0 
C 98 86 0 
C 100 86 0 
C 0 88 0 
C 2 88 0 
C 4 88 0 
C 6 88 0 
C 8 88 0 
C 10 88 0 
C 12 88 0 
C 14 88 0 
C 16 88 0 
C 18 88 0 
C 20 88 0 
C 22 88 0 
C 24 88 0 
C 26 88 0 
C 28 88 0 
C 30 88 0 
C 32 88 0 
C 34 88 0 
C 36 88 0 
C 38 88 0 
C 40 88 0 
C 42 88 0 
C 44 88 0 
C 46 88 0 
C 48 88 0 
C 50 88 0 
C 52 88 0 
C 54 88 0 
C 56 88 0 
C 58 88 0 
C 60 88 0 
C 62 88 0 
C 64 88 0 
C 66 88 0 
C 68 88 0 
C 70 88 0 
C 72 88 0 
C 74 88 0 
C 76 88 0 
C 78 88 0 
C 80 88 0 
C 82 88 0 
C 84 88 0 
C 86 88 0 
C 88 88 0 
C 90 88 0 
C 92 88 0 
C 94 88 0 
C 96 88 0 
C 98 88 0 
C 100 88 0 
C 0 90 0 
C 2 90 0 
C 4 90 0 
C 6 90 0 
C 8 90 0 
C 10 90 0 
C 12 90 0 
C 14 90 0 
C 16 90 0 
C 18 90 0 
C 20 90 0 
C 22 90 0 
C 24 90 0 
C 26 90 0 
C 28 90 0 
C 30 90 0 
C 32 90 0 
C 34 90 0 
C 36 90 0 
C 38 90 0 
C 40 90 0 
C 42 90 0 
C 44 90 0 
C 46 90 0 
C 48 90 0 
C 50 90 0 
C 52 90 0 
C 54 90 0 
C 56 90 0 
C 58 90 0 
C 60 90 0 
C 62 90 0 
C 64 90 0 
C 66 90 0 
C 68 90 0 
C 70 90 0 
C 72 90 0 
C 74 90 0 
C 76 90 0 
C 78 90 0 
C 80 90 0 
C 82 90 0 
C 84 90 0 
C 86 90 0 
C 88 90 0 
C 90 90 0 
C 92 90 0 
C 94 90 0 
C 96 90 0 
C 98 90 0 
C 100 90 0 
C 0 92 0 
C 2 92 0 
C 4 92 0 
C 6 92 0 
C 8 92 0 
C 10 92 0 
C 12 92 0 
C 14 92 0 
C 16 92 0 
C 18 92 0 
C 20 92 0 
C 22 92 0 
C 24 92 0 
C 26 92 0 
C 28 92 0 
C 30 92 0 
C 32 92 0 
C 34 92 0 
C 36 92 0 
C 38 92 0 
C 40 92 0 
C 42 92 0 
C 44 92 0 
C 46 92 0 
C 48 92 0 
C 50 92 0 
C 52 92 0 
C 54 92 0 
C 56 92 0 
C 58 92 0 
C 60 92 0 
C 62 92 0 
C 64 92 0 
C 66 92 0 
C 68 92 0 
C 70 92 0 
C 72 92 0 
C 74 92 0 
C 76 92 0 
C 78 92 0 
C 80 92 0 
C 82 92 0 
C 84 92 0 
C 86 92 0 
C 88 92 0 
C 90 92 0 
C 92 92 0 
C 94 92 0 
C 96 92 0 
C 98 92 0 
C 100 92 0 
C 0 94 0 
C 2 94 0 
C 4 94 0 
C 6 94 0 
C 8 94 0 
C 10 94 0 
C 12 94 0 
C 14 94 0 
C 16 94 0 
C 18 94 0 
C 20 94 0 
C 22 94 0 
C 24 94 0 
C 26 94 0 
C 28 94 0 
C 30 94 0 
C 32 94 0 
C 34 94 0 
C 36 94 0 
C 38 94 0 
C 40 94 0 
C 42 94 0 
C 44 94 0 
C 46 94 0 
C 48 94 0 
C 50 94 0 
C 52 94 0 
C 54 94 0 
C 56 94 0 
C 58 94 0 
C 60 94 0 
C 62 94 0 
C 64 94 0 
C 66 94 0 
C 68 94 0 
C 70 94 0 
C 72 94 0 
C 74 94 0 
C 76 94 0 
C 78 94 0 
C 80 94 0 
C 82 94 0 
C 84 94 0 
C 86 94 0 
C 88 94 0 
C 90 94 0 
C 92 94 0 
C 94 94 0 
C 96 94 0 
C 98 94 0 
C 100 94 0 
C 0 96 0 
C 2 96 0 
C 4 96 0 
C 6 96 0 
C 8 96 0 
C 10 96 0 
C 12 96 0 
C 14 96 0 
C 16 96 0 
C 18 96 0 
C 20 96 0 
C 22 96 0 
C 24 96 0 
C 26 96 0 
C 28 96 0 
C 30 96 0 
C 32 96 0 
C 34 96 0 
C 36 96 0 
C 38 96 0 
C 40 96 0 
C 42 96 0 
C 44 96 0 
C 46 96 0 
C 48 96 0 
C 50 96 0 
C 52 96 0 
C 54 96 0 
C 56 96 0 
C 58 96 0 
C 60 96 0 
C 62 96 0 
C 64 96 0 
C 66 96 0 
C 68 96 0 
C 70 96 0 
C 72 96 0 
C 74 96 0 
C 76 96 0 
C 78 96 0 
C 80 96 0 
C 82 96 0 
C 84 96 0 
C 86 96 0 
C 88 96 0 
C 90 96 0 
C 92 96 0 
C 94 96 0 
C 96 96 0 
C 98 96 0 
C 100 96 0 
C 0 98 0 
C 2 98 0 
C 4 98 0 
C 6 98 0 
C 8 98 0 
C 10 98 0 
C 12 98 0 
C 14 98 0 
C 16 98 0 
C 18 98 0 
C 20 98 0 
C 22 98 0 
C 24 98 0 
C 26 98 0 
C 28 98 0 
C 30 98 0 
C 32 98 0 
C 34 98 0 
C 36 98 0 
C 38 98 0 
C 40 98 0 
C 42 98 0 
C 44 98 0 
C 46 98 0 
C 48 98 0 
C 50 98 0 
C 52 98 0 
C 54 98 0 
C 56 98 0 
C 58 98 0 
C 60 98 0 
C 62 98 0 
C 64 98 0 
C 66 98 0 
C 68 98 0 
C 70 98 0 
C 72 98 0 
C 74 98 0 
C 76 98 0 
C 78 98 0 
C 80 98 0 
C 82 98 0 
C 84 98 0 
C 86 98 0 
C 88 98 0 
C 90 98 0 
C 92 98 0 
C 94 98 0 
C 96 98 0 
C 98 98 0 
C 100 98 0 
C 0 100 0 
C 2 100 0 
C 4 100 0 
C 6 100 0 
C 8 100 0 
C 10 100 0 
C 12 100 0 
C 14 100 0 
C 16 100 0 
C 18 100 0 
C 20 100 0 
C 22 100 0 
C 24 100 0 
C 26 100 0 
C 28 100 0 
C 30 100 0 
C 32 100 0 
C 34 100 0 
C 36 100 0 
C 38 100 0 
C 40 100 0 
C 42 100 0 
C 44 100 0 
C 46 100 0 
C 48 100 0 
C 50 100 0 
C 52 100 0 
C 54 100 0 
C 56 100 0 
C 58 100 0 
C 60 100 0 
C 62 100 0 
C 64 100 0 
C 66 100 0 
C 68 100 0 
C 70 100 0 
C 72 100 0 
C 74 100 0 
C 76 100 0 
C 78 100 0 
C 80 100 0 
C 82 100 0 
C 84 100 0 
C 86 100 0 
C 88 100 0 
C 90 100 0 
C 92 100 0 
C 94 100 0 
C 96 100 0 
C 98 100 0 
C 100 100 0 
