705
Atoms. Timestep: 1
N 92 18 0 
N 23 56 0 
N 16 71 0 
N 53 96 0 
N 36 19 0 
N 62 22 0 
N 86 64 0 
N 5 51 0 
N 9 51 0 
N 51 29 0 
N 88 69 0 
N 15 3 0 
N 62 30 0 
N 61 8 0 
N 95 88 0 
N 80 81 0 
N 54 85 0 
N 54 62 0 
N 34 37 0 
N 37 71 0 
N 7 89 0 
N 9 84 0 
N 4 12 0 
N 12 81 0 
N 86 26 0 
N 16 36 0 
N 92 83 0 
N 62 47 0 
N 74 95 0 
N 88 27 0 
N 78 12 0 
N 50 13 0 
N 22 29 0 
N 38 83 0 
N 52 74 0 
N 61 95 0 
N 15 89 0 
N 93 8 0 
N 91 62 0 
N 59 97 0 
N 84 95 0 
N 1 39 0 
N 69 20 0 
N 33 49 0 
N 9 98 0 
N 75 29 0 
N 64 16 0 
N 34 3 0 
N 25 63 0 
N 99 46 0 
N 30 19 0 
N 80 54 0 
N 93 69 0 
N 23 0 0 
N 64 5 0 
N 62 86 0 
N 97 3 0 
N 49 13 0 
N 76 13 0 
N 27 98 0 
N 7 50 0 
N 91 27 0 
N 28 63 0 
N 55 47 0 
N 62 21 0 
N 41 46 0 
N 61 77 0 
N 51 39 0 
N 92 77 0 
N 30 15 0 
N 37 22 0 
N 56 24 0 
N 37 39 0 
N 8 22 0 
N 24 33 0 
N 97 75 0 
N 14 80 0 
N 79 92 0 
N 53 67 0 
N 85 7 0 
N 3 20 0 
N 69 69 0 
N 99 61 0 
N 71 97 0 
N 8 34 0 
N 76 82 0 
N 67 11 0 
N 7 58 0 
N 74 60 0 
N 85 31 0 
N 41 20 0 
N 63 33 0 
N 42 20 0 
N 7 95 0 
N 2 45 0 
N 16 76 0 
N 39 81 0 
N 31 25 0 
N 55 86 0 
N 9 35 0 
N 27 51 0 
N 71 9 0 
N 63 46 0 
N 52 65 0 
N 72 69 0 
N 93 21 0 
N 77 95 0 
N 91 41 0 
N 2 36 0 
N 7 25 0 
N 32 97 0 
N 36 68 0 
N 2 53 0 
N 2 76 0 
N 78 49 0 
N 23 28 0 
N 84 51 0 
N 13 86 0 
N 31 4 0 
N 84 83 0 
N 7 80 0 
N 61 80 0 
N 95 94 0 
N 18 18 0 
N 89 61 0 
N 91 7 0 
N 68 4 0 
N 68 54 0 
N 15 58 0 
N 97 15 0 
N 34 63 0 
N 61 65 0 
N 14 34 0 
N 46 64 0 
N 62 94 0 
N 49 41 0 
N 93 11 0 
N 92 98 0 
N 53 92 0 
N 70 63 0 
N 66 48 0 
N 28 91 0 
N 21 75 0 
N 26 45 0 
N 37 46 0 
N 76 62 0 
N 16 77 0 
N 36 65 0 
N 81 13 0 
N 44 66 0 
N 46 48 0 
N 17 56 0 
N 3 75 0 
N 45 26 0 
N 71 93 0 
N 21 98 0 
N 1 52 0 
N 34 31 0 
N 59 79 0 
N 47 27 0 
N 58 58 0 
N 11 68 0 
N 15 30 0 
N 77 7 0 
N 4 74 0 
N 5 8 0 
N 30 14 0 
N 93 83 0 
N 1 84 0 
N 69 40 0 
N 11 42 0 
N 27 92 0 
N 12 39 0 
N 67 94 0 
N 19 11 0 
N 14 78 0 
N 31 55 0 
N 40 25 0 
N 84 41 0 
N 98 42 0 
N 86 21 0 
N 13 43 0 
N 74 78 0 
N 76 2 0 
N 57 5 0 
N 77 16 0 
N 81 87 0 
N 49 93 0 
N 57 96 0 
N 66 41 0 
N 99 49 0 
N 43 57 0 
N 99 78 0 
N 61 88 0 
N 95 37 0 
N 87 71 0 
N 24 35 0 
N 11 96 0 
N 52 70 0 
N 90 29 0 
N 20 82 0 
N 14 57 0 
N 98 83 0 
N 50 65 0 
N 2 68 0 
N 19 92 0 
N 5 3 0 
N 15 39 0 
N 83 34 0 
N 89 39 0 
N 42 56 0 
N 91 39 0 
N 57 78 0 
N 50 63 0 
N 20 5 0 
N 36 88 0 
N 37 79 0 
N 46 97 0 
N 70 13 0 
N 89 87 0 
N 98 21 0 
N 38 31 0 
N 17 68 0 
N 6 49 0 
N 47 68 0 
N 56 43 0 
N 9 97 0 
N 78 34 0 
N 24 38 0 
N 25 88 0 
N 18 14 0 
N 70 26 0 
N 43 89 0 
N 92 63 0 
N 50 2 0 
N 81 77 0 
N 48 69 0 
N 81 85 0 
N 70 33 0 
N 19 6 0 
N 83 57 0 
N 48 54 0 
N 1 71 0 
N 5 65 0 
N 99 52 0 
N 67 79 0 
N 74 11 0 
N 89 70 0 
N 23 17 0 
N 98 33 0 
N 35 96 0 
N 17 73 0 
N 1 92 0 
N 67 62 0 
N 19 83 0 
N 57 67 0 
N 96 21 0 
N 65 75 0 
N 94 22 0 
N 48 36 0 
N 34 93 0 
N 98 35 0 
N 79 6 0 
N 60 88 0 
N 65 30 0 
N 47 97 0 
N 60 6 0 
N 34 66 0 
N 43 86 0 
N 70 29 0 
N 60 42 0 
N 93 85 0 
N 94 59 0 
N 23 61 0 
N 25 64 0 
N 25 34 0 
N 16 7 0 
N 96 22 0 
N 29 20 0 
N 12 75 0 
N 61 72 0 
N 57 65 0 
N 91 81 0 
N 24 88 0 
N 1 59 0 
N 89 25 0 
N 98 71 0 
N 57 29 0 
N 25 46 0 
N 99 80 0 
N 76 36 0 
N 91 51 0 
N 79 25 0 
N 98 74 0 
N 85 81 0 
N 58 48 0 
N 40 22 0 
N 87 76 0 
N 65 55 0 
N 80 55 0 
N 25 33 0 
N 68 81 0 
N 6 38 0 
N 27 10 0 
N 73 57 0 
N 25 98 0 
N 19 69 0 
N 91 52 0 
N 10 26 0 
N 53 49 0 
N 23 3 0 
N 29 13 0 
N 23 65 0 
N 19 65 0 
N 13 13 0 
N 81 93 0 
N 36 83 0 
N 52 61 0 
N 40 84 0 
N 23 25 0 
N 17 33 0 
N 18 27 0 
N 81 42 0 
N 33 38 0 
N 97 52 0 
N 59 37 0 
N 54 23 0 
N 15 81 0 
N 14 62 0 
N 29 10 0 
N 1 33 0 
N 76 33 0 
N 99 47 0 
N 11 30 0 
N 40 78 0 
N 52 33 0 
N 97 89 0 
N 55 39 0 
N 72 46 0 
N 86 72 0 
N 51 72 0 
N 56 45 0 
N 94 98 0 
N 18 9 0 
N 39 89 0 
N 9 1 0 
N 25 48 0 
N 40 48 0 
N 57 55 0 
N 88 35 0 
N 4 28 0 
N 30 39 0 
N 51 65 0 
N 16 19 0 
N 6 33 0 
N 60 71 0 
N 15 13 0 
N 72 7 0 
N 35 71 0 
N 69 22 0 
N 27 79 0 
N 65 17 0 
N 84 88 0 
N 43 45 0 
N 92 9 0 
N 92 1 0 
N 52 5 0 
N 39 56 0 
N 68 53 0 
N 38 20 0 
N 61 86 0 
N 28 79 0 
N 62 5 0 
N 44 2 0 
N 28 80 0 
N 41 45 0 
N 89 16 0 
N 18 67 0 
N 20 41 0 
N 15 32 0 
N 88 44 0 
N 78 94 0 
N 93 6 0 
N 3 58 0 
N 27 84 0 
N 15 97 0 
N 50 54 0 
N 59 8 0 
N 24 65 0 
N 69 75 0 
N 5 46 0 
N 72 0 0 
N 49 30 0 
N 21 90 0 
N 27 42 0 
N 96 74 0 
N 31 2 0 
N 72 51 0 
N 35 49 0 
N 90 97 0 
N 43 99 0 
N 73 10 0 
N 11 31 0 
N 30 85 0 
N 35 98 0 
N 36 77 0 
N 29 9 0 
N 69 37 0 
N 1 6 0 
N 50 18 0 
N 3 84 0 
N 73 77 0 
N 49 72 0 
N 16 73 0 
N 5 16 0 
N 91 50 0 
N 27 69 0 
N 63 74 0 
N 36 8 0 
N 68 0 0 
N 65 23 0 
N 98 2 0 
N 53 87 0 
N 12 44 0 
N 58 73 0 
N 48 35 0 
N 86 1 0 
N 91 43 0 
N 67 18 0 
N 92 50 0 
N 46 32 0 
N 16 99 0 
N 12 94 0 
N 69 6 0 
N 82 1 0 
N 83 63 0 
N 37 34 0 
N 25 37 0 
N 1 88 0 
N 55 2 0 
N 82 37 0 
N 10 16 0 
N 16 96 0 
N 94 4 0 
N 50 92 0 
N 91 88 0 
N 80 92 0 
N 60 86 0 
N 77 27 0 
N 63 81 0 
N 16 53 0 
N 80 23 0 
N 67 56 0 
N 77 18 0 
N 97 59 0 
N 80 43 0 
N 18 61 0 
N 18 22 0 
N 52 27 0 
N 49 36 0 
N 14 87 0 
N 36 3 0 
N 24 93 0 
N 46 56 0 
N 79 22 0 
N 62 36 0 
N 32 87 0 
N 87 56 0 
N 38 77 0 
N 58 81 0 
N 35 33 0 
N 67 2 0 
N 33 37 0 
N 2 41 0 
N 75 15 0 
N 69 26 0 
N 52 44 0 
N 93 40 0 
N 99 44 0 
N 64 73 0 
N 25 81 0 
N 68 8 0 
N 47 6 0 
N 37 80 0 
N 62 24 0 
N 31 67 0 
N 42 6 0 
N 45 96 0 
N 54 49 0 
N 95 12 0 
N 59 62 0 
N 57 27 0 
N 76 92 0 
N 15 34 0 
N 29 5 0 
N 56 53 0 
N 13 42 0 
N 6 85 0 
N 41 7 0 
N 33 75 0 
C 0 0 0 
C 10 0 0 
C 20 0 0 
C 30 0 0 
C 40 0 0 
C 50 0 0 
C 60 0 0 
C 70 0 0 
C 80 0 0 
C 90 0 0 
C 100 0 0 
C 0 10 0 
C 10 10 0 
C 20 10 0 
C 30 10 0 
C 40 10 0 
C 50 10 0 
C 60 10 0 
C 70 10 0 
C 80 10 0 
C 90 10 0 
C 100 10 0 
C 0 20 0 
C 10 20 0 
C 20 20 0 
C 30 20 0 
C 40 20 0 
C 50 20 0 
C 60 20 0 
C 70 20 0 
C 80 20 0 
C 90 20 0 
C 100 20 0 
C 0 30 0 
C 10 30 0 
C 20 30 0 
C 30 30 0 
C 40 30 0 
C 50 30 0 
C 60 30 0 
C 70 30 0 
C 80 30 0 
C 90 30 0 
C 100 30 0 
C 0 40 0 
C 10 40 0 
C 20 40 0 
C 30 40 0 
C 40 40 0 
C 50 40 0 
C 60 40 0 
C 70 40 0 
C 80 40 0 
C 90 40 0 
C 100 40 0 
C 0 50 0 
C 10 50 0 
C 20 50 0 
C 30 50 0 
C 40 50 0 
C 50 50 0 
C 60 50 0 
C 70 50 0 
C 80 50 0 
C 90 50 0 
C 100 50 0 
C 0 60 0 
C 10 60 0 
C 20 60 0 
C 30 60 0 
C 40 60 0 
C 50 60 0 
C 60 60 0 
C 70 60 0 
C 80 60 0 
C 90 60 0 
C 100 60 0 
C 0 70 0 
C 10 70 0 
C 20 70 0 
C 30 70 0 
C 40 70 0 
C 50 70 0 
C 60 70 0 
C 70 70 0 
C 80 70 0 
C 90 70 0 
C 100 70 0 
C 0 80 0 
C 10 80 0 
C 20 80 0 
C 30 80 0 
C 40 80 0 
C 50 80 0 
C 60 80 0 
C 70 80 0 
C 80 80 0 
C 90 80 0 
C 100 80 0 
C 0 90 0 
C 10 90 0 
C 20 90 0 
C 30 90 0 
C 40 90 0 
C 50 90 0 
C 60 90 0 
C 70 90 0 
C 80 90 0 
C 90 90 0 
C 100 90 0 
C 0 100 0 
C 10 100 0 
C 20 100 0 
C 30 100 0 
C 40 100 0 
C 50 100 0 
C 60 100 0 
C 70 100 0 
C 80 100 0 
C 90 100 0 
C 100 100 0 
O 30 65 0 
O 78 61 0 
O 58 52 0 
O 56 25 0 
O 65 54 0 
O 35 21 0 
O 81 41 0 
O 13 31 0 
O 99 36 0 
O 86 98 0 
O 60 77 0 
O 59 88 0 
O 74 26 0 
O 3 31 0 
O 52 2 0 
O 81 89 0 
O 2 64 0 
O 35 20 0 
O 1 49 0 
O 30 61 0 
O 17 81 0 
O 79 35 0 
O 35 65 0 
O 83 71 0 
O 87 48 0 
O 72 8 0 
O 61 5 0 
O 94 7 0 
O 71 94 0 
O 99 72 0 
O 9 43 0 
O 96 7 0 
O 56 49 0 
O 25 35 0 
O 68 46 0 
O 92 40 0 
O 92 76 0 
O 90 34 0 
O 13 85 0 
O 34 33 0 
O 91 67 0 
O 80 12 0 
O 86 35 0 
O 41 49 0 
O 16 60 0 
O 77 24 0 
O 5 22 0 
O 4 9 0 
O 21 84 0 
O 32 23 0 
O 82 14 0 
O 33 66 0 
O 66 52 0 
O 93 53 0 
O 83 47 0 
O 0 8 0 
O 56 86 0 
O 83 68 0 
O 63 99 0 
O 87 12 0 
O 13 63 0 
O 30 4 0 
O 73 48 0 
O 79 66 0 
O 23 27 0 
O 45 86 0 
O 51 12 0 
O 73 79 0 
O 73 80 0 
O 62 78 0 
O 5 34 0 
O 17 24 0 
O 91 78 0 
O 99 30 0 
O 67 29 0 
O 36 57 0 
O 95 63 0 
O 75 67 0 
O 4 2 0 
O 61 35 0 
O 16 33 0 
O 19 90 0 
O 26 62 0 
O 11 12 0 
686
Atoms. Timestep: 2
N 92 17 0 
N 23 57 0 
N 16 72 0 
N 52 96 0 
N 35 19 0 
N 63 22 0 
N 85 64 0 
N 5 50 0 
N 9 50 0 
N 52 29 0 
N 88 68 0 
N 15 2 0 
N 62 29 0 
N 62 8 0 
N 94 88 0 
N 79 81 0 
N 54 86 0 
N 54 61 0 
N 33 37 0 
N 36 71 0 
N 8 89 0 
N 10 84 0 
N 4 11 0 
N 13 81 0 
N 86 27 0 
N 16 35 0 
N 92 82 0 
N 63 47 0 
N 75 95 0 
N 89 27 0 
N 79 12 0 
N 51 13 0 
N 22 28 0 
N 38 84 0 
N 52 75 0 
N 62 95 0 
N 16 89 0 
N 94 8 0 
N 91 63 0 
N 59 98 0 
N 83 95 0 
N 2 39 0 
N 69 21 0 
N 34 49 0 
N 9 97 0 
N 75 28 0 
N 64 17 0 
N 34 4 0 
N 25 62 0 
N 99 47 0 
N 31 19 0 
N 79 54 0 
N 92 69 0 
N 23 1 0 
N 64 6 0 
N 62 85 0 
N 97 4 0 
N 49 12 0 
N 77 13 0 
N 27 97 0 
N 6 50 0 
N 90 27 0 
N 27 63 0 
N 55 48 0 
N 63 21 0 
N 41 47 0 
N 60 77 0 
N 51 38 0 
N 92 76 0 
N 30 16 0 
N 36 22 0 
N 56 25 0 
N 38 39 0 
N 7 22 0 
N 23 33 0 
N 97 74 0 
N 14 81 0 
N 79 91 0 
N 54 67 0 
N 86 7 0 
N 4 20 0 
N 70 69 0 
N 99 62 0 
N 71 98 0 
N 7 34 0 
N 75 82 0 
N 67 12 0 
N 7 59 0 
N 75 60 0 
N 86 31 0 
N 41 20 0 
N 62 33 0 
N 42 20 0 
N 6 95 0 
N 1 45 0 
N 16 77 0 
N 39 82 0 
N 31 24 0 
N 56 86 0 
N 9 34 0 
N 27 52 0 
N 72 9 0 
N 64 46 0 
N 53 65 0 
N 72 68 0 
N 92 21 0 
N 78 95 0 
N 90 41 0 
N 3 36 0 
N 7 24 0 
N 31 97 0 
N 36 67 0 
N 2 52 0 
N 2 75 0 
N 77 49 0 
N 23 27 0 
N 84 50 0 
N 13 85 0 
N 30 4 0 
N 83 83 0 
N 7 81 0 
N 61 79 0 
N 94 94 0 
N 18 19 0 
N 90 61 0 
N 92 7 0 
N 67 4 0 
N 67 54 0 
N 16 58 0 
N 98 15 0 
N 34 64 0 
N 61 66 0 
N 14 33 0 
N 46 65 0 
N 63 94 0 
N 50 41 0 
N 93 10 0 
N 91 98 0 
N 54 92 0 
N 71 63 0 
N 66 47 0 
N 28 90 0 
N 21 76 0 
N 26 46 0 
N 38 46 0 
N 77 62 0 
N 17 77 0 
N 35 65 0 
N 80 13 0 
N 44 65 0 
N 46 49 0 
N 17 57 0 
N 4 75 0 
N 45 25 0 
N 71 94 0 
N 21 97 0 
N 1 51 0 
N 34 30 0 
N 59 78 0 
N 47 26 0 
N 58 57 0 
N 12 68 0 
N 15 31 0 
N 78 7 0 
N 5 74 0 
N 5 9 0 
N 30 14 0 
N 93 82 0 
N 2 84 0 
N 69 41 0 
N 10 42 0 
N 27 91 0 
N 11 39 0 
N 68 94 0 
N 18 11 0 
N 14 79 0 
N 30 55 0 
N 39 25 0 
N 84 42 0 
N 98 41 0 
N 86 20 0 
N 13 43 0 
N 74 79 0 
N 76 3 0 
N 56 5 0 
N 78 16 0 
N 81 88 0 
N 48 93 0 
N 57 97 0 
N 67 41 0 
N 98 49 0 
N 42 57 0 
N 98 78 0 
N 61 87 0 
N 95 36 0 
N 87 71 0 
N 24 34 0 
N 12 96 0 
N 52 71 0 
N 90 29 0 
N 21 82 0 
N 15 57 0 
N 99 83 0 
N 49 65 0 
N 2 67 0 
N 19 91 0 
N 5 2 0 
N 14 39 0 
N 84 34 0 
N 89 38 0 
N 41 56 0 
N 90 39 0 
N 58 78 0 
N 50 64 0 
N 20 4 0 
N 36 87 0 
N 38 79 0 
N 46 96 0 
N 71 13 0 
N 89 88 0 
N 98 22 0 
N 37 31 0 
N 16 68 0 
N 5 49 0 
N 46 68 0 
N 56 44 0 
N 8 97 0 
N 78 35 0 
N 24 37 0 
N 25 87 0 
N 17 14 0 
N 71 26 0 
N 44 89 0 
N 93 63 0 
N 51 2 0 
N 81 76 0 
N 48 68 0 
N 81 86 0 
N 70 32 0 
N 19 5 0 
N 83 58 0 
N 49 54 0 
N 2 71 0 
N 5 64 0 
N 99 51 0 
N 68 79 0 
N 75 11 0 
N 89 69 0 
N 23 18 0 
N 98 34 0 
N 35 95 0 
N 17 74 0 
N 1 91 0 
N 68 62 0 
N 20 83 0 
N 58 67 0 
N 95 21 0 
N 64 75 0 
N 93 22 0 
N 49 36 0 
N 34 92 0 
N 98 36 0 
N 79 7 0 
N 59 88 0 
N 65 29 0 
N 47 96 0 
N 61 6 0 
N 33 66 0 
N 44 86 0 
N 69 29 0 
N 60 41 0 
N 92 85 0 
N 94 60 0 
N 24 61 0 
N 26 64 0 
N 25 35 0 
N 15 7 0 
N 95 22 0 
N 29 20 0 
N 12 76 0 
N 61 73 0 
N 57 64 0 
N 91 80 0 
N 24 87 0 
N 1 60 0 
N 89 26 0 
N 99 71 0 
N 56 29 0 
N 25 45 0 
N 99 79 0 
N 75 36 0 
N 91 52 0 
N 79 24 0 
N 99 74 0 
N 86 81 0 
N 58 49 0 
N 40 21 0 
N 88 76 0 
N 65 54 0 
N 79 55 0 
N 25 33 0 
N 68 80 0 
N 6 37 0 
N 28 10 0 
N 74 57 0 
N 25 97 0 
N 18 69 0 
N 92 52 0 
N 10 27 0 
N 54 49 0 
N 24 3 0 
N 30 13 0 
N 23 64 0 
N 18 65 0 
N 13 12 0 
N 80 93 0 
N 37 83 0 
N 52 60 0 
N 40 85 0 
N 23 26 0 
N 16 33 0 
N 17 27 0 
N 81 41 0 
N 32 38 0 
N 97 53 0 
N 59 36 0 
N 55 23 0 
N 16 81 0 
N 13 62 0 
N 29 9 0 
N 2 33 0 
N 77 33 0 
N 99 48 0 
N 11 31 0 
N 40 79 0 
N 52 34 0 
N 96 89 0 
N 55 38 0 
N 73 46 0 
N 86 71 0 
N 52 72 0 
N 56 46 0 
N 93 98 0 
N 17 9 0 
N 39 88 0 
N 8 1 0 
N 25 47 0 
N 41 48 0 
N 57 56 0 
N 87 35 0 
N 3 28 0 
N 30 38 0 
N 51 65 0 
N 16 20 0 
N 5 33 0 
N 60 72 0 
N 14 13 0 
N 72 8 0 
N 35 70 0 
N 70 22 0 
N 26 79 0 
N 65 18 0 
N 84 89 0 
N 43 46 0 
N 93 9 0 
N 92 2 0 
N 52 4 0 
N 39 57 0 
N 68 52 0 
N 37 20 0 
N 60 86 0 
N 28 80 0 
N 61 5 0 
N 45 2 0 
N 28 81 0 
N 41 45 0 
N 89 15 0 
N 17 67 0 
N 20 42 0 
N 15 33 0 
N 87 44 0 
N 77 94 0 
N 93 7 0 
N 3 59 0 
N 26 84 0 
N 16 97 0 
N 51 54 0 
N 60 8 0 
N 25 65 0 
N 69 76 0 
N 5 47 0 
N 72 1 0 
N 49 29 0 
N 21 90 0 
N 27 41 0 
N 96 73 0 
N 30 2 0 
N 72 50 0 
N 36 49 0 
N 89 97 0 
N 43 98 0 
N 72 10 0 
N 12 31 0 
N 29 85 0 
N 34 98 0 
N 36 76 0 
N 29 8 0 
N 68 37 0 
N 0 6 0 
N 51 18 0 
N 3 83 0 
N 73 78 0 
N 49 73 0 
N 16 74 0 
N 5 17 0 
N 92 50 0 
N 27 68 0 
N 62 74 0 
N 36 7 0 
N 68 1 0 
N 65 24 0 
N 97 2 0 
N 54 87 0 
N 12 43 0 
N 59 73 0 
N 48 35 0 
N 86 2 0 
N 90 43 0 
N 67 19 0 
N 92 51 0 
N 46 31 0 
N 17 99 0 
N 12 93 0 
N 69 7 0 
N 83 1 0 
N 83 64 0 
N 37 35 0 
N 25 36 0 
N 1 87 0 
N 54 2 0 
N 81 37 0 
N 11 16 0 
N 16 95 0 
N 94 5 0 
N 50 91 0 
N 91 87 0 
N 81 92 0 
N 60 87 0 
N 77 26 0 
N 63 82 0 
N 16 54 0 
N 80 24 0 
N 66 56 0 
N 77 19 0 
N 97 60 0 
N 80 42 0 
N 17 61 0 
N 18 23 0 
N 52 26 0 
N 49 35 0 
N 14 86 0 
N 35 3 0 
N 24 94 0 
N 46 57 0 
N 79 23 0 
N 62 35 0 
N 31 87 0 
N 87 55 0 
N 37 77 0 
N 58 80 0 
N 34 33 0 
N 67 3 0 
N 33 36 0 
N 3 41 0 
N 75 14 0 
N 69 26 0 
N 52 45 0 
N 92 40 0 
N 98 44 0 
N 64 74 0 
N 25 82 0 
N 69 8 0 
N 48 6 0 
N 38 80 0 
N 62 25 0 
N 31 66 0 
N 42 5 0 
N 45 95 0 
N 55 49 0 
N 94 12 0 
N 58 62 0 
N 57 26 0 
N 76 93 0 
N 16 34 0 
N 30 5 0 
N 56 54 0 
N 12 42 0 
N 7 85 0 
N 40 7 0 
N 33 74 0 
C 0 0 0 
C 10 0 0 
C 20 0 0 
C 30 0 0 
C 40 0 0 
C 50 0 0 
C 60 0 0 
C 70 0 0 
C 80 0 0 
C 90 0 0 
C 100 0 0 
C 0 10 0 
C 10 10 0 
C 20 10 0 
C 30 10 0 
C 40 10 0 
C 50 10 0 
C 60 10 0 
C 70 10 0 
C 80 10 0 
C 90 10 0 
C 100 10 0 
C 0 20 0 
C 10 20 0 
C 20 20 0 
C 30 20 0 
C 40 20 0 
C 50 20 0 
C 60 20 0 
C 70 20 0 
C 80 20 0 
C 90 20 0 
C 100 20 0 
C 0 30 0 
C 10 30 0 
C 20 30 0 
C 30 30 0 
C 40 30 0 
C 50 30 0 
C 60 30 0 
C 70 30 0 
C 80 30 0 
C 90 30 0 
C 100 30 0 
C 0 40 0 
C 10 40 0 
C 20 40 0 
C 30 40 0 
C 40 40 0 
C 50 40 0 
C 60 40 0 
C 70 40 0 
C 80 40 0 
C 90 40 0 
C 100 40 0 
C 0 50 0 
C 10 50 0 
C 20 50 0 
C 30 50 0 
C 40 50 0 
C 50 50 0 
C 60 50 0 
C 70 50 0 
C 80 50 0 
C 90 50 0 
C 100 50 0 
C 0 60 0 
C 10 60 0 
C 20 60 0 
C 30 60 0 
C 40 60 0 
C 50 60 0 
C 60 60 0 
C 70 60 0 
C 80 60 0 
C 90 60 0 
C 100 60 0 
C 0 70 0 
C 10 70 0 
C 20 70 0 
C 30 70 0 
C 40 70 0 
C 50 70 0 
C 60 70 0 
C 70 70 0 
C 80 70 0 
C 90 70 0 
C 100 70 0 
C 0 80 0 
C 10 80 0 
C 20 80 0 
C 30 80 0 
C 40 80 0 
C 50 80 0 
C 60 80 0 
C 70 80 0 
C 80 80 0 
C 90 80 0 
C 100 80 0 
C 0 90 0 
C 10 90 0 
C 20 90 0 
C 30 90 0 
C 40 90 0 
C 50 90 0 
C 60 90 0 
C 70 90 0 
C 80 90 0 
C 90 90 0 
C 100 90 0 
C 0 100 0 
C 10 100 0 
C 20 100 0 
C 30 100 0 
C 40 100 0 
C 50 100 0 
C 60 100 0 
C 70 100 0 
C 80 100 0 
C 90 100 0 
C 100 100 0 
O 30 66 0 
O 79 61 0 
O 59 52 0 
O 34 21 0 
O 13 32 0 
O 0 36 0 
O 86 99 0 
O 74 25 0 
O 3 30 0 
O 53 2 0 
O 81 90 0 
O 1 64 0 
O 34 20 0 
O 1 50 0 
O 29 61 0 
O 17 82 0 
O 80 35 0 
O 84 71 0 
O 88 48 0 
O 94 6 0 
O 0 72 0 
O 9 42 0 
O 97 7 0 
O 56 48 0 
O 67 46 0 
O 91 34 0 
O 90 67 0 
O 80 11 0 
O 86 34 0 
O 40 49 0 
O 16 61 0 
O 77 23 0 
O 4 22 0 
O 3 9 0 
O 21 85 0 
O 31 23 0 
O 83 14 0 
O 66 53 0 
O 94 53 0 
O 84 47 0 
O 99 8 0 
O 83 69 0 
O 63 0 0 
O 88 12 0 
O 14 63 0 
O 72 48 0 
O 79 67 0 
O 46 86 0 
O 51 11 0 
O 73 80 0 
O 73 81 0 
O 62 79 0 
O 4 34 0 
O 16 24 0 
O 92 78 0 
O 99 29 0 
O 66 29 0 
O 36 58 0 
O 96 63 0 
O 76 67 0 
O 3 2 0 
O 61 36 0 
O 19 89 0 
O 27 62 0 
O 10 12 0 
676
Atoms. Timestep: 3
N 91 17 0 
N 24 57 0 
N 16 73 0 
N 52 95 0 
N 34 19 0 
N 64 22 0 
N 84 64 0 
N 4 50 0 
N 8 50 0 
N 52 30 0 
N 88 67 0 
N 14 2 0 
N 62 30 0 
N 62 7 0 
N 93 88 0 
N 78 81 0 
N 53 86 0 
N 54 60 0 
N 33 36 0 
N 36 71 0 
N 9 89 0 
N 10 83 0 
N 4 10 0 
N 13 82 0 
N 86 28 0 
N 16 34 0 
N 92 81 0 
N 63 46 0 
N 76 95 0 
N 89 28 0 
N 79 11 0 
N 51 12 0 
N 21 28 0 
N 39 84 0 
N 51 75 0 
N 62 94 0 
N 17 89 0 
N 95 8 0 
N 90 63 0 
N 60 98 0 
N 83 96 0 
N 1 39 0 
N 69 22 0 
N 35 49 0 
N 9 96 0 
N 74 28 0 
N 65 17 0 
N 34 5 0 
N 26 62 0 
N 99 48 0 
N 32 19 0 
N 79 55 0 
N 92 68 0 
N 22 1 0 
N 64 5 0 
N 62 84 0 
N 97 5 0 
N 50 12 0 
N 78 13 0 
N 26 97 0 
N 6 50 0 
N 91 27 0 
N 27 62 0 
N 56 48 0 
N 64 21 0 
N 40 47 0 
N 61 77 0 
N 52 38 0 
N 92 77 0 
N 30 17 0 
N 36 21 0 
N 57 25 0 
N 38 40 0 
N 6 22 0 
N 23 32 0 
N 96 74 0 
N 14 82 0 
N 80 91 0 
N 55 67 0 
N 87 7 0 
N 4 21 0 
N 70 68 0 
N 98 62 0 
N 71 97 0 
N 6 34 0 
N 75 81 0 
N 68 12 0 
N 6 59 0 
N 75 61 0 
N 86 32 0 
N 41 20 0 
N 62 34 0 
N 42 20 0 
N 5 95 0 
N 1 46 0 
N 17 77 0 
N 39 83 0 
N 31 23 0 
N 55 86 0 
N 8 34 0 
N 27 53 0 
N 73 9 0 
N 65 46 0 
N 53 64 0 
N 72 67 0 
N 91 21 0 
N 79 95 0 
N 91 41 0 
N 2 36 0 
N 6 24 0 
N 31 96 0 
N 36 66 0 
N 1 52 0 
N 1 75 0 
N 77 48 0 
N 22 27 0 
N 84 49 0 
N 14 85 0 
N 31 4 0 
N 82 83 0 
N 7 82 0 
N 62 79 0 
N 94 95 0 
N 18 20 0 
N 90 62 0 
N 93 7 0 
N 67 3 0 
N 66 54 0 
N 16 59 0 
N 98 14 0 
N 33 64 0 
N 62 66 0 
N 14 32 0 
N 46 64 0 
N 63 93 0 
N 50 42 0 
N 94 10 0 
N 90 98 0 
N 53 92 0 
N 72 63 0 
N 66 46 0 
N 28 89 0 
N 21 77 0 
N 27 46 0 
N 39 46 0 
N 78 62 0 
N 17 78 0 
N 36 65 0 
N 80 12 0 
N 44 64 0 
N 45 49 0 
N 16 57 0 
N 4 74 0 
N 45 24 0 
N 71 93 0 
N 21 96 0 
N 2 51 0 
N 34 29 0 
N 59 79 0 
N 47 27 0 
N 59 57 0 
N 12 69 0 
N 14 31 0 
N 78 8 0 
N 5 73 0 
N 4 9 0 
N 30 15 0 
N 93 81 0 
N 1 84 0 
N 69 42 0 
N 9 42 0 
N 27 90 0 
N 11 40 0 
N 67 94 0 
N 18 12 0 
N 15 79 0 
N 29 55 0 
N 39 24 0 
N 84 43 0 
N 98 40 0 
N 86 19 0 
N 12 43 0 
N 74 80 0 
N 77 3 0 
N 56 6 0 
N 79 16 0 
N 81 89 0 
N 47 93 0 
N 57 96 0 
N 67 42 0 
N 97 49 0 
N 42 58 0 
N 97 78 0 
N 62 87 0 
N 94 36 0 
N 86 71 0 
N 24 33 0 
N 12 95 0 
N 53 71 0 
N 91 29 0 
N 21 83 0 
N 15 58 0 
N 99 82 0 
N 49 64 0 
N 1 67 0 
N 19 90 0 
N 4 2 0 
N 13 39 0 
N 85 34 0 
N 89 37 0 
N 41 57 0 
N 90 38 0 
N 58 79 0 
N 50 63 0 
N 19 4 0 
N 36 86 0 
N 39 79 0 
N 46 95 0 
N 71 14 0 
N 89 89 0 
N 97 22 0 
N 36 31 0 
N 15 68 0 
N 4 49 0 
N 46 69 0 
N 56 45 0 
N 8 96 0 
N 79 35 0 
N 23 37 0 
N 25 86 0 
N 17 13 0 
N 72 26 0 
N 44 88 0 
N 94 63 0 
N 51 3 0 
N 82 76 0 
N 47 68 0 
N 81 87 0 
N 71 32 0 
N 19 6 0 
N 83 59 0 
N 49 53 0 
N 1 71 0 
N 4 64 0 
N 98 51 0 
N 68 80 0 
N 76 11 0 
N 89 68 0 
N 23 19 0 
N 98 35 0 
N 35 94 0 
N 17 75 0 
N 2 91 0 
N 68 61 0 
N 20 84 0 
N 59 67 0 
N 95 22 0 
N 64 76 0 
N 92 22 0 
N 50 36 0 
N 34 91 0 
N 97 36 0 
N 79 8 0 
N 60 88 0 
N 66 29 0 
N 47 95 0 
N 61 5 0 
N 32 66 0 
N 45 86 0 
N 68 29 0 
N 61 41 0 
N 92 84 0 
N 95 60 0 
N 24 62 0 
N 26 63 0 
N 24 35 0 
N 15 8 0 
N 94 22 0 
N 29 20 0 
N 13 76 0 
N 61 74 0 
N 57 63 0 
N 92 80 0 
N 23 87 0 
N 1 61 0 
N 90 26 0 
N 99 72 0 
N 57 29 0 
N 25 44 0 
N 99 78 0 
N 75 35 0 
N 91 53 0 
N 79 23 0 
N 98 74 0 
N 87 81 0 
N 58 48 0 
N 39 21 0 
N 89 76 0 
N 65 53 0 
N 79 56 0 
N 25 32 0 
N 69 80 0 
N 6 36 0 
N 28 11 0 
N 74 58 0 
N 24 97 0 
N 17 69 0 
N 93 52 0 
N 10 28 0 
N 55 49 0 
N 24 4 0 
N 31 13 0 
N 23 63 0 
N 17 65 0 
N 12 12 0 
N 80 92 0 
N 38 83 0 
N 52 59 0 
N 41 85 0 
N 23 25 0 
N 16 32 0 
N 16 27 0 
N 81 40 0 
N 32 37 0 
N 96 53 0 
N 60 36 0 
N 54 23 0 
N 16 82 0 
N 13 63 0 
N 29 10 0 
N 3 33 0 
N 77 34 0 
N 98 48 0 
N 12 31 0 
N 41 79 0 
N 53 34 0 
N 96 88 0 
N 55 37 0 
N 72 46 0 
N 85 71 0 
N 53 72 0 
N 56 47 0 
N 93 99 0 
N 16 9 0 
N 39 87 0 
N 7 1 0 
N 26 47 0 
N 41 49 0 
N 58 56 0 
N 87 34 0 
N 3 29 0 
N 30 37 0 
N 52 65 0 
N 16 21 0 
N 4 33 0 
N 61 72 0 
N 13 13 0 
N 73 8 0 
N 36 70 0 
N 71 22 0 
N 26 80 0 
N 65 19 0 
N 84 90 0 
N 43 47 0 
N 94 9 0 
N 92 3 0 
N 52 3 0 
N 38 57 0 
N 67 52 0 
N 37 21 0 
N 61 86 0 
N 28 81 0 
N 61 4 0 
N 45 3 0 
N 27 81 0 
N 41 46 0 
N 88 15 0 
N 16 67 0 
N 19 42 0 
N 15 32 0 
N 88 44 0 
N 78 94 0 
N 94 7 0 
N 2 59 0 
N 26 85 0 
N 16 96 0 
N 52 54 0 
N 61 8 0 
N 25 64 0 
N 70 76 0 
N 5 48 0 
N 72 0 0 
N 50 29 0 
N 21 89 0 
N 27 42 0 
N 95 73 0 
N 30 3 0 
N 72 49 0 
N 37 49 0 
N 88 97 0 
N 43 97 0 
N 72 11 0 
N 13 31 0 
N 28 85 0 
N 34 97 0 
N 36 75 0 
N 28 8 0 
N 67 37 0 
N 0 7 0 
N 51 17 0 
N 2 83 0 
N 73 79 0 
N 49 74 0 
N 16 75 0 
N 5 18 0 
N 92 51 0 
N 27 67 0 
N 62 75 0 
N 35 7 0 
N 68 0 0 
N 65 25 0 
N 97 3 0 
N 53 87 0 
N 11 43 0 
N 59 74 0 
N 49 35 0 
N 86 3 0 
N 90 44 0 
N 66 19 0 
N 93 51 0 
N 47 31 0 
N 18 99 0 
N 13 93 0 
N 68 7 0 
N 83 2 0 
N 83 65 0 
N 36 35 0 
N 25 37 0 
N 0 87 0 
N 53 2 0 
N 80 37 0 
N 11 15 0 
N 17 95 0 
N 94 6 0 
N 49 91 0 
N 92 87 0 
N 81 91 0 
N 59 87 0 
N 77 25 0 
N 62 82 0 
N 15 54 0 
N 80 23 0 
N 66 55 0 
N 77 20 0 
N 97 61 0 
N 80 41 0 
N 16 61 0 
N 18 24 0 
N 52 25 0 
N 50 35 0 
N 15 86 0 
N 34 3 0 
N 24 93 0 
N 45 57 0 
N 78 23 0 
N 62 36 0 
N 30 87 0 
N 87 54 0 
N 37 78 0 
N 59 80 0 
N 34 32 0 
N 66 3 0 
N 32 36 0 
N 4 41 0 
N 76 14 0 
N 69 25 0 
N 53 45 0 
N 92 39 0 
N 97 44 0 
N 63 74 0 
N 25 83 0 
N 69 9 0 
N 47 6 0 
N 38 81 0 
N 62 26 0 
N 30 66 0 
N 43 5 0 
N 45 94 0 
N 55 50 0 
N 94 11 0 
N 58 61 0 
N 57 27 0 
N 76 92 0 
N 15 34 0 
N 30 6 0 
N 57 54 0 
N 11 42 0 
N 8 85 0 
N 41 7 0 
N 33 73 0 
C 0 0 0 
C 10 0 0 
C 20 0 0 
C 30 0 0 
C 40 0 0 
C 50 0 0 
C 60 0 0 
C 70 0 0 
C 80 0 0 
C 90 0 0 
C 100 0 0 
C 0 10 0 
C 10 10 0 
C 20 10 0 
C 30 10 0 
C 40 10 0 
C 50 10 0 
C 60 10 0 
C 70 10 0 
C 80 10 0 
C 90 10 0 
C 100 10 0 
C 0 20 0 
C 10 20 0 
C 20 20 0 
C 30 20 0 
C 40 20 0 
C 50 20 0 
C 60 20 0 
C 70 20 0 
C 80 20 0 
C 90 20 0 
C 100 20 0 
C 0 30 0 
C 10 30 0 
C 20 30 0 
C 30 30 0 
C 40 30 0 
C 50 30 0 
C 60 30 0 
C 70 30 0 
C 80 30 0 
C 90 30 0 
C 100 30 0 
C 0 40 0 
C 10 40 0 
C 20 40 0 
C 30 40 0 
C 40 40 0 
C 50 40 0 
C 60 40 0 
C 70 40 0 
C 80 40 0 
C 90 40 0 
C 100 40 0 
C 0 50 0 
C 10 50 0 
C 20 50 0 
C 30 50 0 
C 40 50 0 
C 50 50 0 
C 60 50 0 
C 70 50 0 
C 80 50 0 
C 90 50 0 
C 100 50 0 
C 0 60 0 
C 10 60 0 
C 20 60 0 
C 30 60 0 
C 40 60 0 
C 50 60 0 
C 60 60 0 
C 70 60 0 
C 80 60 0 
C 90 60 0 
C 100 60 0 
C 0 70 0 
C 10 70 0 
C 20 70 0 
C 30 70 0 
C 40 70 0 
C 50 70 0 
C 60 70 0 
C 70 70 0 
C 80 70 0 
C 90 70 0 
C 100 70 0 
C 0 80 0 
C 10 80 0 
C 20 80 0 
C 30 80 0 
C 40 80 0 
C 50 80 0 
C 60 80 0 
C 70 80 0 
C 80 80 0 
C 90 80 0 
C 100 80 0 
C 0 90 0 
C 10 90 0 
C 20 90 0 
C 30 90 0 
C 40 90 0 
C 50 90 0 
C 60 90 0 
C 70 90 0 
C 80 90 0 
C 90 90 0 
C 100 90 0 
C 0 100 0 
C 10 100 0 
C 20 100 0 
C 30 100 0 
C 40 100 0 
C 50 100 0 
C 60 100 0 
C 70 100 0 
C 80 100 0 
C 90 100 0 
C 100 100 0 
O 78 61 0 
O 59 51 0 
O 34 20 0 
O 12 32 0 
O 0 37 0 
O 86 0 0 
O 74 24 0 
O 4 30 0 
O 82 90 0 
O 1 65 0 
O 33 20 0 
O 1 51 0 
O 28 61 0 
O 17 83 0 
O 80 34 0 
O 84 70 0 
O 89 48 0 
O 0 73 0 
O 97 6 0 
O 68 46 0 
O 91 33 0 
O 91 67 0 
O 81 11 0 
O 86 33 0 
O 39 49 0 
O 77 22 0 
O 3 22 0 
O 2 9 0 
O 20 85 0 
O 83 13 0 
O 66 53 0 
O 95 53 0 
O 84 48 0 
O 99 7 0 
O 83 68 0 
O 64 0 0 
O 88 11 0 
O 14 64 0 
O 71 48 0 
O 80 67 0 
O 46 85 0 
O 51 10 0 
O 73 81 0 
O 74 81 0 
O 3 34 0 
O 15 24 0 
O 92 79 0 
O 0 29 0 
O 36 57 0 
O 96 64 0 
O 76 68 0 
O 2 2 0 
O 61 35 0 
O 18 89 0 
O 9 12 0 
663
Atoms. Timestep: 4
N 91 16 0 
N 25 57 0 
N 16 74 0 
N 52 94 0 
N 34 20 0 
N 64 23 0 
N 83 64 0 
N 4 49 0 
N 8 51 0 
N 52 31 0 
N 89 67 0 
N 13 2 0 
N 61 30 0 
N 63 7 0 
N 93 89 0 
N 77 81 0 
N 52 86 0 
N 54 59 0 
N 33 35 0 
N 36 70 0 
N 9 88 0 
N 11 83 0 
N 3 10 0 
N 14 82 0 
N 87 28 0 
N 16 33 0 
N 91 81 0 
N 64 46 0 
N 77 95 0 
N 89 29 0 
N 79 11 0 
N 51 11 0 
N 20 28 0 
N 40 84 0 
N 51 76 0 
N 62 93 0 
N 18 89 0 
N 96 8 0 
N 91 63 0 
N 60 97 0 
N 84 96 0 
N 0 39 0 
N 70 22 0 
N 36 49 0 
N 9 95 0 
N 74 27 0 
N 65 16 0 
N 34 6 0 
N 27 62 0 
N 98 48 0 
N 33 19 0 
N 80 55 0 
N 92 67 0 
N 22 2 0 
N 64 4 0 
N 62 83 0 
N 97 6 0 
N 50 11 0 
N 78 12 0 
N 26 96 0 
N 6 49 0 
N 91 28 0 
N 28 62 0 
N 56 49 0 
N 65 21 0 
N 40 48 0 
N 62 77 0 
N 52 37 0 
N 91 77 0 
N 31 17 0 
N 35 21 0 
N 56 25 0 
N 39 40 0 
N 5 22 0 
N 22 32 0 
N 96 73 0 
N 14 83 0 
N 81 91 0 
N 55 66 0 
N 88 7 0 
N 4 22 0 
N 71 68 0 
N 98 63 0 
N 70 97 0 
N 5 34 0 
N 75 81 0 
N 69 12 0 
N 5 59 0 
N 76 61 0 
N 86 33 0 
N 41 20 0 
N 61 34 0 
N 42 20 0 
N 4 95 0 
N 1 45 0 
N 17 78 0 
N 40 83 0 
N 31 22 0 
N 54 86 0 
N 8 33 0 
N 27 54 0 
N 73 10 0 
N 66 46 0 
N 54 64 0 
N 73 67 0 
N 91 21 0 
N 80 95 0 
N 91 40 0 
N 1 36 0 
N 5 24 0 
N 30 96 0 
N 36 65 0 
N 1 53 0 
N 0 75 0 
N 76 48 0 
N 22 26 0 
N 84 48 0 
N 14 84 0 
N 31 5 0 
N 82 84 0 
N 8 82 0 
N 63 79 0 
N 93 95 0 
N 17 20 0 
N 91 62 0 
N 94 7 0 
N 67 2 0 
N 65 54 0 
N 16 60 0 
N 99 14 0 
N 33 63 0 
N 62 67 0 
N 14 31 0 
N 46 63 0 
N 64 93 0 
N 51 42 0 
N 95 10 0 
N 90 97 0 
N 53 91 0 
N 72 64 0 
N 66 45 0 
N 27 89 0 
N 20 77 0 
N 27 47 0 
N 39 47 0 
N 78 61 0 
N 17 79 0 
N 36 64 0 
N 80 11 0 
N 44 63 0 
N 44 49 0 
N 16 58 0 
N 3 74 0 
N 45 23 0 
N 72 93 0 
N 21 95 0 
N 1 51 0 
N 34 28 0 
N 60 79 0 
N 47 26 0 
N 59 57 0 
N 12 68 0 
N 15 31 0 
N 79 8 0 
N 4 73 0 
N 3 9 0 
N 30 16 0 
N 93 80 0 
N 0 84 0 
N 69 43 0 
N 9 41 0 
N 26 90 0 
N 11 39 0 
N 66 94 0 
N 17 12 0 
N 15 80 0 
N 28 55 0 
N 39 23 0 
N 84 44 0 
N 98 39 0 
N 86 18 0 
N 12 42 0 
N 74 81 0 
N 78 3 0 
N 56 7 0 
N 79 15 0 
N 82 89 0 
N 47 92 0 
N 58 96 0 
N 67 43 0 
N 96 49 0 
N 41 58 0 
N 97 77 0 
N 63 87 0 
N 94 35 0 
N 86 70 0 
N 23 33 0 
N 13 95 0 
N 52 71 0 
N 91 30 0 
N 20 83 0 
N 15 59 0 
N 99 81 0 
N 48 64 0 
N 1 66 0 
N 18 90 0 
N 3 2 0 
N 12 39 0 
N 85 33 0 
N 90 37 0 
N 40 57 0 
N 91 38 0 
N 58 80 0 
N 49 63 0 
N 18 4 0 
N 37 86 0 
N 40 79 0 
N 46 94 0 
N 71 15 0 
N 89 90 0 
N 96 22 0 
N 36 30 0 
N 14 68 0 
N 3 49 0 
N 46 70 0 
N 56 46 0 
N 8 95 0 
N 79 34 0 
N 23 36 0 
N 24 86 0 
N 16 13 0 
N 72 25 0 
N 45 88 0 
N 94 64 0 
N 51 4 0 
N 82 75 0 
N 47 69 0 
N 81 88 0 
N 71 31 0 
N 19 7 0 
N 82 59 0 
N 49 52 0 
N 0 71 0 
N 4 65 0 
N 97 51 0 
N 68 81 0 
N 77 11 0 
N 90 68 0 
N 23 20 0 
N 97 35 0 
N 36 94 0 
N 17 76 0 
N 2 90 0 
N 69 61 0 
N 21 84 0 
N 59 66 0 
N 94 22 0 
N 65 76 0 
N 91 22 0 
N 51 36 0 
N 35 91 0 
N 96 36 0 
N 79 9 0 
N 61 88 0 
N 65 29 0 
N 47 94 0 
N 62 5 0 
N 31 66 0 
N 46 86 0 
N 68 28 0 
N 61 40 0 
N 92 85 0 
N 96 60 0 
N 24 61 0 
N 27 63 0 
N 23 35 0 
N 14 8 0 
N 93 22 0 
N 29 20 0 
N 14 76 0 
N 61 75 0 
N 58 63 0 
N 92 79 0 
N 22 87 0 
N 1 62 0 
N 91 26 0 
N 98 72 0 
N 58 29 0 
N 24 44 0 
N 98 78 0 
N 76 35 0 
N 90 53 0 
N 78 23 0 
N 97 74 0 
N 87 80 0 
N 58 49 0 
N 39 20 0 
N 89 77 0 
N 66 53 0 
N 79 57 0 
N 25 31 0 
N 69 81 0 
N 6 37 0 
N 28 12 0 
N 75 58 0 
N 23 97 0 
N 17 68 0 
N 93 51 0 
N 10 29 0 
N 55 50 0 
N 23 4 0 
N 31 14 0 
N 22 63 0 
N 17 64 0 
N 11 12 0 
N 81 92 0 
N 38 84 0 
N 53 59 0 
N 42 85 0 
N 23 24 0 
N 16 31 0 
N 16 26 0 
N 81 39 0 
N 32 36 0 
N 95 53 0 
N 60 35 0 
N 54 22 0 
N 17 82 0 
N 13 64 0 
N 29 11 0 
N 3 34 0 
N 78 34 0 
N 97 48 0 
N 12 32 0 
N 42 79 0 
N 53 35 0 
N 95 88 0 
N 55 36 0 
N 71 46 0 
N 85 70 0 
N 52 72 0 
N 57 47 0 
N 92 99 0 
N 15 9 0 
N 39 86 0 
N 7 2 0 
N 26 48 0 
N 40 49 0 
N 59 56 0 
N 86 34 0 
N 3 30 0 
N 30 36 0 
N 53 65 0 
N 15 21 0 
N 4 34 0 
N 62 72 0 
N 13 12 0 
N 74 8 0 
N 36 69 0 
N 72 22 0 
N 25 80 0 
N 66 19 0 
N 83 90 0 
N 42 47 0 
N 95 9 0 
N 92 4 0 
N 52 4 0 
N 37 57 0 
N 66 52 0 
N 37 20 0 
N 60 86 0 
N 28 82 0 
N 61 3 0 
N 46 3 0 
N 26 81 0 
N 40 46 0 
N 88 14 0 
N 15 67 0 
N 19 41 0 
N 15 32 0 
N 89 44 0 
N 79 94 0 
N 95 7 0 
N 2 60 0 
N 25 85 0 
N 17 96 0 
N 53 54 0 
N 61 7 0 
N 26 64 0 
N 70 77 0 
N 5 49 0 
N 71 0 0 
N 51 29 0 
N 20 89 0 
N 28 42 0 
N 94 73 0 
N 30 4 0 
N 72 48 0 
N 38 49 0 
N 87 97 0 
N 43 96 0 
N 73 11 0 
N 13 32 0 
N 27 85 0 
N 34 96 0 
N 36 74 0 
N 28 9 0 
N 66 37 0 
N 1 7 0 
N 51 16 0 
N 2 82 0 
N 73 80 0 
N 49 75 0 
N 16 76 0 
N 5 19 0 
N 92 52 0 
N 27 66 0 
N 62 76 0 
N 34 7 0 
N 67 0 0 
N 66 25 0 
N 97 4 0 
N 52 87 0 
N 11 42 0 
N 59 75 0 
N 50 35 0 
N 86 2 0 
N 90 45 0 
N 67 19 0 
N 94 51 0 
N 47 32 0 
N 18 98 0 
N 13 92 0 
N 67 7 0 
N 84 2 0 
N 83 66 0 
N 36 34 0 
N 24 37 0 
N 99 87 0 
N 53 3 0 
N 80 36 0 
N 11 14 0 
N 17 94 0 
N 95 6 0 
N 49 90 0 
N 92 86 0 
N 81 90 0 
N 59 86 0 
N 77 24 0 
N 63 82 0 
N 15 55 0 
N 80 22 0 
N 66 55 0 
N 77 21 0 
N 97 62 0 
N 80 41 0 
N 16 62 0 
N 19 24 0 
N 51 25 0 
N 51 35 0 
N 15 85 0 
N 35 3 0 
N 24 92 0 
N 44 57 0 
N 77 23 0 
N 61 36 0 
N 30 86 0 
N 87 53 0 
N 37 79 0 
N 59 81 0 
N 33 32 0 
N 65 3 0 
N 32 35 0 
N 5 41 0 
N 76 13 0 
N 69 24 0 
N 53 46 0 
N 91 39 0 
N 96 44 0 
N 63 75 0 
N 24 83 0 
N 70 9 0 
N 47 7 0 
N 38 82 0 
N 61 26 0 
N 29 66 0 
N 44 5 0 
N 45 93 0 
N 55 51 0 
N 93 11 0 
N 59 61 0 
N 57 28 0 
N 76 91 0 
N 15 33 0 
N 30 7 0 
N 57 53 0 
N 11 41 0 
N 8 84 0 
N 42 7 0 
N 32 73 0 
C 0 0 0 
C 10 0 0 
C 20 0 0 
C 30 0 0 
C 40 0 0 
C 50 0 0 
C 60 0 0 
C 70 0 0 
C 80 0 0 
C 90 0 0 
C 100 0 0 
C 0 10 0 
C 10 10 0 
C 20 10 0 
C 30 10 0 
C 40 10 0 
C 50 10 0 
C 60 10 0 
C 70 10 0 
C 80 10 0 
C 90 10 0 
C 100 10 0 
C 0 20 0 
C 10 20 0 
C 20 20 0 
C 30 20 0 
C 40 20 0 
C 50 20 0 
C 60 20 0 
C 70 20 0 
C 80 20 0 
C 90 20 0 
C 100 20 0 
C 0 30 0 
C 10 30 0 
C 20 30 0 
C 30 30 0 
C 40 30 0 
C 50 30 0 
C 60 30 0 
C 70 30 0 
C 80 30 0 
C 90 30 0 
C 100 30 0 
C 0 40 0 
C 10 40 0 
C 20 40 0 
C 30 40 0 
C 40 40 0 
C 50 40 0 
C 60 40 0 
C 70 40 0 
C 80 40 0 
C 90 40 0 
C 100 40 0 
C 0 50 0 
C 10 50 0 
C 20 50 0 
C 30 50 0 
C 40 50 0 
C 50 50 0 
C 60 50 0 
C 70 50 0 
C 80 50 0 
C 90 50 0 
C 100 50 0 
C 0 60 0 
C 10 60 0 
C 20 60 0 
C 30 60 0 
C 40 60 0 
C 50 60 0 
C 60 60 0 
C 70 60 0 
C 80 60 0 
C 90 60 0 
C 100 60 0 
C 0 70 0 
C 10 70 0 
C 20 70 0 
C 30 70 0 
C 40 70 0 
C 50 70 0 
C 60 70 0 
C 70 70 0 
C 80 70 0 
C 90 70 0 
C 100 70 0 
C 0 80 0 
C 10 80 0 
C 20 80 0 
C 30 80 0 
C 40 80 0 
C 50 80 0 
C 60 80 0 
C 70 80 0 
C 80 80 0 
C 90 80 0 
C 100 80 0 
C 0 90 0 
C 10 90 0 
C 20 90 0 
C 30 90 0 
C 40 90 0 
C 50 90 0 
C 60 90 0 
C 70 90 0 
C 80 90 0 
C 90 90 0 
C 100 90 0 
C 0 100 0 
C 10 100 0 
C 20 100 0 
C 30 100 0 
C 40 100 0 
C 50 100 0 
C 60 100 0 
C 70 100 0 
C 80 100 0 
C 90 100 0 
C 100 100 0 
O 59 52 0 
O 99 37 0 
O 87 0 0 
O 75 24 0 
O 5 30 0 
O 82 91 0 
O 0 65 0 
O 33 20 0 
O 29 61 0 
O 16 83 0 
O 80 33 0 
O 84 71 0 
O 89 49 0 
O 99 73 0 
O 68 45 0 
O 91 32 0 
O 91 66 0 
O 81 10 0 
O 39 50 0 
O 78 22 0 
O 2 22 0 
O 1 9 0 
O 21 85 0 
O 84 13 0 
O 0 7 0 
O 83 69 0 
O 63 0 0 
O 88 10 0 
O 14 63 0 
O 70 48 0 
O 81 67 0 
O 45 85 0 
O 52 10 0 
O 73 81 0 
O 14 24 0 
O 99 29 0 
O 36 56 0 
O 97 64 0 
O 76 69 0 
O 1 2 0 
O 61 35 0 
O 9 11 0 
656
Atoms. Timestep: 5
N 90 16 0 
N 25 58 0 
N 16 75 0 
N 51 94 0 
N 34 21 0 
N 65 23 0 
N 83 65 0 
N 4 49 0 
N 8 52 0 
N 52 30 0 
N 89 66 0 
N 12 2 0 
N 62 30 0 
N 63 6 0 
N 93 88 0 
N 77 80 0 
N 52 85 0 
N 54 58 0 
N 34 35 0 
N 36 69 0 
N 10 88 0 
N 12 83 0 
N 2 10 0 
N 14 83 0 
N 88 28 0 
N 15 33 0 
N 91 80 0 
N 65 46 0 
N 78 95 0 
N 89 30 0 
N 80 11 0 
N 52 11 0 
N 20 27 0 
N 41 84 0 
N 51 77 0 
N 62 92 0 
N 17 89 0 
N 96 9 0 
N 91 64 0 
N 61 97 0 
N 85 96 0 
N 0 38 0 
N 70 23 0 
N 36 50 0 
N 9 96 0 
N 74 26 0 
N 65 17 0 
N 35 6 0 
N 27 61 0 
N 98 49 0 
N 33 20 0 
N 81 55 0 
N 92 66 0 
N 21 2 0 
N 63 4 0 
N 62 82 0 
N 97 7 0 
N 50 11 0 
N 79 12 0 
N 26 95 0 
N 7 49 0 
N 91 29 0 
N 28 61 0 
N 57 49 0 
N 64 21 0 
N 39 48 0 
N 61 77 0 
N 52 38 0 
N 91 76 0 
N 32 17 0 
N 35 20 0 
N 55 25 0 
N 39 41 0 
N 4 22 0 
N 22 31 0 
N 97 73 0 
N 15 83 0 
N 82 91 0 
N 55 65 0 
N 88 8 0 
N 3 22 0 
N 71 69 0 
N 98 64 0 
N 70 96 0 
N 5 33 0 
N 76 81 0 
N 70 12 0 
N 5 60 0 
N 76 62 0 
N 85 33 0 
N 41 20 0 
N 62 34 0 
N 42 20 0 
N 3 95 0 
N 2 45 0 
N 17 79 0 
N 41 83 0 
N 32 22 0 
N 54 85 0 
N 7 33 0 
N 28 54 0 
N 74 10 0 
N 66 45 0 
N 55 64 0 
N 74 67 0 
N 91 22 0 
N 80 94 0 
N 91 40 0 
N 2 36 0 
N 4 24 0 
N 30 95 0 
N 36 64 0 
N 1 54 0 
N 0 74 0 
N 75 48 0 
N 21 26 0 
N 85 48 0 
N 15 84 0 
N 31 6 0 
N 82 85 0 
N 9 82 0 
N 63 78 0 
N 92 95 0 
N 17 21 0 
N 91 62 0 
N 93 7 0 
N 66 2 0 
N 65 53 0 
N 16 61 0 
N 0 14 0 
N 32 63 0 
N 63 67 0 
N 14 30 0 
N 45 63 0 
N 63 93 0 
N 51 43 0 
N 95 9 0 
N 89 97 0 
N 52 91 0 
N 73 64 0 
N 67 45 0 
N 27 88 0 
N 19 77 0 
N 28 47 0 
N 38 47 0 
N 78 62 0 
N 16 79 0 
N 36 63 0 
N 81 11 0 
N 44 62 0 
N 44 50 0 
N 15 58 0 
N 4 74 0 
N 44 23 0 
N 72 92 0 
N 21 94 0 
N 2 51 0 
N 34 27 0 
N 59 79 0 
N 47 25 0 
N 59 56 0 
N 12 67 0 
N 15 30 0 
N 80 8 0 
N 5 73 0 
N 2 9 0 
N 30 17 0 
N 93 79 0 
N 0 83 0 
N 69 44 0 
N 9 40 0 
N 25 90 0 
N 12 39 0 
N 66 93 0 
N 17 11 0 
N 15 81 0 
N 29 55 0 
N 39 22 0 
N 85 44 0 
N 99 39 0 
N 85 18 0 
N 13 42 0 
N 74 80 0 
N 78 4 0 
N 56 8 0 
N 80 15 0 
N 82 89 0 
N 46 92 0 
N 59 96 0 
N 68 43 0 
N 95 49 0 
N 40 58 0 
N 97 76 0 
N 63 86 0 
N 93 35 0 
N 86 71 0 
N 22 33 0 
N 13 94 0 
N 52 72 0 
N 91 31 0 
N 19 83 0 
N 14 59 0 
N 99 80 0 
N 47 64 0 
N 0 66 0 
N 17 90 0 
N 2 2 0 
N 13 39 0 
N 84 33 0 
N 90 36 0 
N 40 56 0 
N 91 37 0 
N 57 80 0 
N 48 63 0 
N 18 5 0 
N 37 85 0 
N 41 79 0 
N 46 93 0 
N 72 15 0 
N 88 90 0 
N 95 22 0 
N 36 29 0 
N 14 68 0 
N 3 49 0 
N 45 70 0 
N 57 46 0 
N 7 95 0 
N 79 33 0 
N 23 35 0 
N 23 86 0 
N 16 12 0 
N 73 25 0 
N 45 87 0 
N 93 64 0 
N 51 5 0 
N 83 75 0 
N 46 69 0 
N 81 89 0 
N 71 30 0 
N 18 7 0 
N 81 59 0 
N 50 52 0 
N 0 72 0 
N 3 65 0 
N 96 51 0 
N 69 81 0 
N 78 11 0 
N 90 67 0 
N 24 20 0 
N 98 35 0 
N 36 93 0 
N 17 77 0 
N 1 90 0 
N 69 60 0 
N 21 85 0 
N 59 65 0 
N 93 22 0 
N 66 76 0 
N 91 23 0 
N 52 36 0 
N 36 91 0 
N 97 36 0 
N 79 10 0 
N 62 88 0 
N 65 28 0 
N 47 93 0 
N 62 4 0 
N 30 66 0 
N 45 86 0 
N 69 28 0 
N 61 41 0 
N 91 85 0 
N 97 60 0 
N 25 61 0 
N 28 63 0 
N 22 35 0 
N 13 8 0 
N 92 22 0 
N 29 20 0 
N 14 77 0 
N 61 74 0 
N 58 62 0 
N 92 80 0 
N 21 87 0 
N 1 63 0 
N 91 27 0 
N 99 72 0 
N 59 29 0 
N 25 44 0 
N 98 77 0 
N 77 35 0 
N 89 53 0 
N 78 22 0 
N 98 74 0 
N 86 80 0 
N 59 49 0 
N 38 20 0 
N 88 77 0 
N 66 52 0 
N 79 58 0 
N 25 30 0 
N 69 80 0 
N 7 37 0 
N 28 13 0 
N 75 59 0 
N 22 97 0 
N 17 67 0 
N 92 51 0 
N 9 29 0 
N 55 51 0 
N 23 5 0 
N 31 15 0 
N 21 63 0 
N 17 63 0 
N 11 11 0 
N 82 92 0 
N 38 85 0 
N 53 58 0 
N 42 86 0 
N 22 24 0 
N 16 30 0 
N 15 26 0 
N 81 38 0 
N 33 36 0 
N 94 53 0 
N 59 35 0 
N 54 21 0 
N 16 82 0 
N 13 63 0 
N 29 12 0 
N 3 33 0 
N 78 33 0 
N 96 48 0 
N 12 31 0 
N 42 80 0 
N 54 35 0 
N 94 88 0 
N 56 36 0 
N 70 46 0 
N 85 71 0 
N 51 72 0 
N 56 47 0 
N 91 99 0 
N 14 9 0 
N 40 86 0 
N 6 2 0 
N 26 49 0 
N 40 49 0 
N 59 55 0 
N 85 34 0 
N 4 30 0 
N 31 36 0 
N 53 64 0 
N 14 21 0 
N 4 33 0 
N 62 71 0 
N 12 12 0 
N 75 8 0 
N 36 68 0 
N 72 23 0 
N 25 81 0 
N 66 20 0 
N 83 91 0 
N 43 47 0 
N 94 9 0 
N 91 4 0 
N 52 5 0 
N 36 57 0 
N 65 52 0 
N 36 20 0 
N 59 86 0 
N 28 83 0 
N 61 4 0 
N 47 3 0 
N 27 81 0 
N 39 46 0 
N 88 13 0 
N 14 67 0 
N 19 40 0 
N 14 32 0 
N 89 45 0 
N 79 93 0 
N 95 8 0 
N 1 60 0 
N 24 85 0 
N 17 95 0 
N 54 54 0 
N 61 6 0 
N 26 63 0 
N 71 77 0 
N 5 49 0 
N 71 0 0 
N 52 29 0 
N 20 88 0 
N 29 42 0 
N 95 73 0 
N 30 5 0 
N 71 48 0 
N 39 49 0 
N 87 96 0 
N 44 96 0 
N 72 11 0 
N 13 33 0 
N 26 85 0 
N 34 95 0 
N 36 73 0 
N 29 9 0 
N 67 37 0 
N 0 7 0 
N 51 15 0 
N 2 81 0 
N 73 81 0 
N 49 76 0 
N 16 77 0 
N 5 20 0 
N 91 52 0 
N 28 66 0 
N 63 76 0 
N 33 7 0 
N 66 0 0 
N 66 24 0 
N 97 5 0 
N 51 87 0 
N 11 41 0 
N 59 76 0 
N 50 36 0 
N 86 1 0 
N 90 46 0 
N 67 20 0 
N 94 50 0 
N 46 32 0 
N 19 98 0 
N 14 92 0 
N 67 6 0 
N 84 1 0 
N 83 67 0 
N 35 34 0 
N 23 37 0 
N 99 86 0 
N 53 4 0 
N 80 35 0 
N 10 14 0 
N 17 93 0 
N 94 6 0 
N 49 89 0 
N 91 86 0 
N 82 90 0 
N 59 85 0 
N 76 24 0 
N 64 82 0 
N 15 56 0 
N 79 22 0 
N 66 54 0 
N 78 21 0 
N 97 63 0 
N 80 41 0 
N 16 63 0 
N 18 24 0 
N 52 25 0 
N 52 35 0 
N 16 85 0 
N 34 3 0 
N 23 92 0 
N 43 57 0 
N 77 22 0 
N 61 35 0 
N 29 86 0 
N 87 52 0 
N 37 80 0 
N 60 81 0 
N 33 31 0 
N 64 3 0 
N 32 34 0 
N 5 40 0 
N 76 12 0 
N 70 24 0 
N 53 47 0 
N 91 39 0 
N 96 43 0 
N 63 74 0 
N 23 83 0 
N 71 9 0 
N 48 7 0 
N 39 82 0 
N 61 27 0 
N 29 65 0 
N 45 5 0 
N 45 92 0 
N 55 52 0 
N 93 10 0 
N 59 60 0 
N 58 28 0 
N 77 91 0 
N 14 33 0 
N 30 8 0 
N 58 53 0 
N 11 40 0 
N 8 83 0 
N 42 8 0 
N 32 72 0 
C 0 0 0 
C 10 0 0 
C 20 0 0 
C 30 0 0 
C 40 0 0 
C 50 0 0 
C 60 0 0 
C 70 0 0 
C 80 0 0 
C 90 0 0 
C 100 0 0 
C 0 10 0 
C 10 10 0 
C 20 10 0 
C 30 10 0 
C 40 10 0 
C 50 10 0 
C 60 10 0 
C 70 10 0 
C 80 10 0 
C 90 10 0 
C 100 10 0 
C 0 20 0 
C 10 20 0 
C 20 20 0 
C 30 20 0 
C 40 20 0 
C 50 20 0 
C 60 20 0 
C 70 20 0 
C 80 20 0 
C 90 20 0 
C 100 20 0 
C 0 30 0 
C 10 30 0 
C 20 30 0 
C 30 30 0 
C 40 30 0 
C 50 30 0 
C 60 30 0 
C 70 30 0 
C 80 30 0 
C 90 30 0 
C 100 30 0 
C 0 40 0 
C 10 40 0 
C 20 40 0 
C 30 40 0 
C 40 40 0 
C 50 40 0 
C 60 40 0 
C 70 40 0 
C 80 40 0 
C 90 40 0 
C 100 40 0 
C 0 50 0 
C 10 50 0 
C 20 50 0 
C 30 50 0 
C 40 50 0 
C 50 50 0 
C 60 50 0 
C 70 50 0 
C 80 50 0 
C 90 50 0 
C 100 50 0 
C 0 60 0 
C 10 60 0 
C 20 60 0 
C 30 60 0 
C 40 60 0 
C 50 60 0 
C 60 60 0 
C 70 60 0 
C 80 60 0 
C 90 60 0 
C 100 60 0 
C 0 70 0 
C 10 70 0 
C 20 70 0 
C 30 70 0 
C 40 70 0 
C 50 70 0 
C 60 70 0 
C 70 70 0 
C 80 70 0 
C 90 70 0 
C 100 70 0 
C 0 80 0 
C 10 80 0 
C 20 80 0 
C 30 80 0 
C 40 80 0 
C 50 80 0 
C 60 80 0 
C 70 80 0 
C 80 80 0 
C 90 80 0 
C 100 80 0 
C 0 90 0 
C 10 90 0 
C 20 90 0 
C 30 90 0 
C 40 90 0 
C 50 90 0 
C 60 90 0 
C 70 90 0 
C 80 90 0 
C 90 90 0 
C 100 90 0 
C 0 100 0 
C 10 100 0 
C 20 100 0 
C 30 100 0 
C 40 100 0 
C 50 100 0 
C 60 100 0 
C 70 100 0 
C 80 100 0 
C 90 100 0 
C 100 100 0 
O 58 52 0 
O 99 36 0 
O 87 99 0 
O 75 23 0 
O 5 31 0 
O 99 65 0 
O 29 60 0 
O 17 83 0 
O 81 33 0 
O 84 72 0 
O 90 49 0 
O 0 73 0 
O 69 45 0 
O 92 32 0 
O 91 65 0 
O 81 9 0 
O 38 50 0 
O 2 21 0 
O 0 9 0 
O 85 13 0 
O 84 69 0 
O 64 0 0 
O 88 9 0 
O 14 64 0 
O 69 48 0 
O 81 68 0 
O 44 85 0 
O 51 10 0 
O 14 23 0 
O 99 28 0 
O 35 56 0 
O 97 65 0 
O 77 69 0 
O 0 2 0 
O 9 10 0 
651
Atoms. Timestep: 6
N 89 16 0 
N 25 59 0 
N 17 75 0 
N 51 93 0 
N 33 21 0 
N 66 23 0 
N 84 65 0 
N 5 49 0 
N 8 53 0 
N 51 30 0 
N 88 66 0 
N 12 3 0 
N 63 30 0 
N 64 6 0 
N 92 88 0 
N 77 79 0 
N 51 85 0 
N 53 58 0 
N 35 35 0 
N 36 68 0 
N 11 88 0 
N 13 83 0 
N 1 10 0 
N 14 83 0 
N 88 29 0 
N 15 32 0 
N 91 79 0 
N 65 47 0 
N 78 96 0 
N 89 31 0 
N 81 11 0 
N 52 10 0 
N 19 27 0 
N 41 85 0 
N 50 77 0 
N 62 91 0 
N 17 88 0 
N 96 9 0 
N 91 65 0 
N 61 96 0 
N 85 97 0 
N 1 38 0 
N 71 23 0 
N 37 50 0 
N 9 95 0 
N 74 25 0 
N 66 17 0 
N 35 7 0 
N 27 60 0 
N 97 49 0 
N 32 20 0 
N 81 56 0 
N 91 66 0 
N 21 3 0 
N 63 3 0 
N 63 82 0 
N 97 8 0 
N 51 11 0 
N 80 12 0 
N 25 95 0 
N 8 49 0 
N 91 30 0 
N 29 61 0 
N 57 48 0 
N 64 22 0 
N 38 48 0 
N 61 76 0 
N 52 39 0 
N 90 76 0 
N 31 17 0 
N 34 20 0 
N 54 25 0 
N 39 42 0 
N 4 21 0 
N 22 30 0 
N 97 72 0 
N 15 83 0 
N 82 92 0 
N 56 65 0 
N 88 9 0 
N 3 23 0 
N 71 68 0 
N 99 64 0 
N 69 96 0 
N 5 32 0 
N 76 80 0 
N 71 12 0 
N 6 60 0 
N 76 63 0 
N 84 33 0 
N 42 20 0 
N 63 34 0 
N 43 20 0 
N 2 95 0 
N 3 45 0 
N 17 80 0 
N 42 83 0 
N 32 23 0 
N 53 85 0 
N 6 33 0 
N 28 55 0 
N 74 9 0 
N 66 46 0 
N 56 64 0 
N 75 67 0 
N 91 23 0 
N 80 95 0 
N 92 40 0 
N 2 35 0 
N 3 24 0 
N 31 95 0 
N 35 64 0 
N 2 54 0 
N 1 74 0 
N 74 48 0 
N 20 26 0 
N 84 48 0 
N 16 84 0 
N 32 6 0 
N 83 85 0 
N 10 82 0 
N 63 77 0 
N 91 95 0 
N 16 21 0 
N 91 63 0 
N 93 8 0 
N 65 2 0 
N 65 52 0 
N 15 61 0 
N 0 13 0 
N 31 63 0 
N 63 68 0 
N 14 29 0 
N 45 62 0 
N 63 92 0 
N 50 43 0 
N 95 9 0 
N 89 98 0 
N 51 91 0 
N 73 65 0 
N 68 45 0 
N 27 87 0 
N 19 78 0 
N 28 48 0 
N 38 46 0 
N 77 62 0 
N 16 80 0 
N 35 63 0 
N 81 10 0 
N 44 61 0 
N 43 50 0 
N 14 58 0 
N 4 73 0 
N 45 23 0 
N 71 92 0 
N 21 93 0 
N 2 50 0 
N 33 27 0 
N 58 79 0 
N 47 24 0 
N 59 55 0 
N 13 67 0 
N 15 29 0 
N 81 8 0 
N 6 73 0 
N 1 9 0 
N 29 17 0 
N 93 78 0 
N 1 83 0 
N 69 45 0 
N 8 40 0 
N 24 90 0 
N 12 38 0 
N 66 92 0 
N 17 10 0 
N 15 82 0 
N 29 56 0 
N 39 21 0 
N 86 44 0 
N 99 38 0 
N 85 17 0 
N 13 41 0 
N 74 79 0 
N 79 4 0 
N 56 9 0 
N 80 14 0 
N 82 90 0 
N 45 92 0 
N 60 96 0 
N 69 43 0 
N 94 49 0 
N 40 57 0 
N 97 75 0 
N 63 85 0 
N 93 34 0 
N 86 72 0 
N 21 33 0 
N 13 93 0 
N 51 72 0 
N 91 32 0 
N 18 83 0 
N 14 60 0 
N 99 81 0 
N 46 64 0 
N 0 65 0 
N 17 90 0 
N 1 2 0 
N 13 38 0 
N 83 33 0 
N 90 35 0 
N 39 56 0 
N 92 37 0 
N 56 80 0 
N 48 62 0 
N 18 6 0 
N 38 85 0 
N 42 79 0 
N 45 93 0 
N 73 15 0 
N 88 91 0 
N 94 22 0 
N 36 30 0 
N 14 67 0 
N 3 49 0 
N 45 71 0 
N 57 45 0 
N 7 96 0 
N 80 33 0 
N 23 34 0 
N 22 86 0 
N 16 11 0 
N 73 24 0 
N 44 87 0 
N 93 65 0 
N 51 6 0 
N 84 75 0 
N 45 69 0 
N 81 90 0 
N 72 30 0 
N 18 8 0 
N 81 60 0 
N 49 52 0 
N 0 73 0 
N 4 65 0 
N 96 50 0 
N 70 81 0 
N 79 11 0 
N 91 67 0 
N 24 21 0 
N 99 35 0 
N 36 92 0 
N 17 78 0 
N 1 89 0 
N 69 59 0 
N 21 84 0 
N 59 66 0 
N 92 22 0 
N 67 76 0 
N 91 24 0 
N 53 36 0 
N 36 90 0 
N 98 36 0 
N 79 9 0 
N 63 88 0 
N 66 28 0 
N 47 92 0 
N 62 3 0 
N 30 65 0 
N 45 85 0 
N 70 28 0 
N 62 41 0 
N 91 86 0 
N 97 61 0 
N 25 60 0 
N 29 63 0 
N 21 35 0 
N 12 8 0 
N 92 23 0 
N 29 21 0 
N 15 77 0 
N 61 73 0 
N 58 61 0 
N 92 79 0 
N 21 86 0 
N 1 64 0 
N 92 27 0 
N 98 72 0 
N 60 29 0 
N 25 45 0 
N 97 77 0 
N 77 34 0 
N 89 52 0 
N 78 23 0 
N 97 74 0 
N 85 80 0 
N 59 48 0 
N 39 20 0 
N 87 77 0 
N 66 51 0 
N 80 58 0 
N 25 29 0 
N 69 79 0 
N 8 37 0 
N 27 13 0 
N 75 58 0 
N 22 96 0 
N 16 67 0 
N 91 51 0 
N 8 29 0 
N 55 50 0 
N 22 5 0 
N 31 14 0 
N 21 64 0 
N 17 64 0 
N 11 10 0 
N 82 93 0 
N 39 85 0 
N 52 58 0 
N 43 86 0 
N 21 24 0 
N 16 29 0 
N 15 25 0 
N 81 37 0 
N 34 36 0 
N 94 52 0 
N 59 36 0 
N 54 20 0 
N 16 83 0 
N 13 64 0 
N 28 12 0 
N 4 33 0 
N 78 33 0 
N 95 48 0 
N 11 31 0 
N 43 80 0 
N 55 35 0 
N 94 89 0 
N 57 36 0 
N 70 45 0 
N 84 71 0 
N 50 72 0 
N 57 47 0 
N 90 99 0 
N 14 10 0 
N 40 85 0 
N 5 2 0 
N 27 49 0 
N 39 49 0 
N 60 55 0 
N 84 34 0 
N 5 30 0 
N 32 36 0 
N 52 64 0 
N 14 22 0 
N 4 32 0 
N 62 70 0 
N 12 11 0 
N 76 8 0 
N 35 68 0 
N 73 23 0 
N 24 81 0 
N 66 21 0 
N 84 91 0 
N 42 47 0 
N 94 9 0 
N 90 4 0 
N 52 6 0 
N 35 57 0 
N 65 51 0 
N 36 19 0 
N 58 86 0 
N 27 83 0 
N 61 3 0 
N 47 4 0 
N 27 82 0 
N 39 47 0 
N 87 13 0 
N 14 66 0 
N 19 39 0 
N 14 31 0 
N 89 46 0 
N 80 93 0 
N 94 8 0 
N 2 60 0 
N 23 85 0 
N 17 94 0 
N 54 53 0 
N 62 6 0 
N 26 62 0 
N 71 76 0 
N 6 49 0 
N 71 0 0 
N 52 28 0 
N 20 87 0 
N 30 42 0 
N 94 73 0 
N 31 5 0 
N 70 48 0 
N 38 49 0 
N 87 97 0 
N 44 95 0 
N 73 11 0 
N 12 33 0 
N 25 85 0 
N 34 94 0 
N 35 73 0 
N 28 9 0 
N 67 38 0 
N 0 8 0 
N 51 14 0 
N 2 80 0 
N 73 80 0 
N 48 76 0 
N 16 78 0 
N 4 20 0 
N 90 52 0 
N 28 65 0 
N 64 76 0 
N 34 7 0 
N 65 0 0 
N 67 24 0 
N 96 5 0 
N 51 86 0 
N 10 41 0 
N 59 77 0 
N 50 37 0 
N 86 2 0 
N 90 47 0 
N 68 20 0 
N 93 50 0 
N 46 33 0 
N 19 97 0 
N 15 92 0 
N 67 5 0 
N 84 2 0 
N 84 67 0 
N 36 34 0 
N 22 37 0 
N 98 86 0 
N 53 5 0 
N 81 35 0 
N 10 13 0 
N 18 93 0 
N 93 6 0 
N 49 88 0 
N 91 87 0 
N 83 90 0 
N 58 85 0 
N 76 23 0 
N 64 81 0 
N 15 57 0 
N 79 23 0 
N 66 53 0 
N 77 21 0 
N 97 64 0 
N 81 41 0 
N 16 64 0 
N 18 23 0 
N 51 25 0 
N 52 34 0 
N 17 85 0 
N 35 3 0 
N 22 92 0 
N 43 56 0 
N 76 22 0 
N 62 35 0 
N 28 86 0 
N 87 51 0 
N 37 81 0 
N 59 81 0 
N 33 30 0 
N 64 2 0 
N 33 34 0 
N 5 39 0 
N 77 12 0 
N 71 24 0 
N 54 47 0 
N 92 39 0 
N 97 43 0 
N 63 73 0 
N 22 83 0 
N 71 8 0 
N 49 7 0 
N 39 83 0 
N 61 26 0 
N 29 64 0 
N 46 5 0 
N 44 92 0 
N 56 52 0 
N 93 9 0 
N 59 61 0 
N 59 28 0 
N 77 92 0 
N 14 33 0 
N 30 9 0 
N 58 52 0 
N 11 39 0 
N 9 83 0 
N 43 8 0 
N 32 71 0 
C 0 0 0 
C 10 0 0 
C 20 0 0 
C 30 0 0 
C 40 0 0 
C 50 0 0 
C 60 0 0 
C 70 0 0 
C 80 0 0 
C 90 0 0 
C 100 0 0 
C 0 10 0 
C 10 10 0 
C 20 10 0 
C 30 10 0 
C 40 10 0 
C 50 10 0 
C 60 10 0 
C 70 10 0 
C 80 10 0 
C 90 10 0 
C 100 10 0 
C 0 20 0 
C 10 20 0 
C 20 20 0 
C 30 20 0 
C 40 20 0 
C 50 20 0 
C 60 20 0 
C 70 20 0 
C 80 20 0 
C 90 20 0 
C 100 20 0 
C 0 30 0 
C 10 30 0 
C 20 30 0 
C 30 30 0 
C 40 30 0 
C 50 30 0 
C 60 30 0 
C 70 30 0 
C 80 30 0 
C 90 30 0 
C 100 30 0 
C 0 40 0 
C 10 40 0 
C 20 40 0 
C 30 40 0 
C 40 40 0 
C 50 40 0 
C 60 40 0 
C 70 40 0 
C 80 40 0 
C 90 40 0 
C 100 40 0 
C 0 50 0 
C 10 50 0 
C 20 50 0 
C 30 50 0 
C 40 50 0 
C 50 50 0 
C 60 50 0 
C 70 50 0 
C 80 50 0 
C 90 50 0 
C 100 50 0 
C 0 60 0 
C 10 60 0 
C 20 60 0 
C 30 60 0 
C 40 60 0 
C 50 60 0 
C 60 60 0 
C 70 60 0 
C 80 60 0 
C 90 60 0 
C 100 60 0 
C 0 70 0 
C 10 70 0 
C 20 70 0 
C 30 70 0 
C 40 70 0 
C 50 70 0 
C 60 70 0 
C 70 70 0 
C 80 70 0 
C 90 70 0 
C 100 70 0 
C 0 80 0 
C 10 80 0 
C 20 80 0 
C 30 80 0 
C 40 80 0 
C 50 80 0 
C 60 80 0 
C 70 80 0 
C 80 80 0 
C 90 80 0 
C 100 80 0 
C 0 90 0 
C 10 90 0 
C 20 90 0 
C 30 90 0 
C 40 90 0 
C 50 90 0 
C 60 90 0 
C 70 90 0 
C 80 90 0 
C 90 90 0 
C 100 90 0 
C 0 100 0 
C 10 100 0 
C 20 100 0 
C 30 100 0 
C 40 100 0 
C 50 100 0 
C 60 100 0 
C 70 100 0 
C 80 100 0 
C 90 100 0 
C 100 100 0 
O 99 37 0 
O 88 99 0 
O 75 22 0 
O 4 31 0 
O 99 66 0 
O 28 60 0 
O 17 84 0 
O 81 32 0 
O 83 72 0 
O 91 49 0 
O 92 31 0 
O 82 9 0 
O 38 51 0 
O 1 21 0 
O 99 9 0 
O 85 12 0 
O 85 69 0 
O 64 99 0 
O 14 65 0 
O 69 49 0 
O 81 67 0 
O 44 86 0 
O 51 9 0 
O 13 23 0 
O 0 28 0 
O 36 56 0 
O 97 66 0 
O 77 70 0 
O 99 2 0 
O 9 9 0 
645
Atoms. Timestep: 7
N 89 15 0 
N 26 59 0 
N 18 75 0 
N 51 92 0 
N 33 22 0 
N 67 23 0 
N 84 66 0 
N 5 50 0 
N 9 53 0 
N 51 29 0 
N 87 66 0 
N 12 4 0 
N 63 31 0 
N 64 7 0 
N 92 89 0 
N 77 78 0 
N 51 84 0 
N 52 58 0 
N 36 35 0 
N 36 67 0 
N 10 88 0 
N 13 82 0 
N 2 10 0 
N 14 82 0 
N 88 30 0 
N 15 31 0 
N 91 78 0 
N 66 47 0 
N 79 96 0 
N 90 31 0 
N 81 10 0 
N 52 9 0 
N 19 26 0 
N 41 84 0 
N 51 77 0 
N 62 92 0 
N 17 87 0 
N 96 9 0 
N 91 66 0 
N 61 97 0 
N 86 97 0 
N 1 37 0 
N 72 23 0 
N 37 51 0 
N 9 94 0 
N 74 26 0 
N 66 18 0 
N 35 6 0 
N 27 61 0 
N 96 49 0 
N 32 21 0 
N 81 57 0 
N 92 66 0 
N 22 3 0 
N 63 4 0 
N 63 83 0 
N 97 9 0 
N 51 10 0 
N 80 11 0 
N 24 95 0 
N 9 49 0 
N 92 30 0 
N 28 61 0 
N 57 49 0 
N 64 23 0 
N 38 49 0 
N 62 76 0 
N 51 39 0 
N 89 76 0 
N 30 17 0 
N 34 21 0 
N 54 24 0 
N 38 42 0 
N 3 21 0 
N 22 29 0 
N 97 71 0 
N 15 82 0 
N 81 92 0 
N 57 65 0 
N 87 9 0 
N 3 22 0 
N 71 69 0 
N 99 65 0 
N 68 96 0 
N 5 31 0 
N 77 80 0 
N 71 11 0 
N 6 61 0 
N 76 64 0 
N 83 33 0 
N 43 20 0 
N 63 33 0 
N 43 19 0 
N 3 95 0 
N 3 46 0 
N 18 80 0 
N 42 82 0 
N 31 23 0 
N 53 86 0 
N 6 32 0 
N 28 56 0 
N 75 9 0 
N 67 46 0 
N 57 64 0 
N 75 68 0 
N 91 24 0 
N 80 96 0 
N 92 39 0 
N 1 35 0 
N 2 24 0 
N 32 95 0 
N 35 63 0 
N 3 54 0 
N 1 73 0 
N 73 48 0 
N 20 25 0 
N 84 49 0 
N 16 83 0 
N 33 6 0 
N 83 84 0 
N 11 82 0 
N 64 77 0 
N 91 96 0 
N 16 22 0 
N 92 63 0 
N 94 8 0 
N 64 2 0 
N 65 51 0 
N 16 61 0 
N 1 13 0 
N 31 62 0 
N 63 69 0 
N 13 29 0 
N 45 61 0 
N 63 93 0 
N 49 43 0 
N 95 9 0 
N 88 98 0 
N 51 90 0 
N 74 65 0 
N 69 45 0 
N 27 86 0 
N 20 78 0 
N 28 49 0 
N 38 47 0 
N 77 63 0 
N 16 79 0 
N 36 63 0 
N 81 9 0 
N 43 61 0 
N 42 50 0 
N 14 59 0 
N 4 72 0 
N 46 23 0 
N 71 93 0 
N 20 93 0 
N 2 49 0 
N 33 26 0 
N 59 79 0 
N 48 24 0 
N 60 55 0 
N 13 66 0 
N 15 28 0 
N 82 8 0 
N 6 72 0 
N 2 9 0 
N 29 18 0 
N 93 77 0 
N 1 82 0 
N 69 46 0 
N 7 40 0 
N 25 90 0 
N 13 38 0 
N 65 92 0 
N 17 9 0 
N 15 81 0 
N 29 57 0 
N 40 21 0 
N 86 45 0 
N 99 37 0 
N 85 16 0 
N 13 40 0 
N 74 78 0 
N 79 5 0 
N 55 9 0 
N 81 14 0 
N 83 90 0 
N 46 92 0 
N 60 97 0 
N 69 44 0 
N 94 49 0 
N 40 56 0 
N 97 74 0 
N 64 85 0 
N 93 33 0 
N 85 72 0 
N 21 32 0 
N 13 92 0 
N 52 72 0 
N 92 32 0 
N 18 82 0 
N 15 60 0 
N 99 80 0 
N 45 64 0 
N 0 66 0 
N 17 89 0 
N 2 2 0 
N 13 37 0 
N 82 33 0 
N 91 35 0 
N 38 56 0 
N 92 36 0 
N 57 80 0 
N 48 61 0 
N 17 6 0 
N 38 84 0 
N 42 78 0 
N 46 93 0 
N 74 15 0 
N 88 92 0 
N 93 22 0 
N 36 31 0 
N 14 66 0 
N 4 49 0 
N 44 71 0 
N 58 45 0 
N 8 96 0 
N 81 33 0 
N 23 33 0 
N 22 85 0 
N 16 10 0 
N 74 24 0 
N 45 87 0 
N 93 66 0 
N 51 7 0 
N 83 75 0 
N 45 68 0 
N 81 91 0 
N 73 30 0 
N 18 9 0 
N 81 61 0 
N 48 52 0 
N 0 72 0 
N 5 65 0 
N 95 50 0 
N 71 81 0 
N 79 10 0 
N 92 67 0 
N 24 22 0 
N 99 36 0 
N 36 91 0 
N 18 78 0 
N 1 88 0 
N 69 58 0 
N 21 83 0 
N 60 66 0 
N 92 23 0 
N 68 76 0 
N 91 25 0 
N 54 36 0 
N 36 89 0 
N 98 37 0 
N 80 9 0 
N 63 89 0 
N 66 29 0 
N 47 91 0 
N 62 4 0 
N 29 65 0 
N 45 84 0 
N 70 29 0 
N 63 41 0 
N 90 86 0 
N 97 62 0 
N 26 60 0 
N 29 62 0 
N 20 35 0 
N 11 8 0 
N 92 24 0 
N 29 22 0 
N 16 77 0 
N 62 73 0 
N 58 60 0 
N 92 78 0 
N 21 85 0 
N 1 65 0 
N 92 28 0 
N 98 71 0 
N 61 29 0 
N 24 45 0 
N 97 76 0 
N 78 34 0 
N 89 51 0 
N 79 23 0 
N 97 73 0 
N 85 79 0 
N 59 49 0 
N 39 19 0 
N 87 76 0 
N 67 51 0 
N 81 58 0 
N 25 28 0 
N 70 79 0 
N 9 37 0 
N 26 13 0 
N 76 58 0 
N 22 95 0 
N 16 66 0 
N 91 50 0 
N 8 28 0 
N 56 50 0 
N 22 6 0 
N 31 13 0 
N 22 64 0 
N 17 63 0 
N 11 9 0 
N 83 93 0 
N 39 84 0 
N 52 57 0 
N 44 86 0 
N 20 24 0 
N 16 28 0 
N 14 25 0 
N 81 36 0 
N 35 36 0 
N 94 51 0 
N 60 36 0 
N 53 20 0 
N 17 83 0 
N 14 64 0 
N 27 12 0 
N 5 33 0 
N 78 32 0 
N 95 49 0 
N 11 30 0 
N 43 81 0 
N 56 35 0 
N 94 90 0 
N 57 37 0 
N 70 46 0 
N 84 72 0 
N 50 73 0 
N 58 47 0 
N 89 99 0 
N 14 9 0 
N 40 86 0 
N 6 2 0 
N 27 50 0 
N 39 50 0 
N 61 55 0 
N 83 34 0 
N 4 30 0 
N 33 36 0 
N 53 64 0 
N 13 22 0 
N 4 31 0 
N 63 70 0 
N 12 10 0 
N 77 8 0 
N 35 67 0 
N 74 23 0 
N 24 80 0 
N 65 21 0 
N 85 91 0 
N 41 47 0 
N 94 9 0 
N 90 5 0 
N 52 7 0 
N 35 56 0 
N 65 50 0 
N 36 18 0 
N 57 86 0 
N 28 83 0 
N 61 4 0 
N 47 5 0 
N 28 82 0 
N 39 48 0 
N 86 13 0 
N 14 65 0 
N 19 38 0 
N 14 30 0 
N 89 47 0 
N 80 94 0 
N 95 8 0 
N 2 61 0 
N 23 86 0 
N 16 94 0 
N 54 52 0 
N 63 6 0 
N 27 62 0 
N 72 76 0 
N 7 49 0 
N 71 1 0 
N 51 28 0 
N 21 87 0 
N 31 42 0 
N 95 73 0 
N 32 5 0 
N 70 49 0 
N 38 50 0 
N 88 97 0 
N 44 94 0 
N 73 10 0 
N 12 32 0 
N 26 85 0 
N 35 94 0 
N 34 73 0 
N 27 9 0 
N 68 38 0 
N 0 9 0 
N 51 13 0 
N 3 80 0 
N 73 79 0 
N 48 77 0 
N 15 78 0 
N 3 20 0 
N 91 52 0 
N 28 65 0 
N 64 75 0 
N 34 8 0 
N 65 1 0 
N 68 24 0 
N 96 4 0 
N 50 86 0 
N 11 41 0 
N 59 78 0 
N 49 37 0 
N 86 3 0 
N 90 48 0 
N 69 20 0 
N 93 49 0 
N 46 34 0 
N 18 97 0 
N 15 91 0 
N 67 6 0 
N 85 2 0 
N 85 67 0 
N 37 34 0 
N 23 37 0 
N 98 85 0 
N 53 6 0 
N 81 34 0 
N 10 12 0 
N 18 92 0 
N 93 7 0 
N 48 88 0 
N 91 88 0 
N 83 91 0 
N 57 85 0 
N 76 24 0 
N 64 82 0 
N 15 58 0 
N 79 24 0 
N 67 53 0 
N 78 21 0 
N 97 65 0 
N 81 40 0 
N 15 64 0 
N 17 23 0 
N 51 24 0 
N 51 34 0 
N 17 84 0 
N 36 3 0 
N 21 92 0 
N 42 56 0 
N 75 22 0 
N 62 36 0 
N 28 85 0 
N 88 51 0 
N 37 82 0 
N 58 81 0 
N 33 29 0 
N 64 3 0 
N 34 34 0 
N 5 38 0 
N 77 11 0 
N 72 24 0 
N 54 48 0 
N 92 38 0 
N 97 42 0 
N 63 72 0 
N 22 84 0 
N 71 9 0 
N 50 7 0 
N 40 83 0 
N 62 26 0 
N 28 64 0 
N 46 6 0 
N 44 91 0 
N 57 52 0 
N 93 9 0 
N 60 61 0 
N 59 27 0 
N 78 92 0 
N 14 32 0 
N 31 9 0 
N 59 52 0 
N 11 38 0 
N 10 83 0 
N 44 8 0 
N 32 70 0 
C 0 0 0 
C 10 0 0 
C 20 0 0 
C 30 0 0 
C 40 0 0 
C 50 0 0 
C 60 0 0 
C 70 0 0 
C 80 0 0 
C 90 0 0 
C 100 0 0 
C 0 10 0 
C 10 10 0 
C 20 10 0 
C 30 10 0 
C 40 10 0 
C 50 10 0 
C 60 10 0 
C 70 10 0 
C 80 10 0 
C 90 10 0 
C 100 10 0 
C 0 20 0 
C 10 20 0 
C 20 20 0 
C 30 20 0 
C 40 20 0 
C 50 20 0 
C 60 20 0 
C 70 20 0 
C 80 20 0 
C 90 20 0 
C 100 20 0 
C 0 30 0 
C 10 30 0 
C 20 30 0 
C 30 30 0 
C 40 30 0 
C 50 30 0 
C 60 30 0 
C 70 30 0 
C 80 30 0 
C 90 30 0 
C 100 30 0 
C 0 40 0 
C 10 40 0 
C 20 40 0 
C 30 40 0 
C 40 40 0 
C 50 40 0 
C 60 40 0 
C 70 40 0 
C 80 40 0 
C 90 40 0 
C 100 40 0 
C 0 50 0 
C 10 50 0 
C 20 50 0 
C 30 50 0 
C 40 50 0 
C 50 50 0 
C 60 50 0 
C 70 50 0 
C 80 50 0 
C 90 50 0 
C 100 50 0 
C 0 60 0 
C 10 60 0 
C 20 60 0 
C 30 60 0 
C 40 60 0 
C 50 60 0 
C 60 60 0 
C 70 60 0 
C 80 60 0 
C 90 60 0 
C 100 60 0 
C 0 70 0 
C 10 70 0 
C 20 70 0 
C 30 70 0 
C 40 70 0 
C 50 70 0 
C 60 70 0 
C 70 70 0 
C 80 70 0 
C 90 70 0 
C 100 70 0 
C 0 80 0 
C 10 80 0 
C 20 80 0 
C 30 80 0 
C 40 80 0 
C 50 80 0 
C 60 80 0 
C 70 80 0 
C 80 80 0 
C 90 80 0 
C 100 80 0 
C 0 90 0 
C 10 90 0 
C 20 90 0 
C 30 90 0 
C 40 90 0 
C 50 90 0 
C 60 90 0 
C 70 90 0 
C 80 90 0 
C 90 90 0 
C 100 90 0 
C 0 100 0 
C 10 100 0 
C 20 100 0 
C 30 100 0 
C 40 100 0 
C 50 100 0 
C 60 100 0 
C 70 100 0 
C 80 100 0 
C 90 100 0 
C 100 100 0 
O 87 99 0 
O 99 67 0 
O 29 60 0 
O 82 32 0 
O 83 73 0 
O 92 49 0 
O 93 31 0 
O 83 9 0 
O 39 51 0 
O 0 21 0 
O 99 8 0 
O 86 12 0 
O 85 70 0 
O 64 0 0 
O 69 48 0 
O 82 67 0 
O 51 8 0 
O 12 23 0 
O 0 27 0 
O 37 56 0 
O 98 66 0 
O 78 70 0 
O 99 1 0 
O 8 9 0 
640
Atoms. Timestep: 8
N 89 14 0 
N 26 60 0 
N 19 75 0 
N 51 91 0 
N 33 23 0 
N 66 23 0 
N 83 66 0 
N 6 50 0 
N 10 53 0 
N 51 30 0 
N 88 66 0 
N 11 4 0 
N 64 31 0 
N 64 6 0 
N 92 90 0 
N 77 77 0 
N 52 84 0 
N 52 59 0 
N 35 35 0 
N 35 67 0 
N 10 87 0 
N 14 82 0 
N 3 10 0 
N 15 82 0 
N 89 30 0 
N 14 31 0 
N 91 77 0 
N 66 48 0 
N 79 97 0 
N 91 31 0 
N 82 10 0 
N 53 9 0 
N 19 25 0 
N 40 84 0 
N 51 76 0 
N 62 91 0 
N 17 86 0 
N 95 9 0 
N 92 66 0 
N 61 96 0 
N 86 98 0 
N 0 37 0 
N 72 24 0 
N 37 52 0 
N 8 94 0 
N 75 26 0 
N 65 18 0 
N 34 6 0 
N 28 61 0 
N 96 49 0 
N 31 21 0 
N 81 58 0 
N 93 66 0 
N 21 3 0 
N 63 3 0 
N 63 82 0 
N 98 9 0 
N 51 9 0 
N 81 11 0 
N 23 95 0 
N 10 49 0 
N 92 31 0 
N 28 60 0 
N 57 48 0 
N 64 22 0 
N 37 49 0 
N 62 75 0 
N 51 40 0 
N 89 75 0 
N 30 18 0 
N 34 22 0 
N 55 24 0 
N 37 42 0 
N 2 21 0 
N 22 28 0 
N 98 71 0 
N 15 81 0 
N 81 93 0 
N 58 65 0 
N 86 9 0 
N 2 22 0 
N 71 70 0 
N 99 66 0 
N 67 96 0 
N 5 30 0 
N 77 79 0 
N 71 10 0 
N 6 62 0 
N 76 65 0 
N 84 33 0 
N 42 20 0 
N 64 33 0 
N 42 19 0 
N 2 95 0 
N 3 47 0 
N 18 79 0 
N 41 82 0 
N 30 23 0 
N 53 85 0 
N 6 31 0 
N 29 56 0 
N 76 9 0 
N 67 47 0 
N 58 64 0 
N 75 69 0 
N 92 24 0 
N 81 96 0 
N 93 39 0 
N 0 35 0 
N 1 24 0 
N 32 94 0 
N 35 62 0 
N 4 54 0 
N 1 72 0 
N 72 48 0 
N 20 24 0 
N 85 49 0 
N 17 83 0 
N 33 7 0 
N 83 83 0 
N 12 82 0 
N 64 76 0 
N 91 97 0 
N 15 22 0 
N 92 64 0 
N 94 8 0 
N 64 2 0 
N 66 51 0 
N 17 61 0 
N 1 12 0 
N 31 61 0 
N 64 69 0 
N 12 29 0 
N 45 60 0 
N 63 92 0 
N 48 43 0 
N 95 8 0 
N 87 98 0 
N 52 90 0 
N 75 65 0 
N 69 46 0 
N 28 86 0 
N 20 77 0 
N 29 49 0 
N 38 48 0 
N 77 64 0 
N 16 78 0 
N 36 62 0 
N 81 9 0 
N 43 60 0 
N 42 51 0 
N 14 60 0 
N 5 72 0 
N 45 23 0 
N 70 93 0 
N 19 93 0 
N 2 49 0 
N 34 26 0 
N 60 79 0 
N 48 23 0 
N 60 54 0 
N 13 67 0 
N 15 27 0 
N 82 9 0 
N 7 72 0 
N 2 8 0 
N 29 19 0 
N 93 76 0 
N 1 81 0 
N 69 47 0 
N 7 39 0 
N 25 89 0 
N 12 38 0 
N 65 91 0 
N 16 9 0 
N 15 80 0 
N 29 58 0 
N 40 22 0 
N 87 45 0 
N 98 37 0 
N 85 15 0 
N 13 39 0 
N 74 77 0 
N 79 6 0 
N 56 9 0 
N 81 13 0 
N 84 90 0 
N 47 92 0 
N 60 96 0 
N 69 44 0 
N 93 49 0 
N 39 56 0 
N 97 73 0 
N 64 84 0 
N 93 33 0 
N 85 71 0 
N 20 32 0 
N 12 92 0 
N 52 71 0 
N 93 32 0 
N 19 82 0 
N 16 60 0 
N 99 79 0 
N 45 63 0 
N 1 66 0 
N 16 89 0 
N 2 1 0 
N 13 36 0 
N 82 32 0 
N 91 34 0 
N 37 56 0 
N 92 35 0 
N 57 79 0 
N 47 61 0 
N 16 6 0 
N 37 84 0 
N 41 78 0 
N 47 93 0 
N 75 15 0 
N 88 93 0 
N 92 22 0 
N 37 31 0 
N 15 66 0 
N 3 49 0 
N 43 71 0 
N 59 45 0 
N 8 95 0 
N 81 32 0 
N 23 32 0 
N 23 85 0 
N 15 10 0 
N 74 25 0 
N 46 87 0 
N 94 66 0 
N 51 8 0 
N 83 74 0 
N 45 67 0 
N 82 91 0 
N 74 30 0 
N 18 9 0 
N 81 62 0 
N 47 52 0 
N 0 71 0 
N 6 65 0 
N 94 50 0 
N 70 81 0 
N 78 10 0 
N 93 67 0 
N 23 22 0 
N 98 36 0 
N 37 91 0 
N 19 78 0 
N 1 87 0 
N 69 57 0 
N 21 82 0 
N 60 67 0 
N 93 23 0 
N 68 75 0 
N 92 25 0 
N 55 36 0 
N 37 89 0 
N 97 37 0 
N 80 9 0 
N 63 88 0 
N 67 29 0 
N 47 90 0 
N 62 3 0 
N 29 64 0 
N 45 83 0 
N 70 28 0 
N 63 42 0 
N 89 86 0 
N 97 63 0 
N 27 60 0 
N 29 61 0 
N 19 35 0 
N 10 8 0 
N 93 24 0 
N 28 22 0 
N 17 77 0 
N 62 72 0 
N 59 60 0 
N 92 77 0 
N 21 84 0 
N 2 65 0 
N 93 28 0 
N 99 71 0 
N 62 29 0 
N 25 45 0 
N 98 76 0 
N 79 34 0 
N 90 51 0 
N 80 23 0 
N 97 72 0 
N 84 79 0 
N 59 48 0 
N 40 19 0 
N 86 76 0 
N 68 51 0 
N 81 59 0 
N 25 27 0 
N 71 79 0 
N 10 37 0 
N 26 12 0 
N 76 59 0 
N 22 94 0 
N 17 66 0 
N 92 50 0 
N 9 28 0 
N 57 50 0 
N 21 6 0 
N 32 13 0 
N 22 63 0 
N 17 62 0 
N 10 9 0 
N 84 93 0 
N 39 83 0 
N 52 56 0 
N 44 85 0 
N 20 23 0 
N 16 27 0 
N 13 25 0 
N 81 35 0 
N 36 36 0 
N 93 51 0 
N 61 36 0 
N 52 20 0 
N 17 82 0 
N 14 65 0 
N 27 11 0 
N 5 32 0 
N 79 32 0 
N 95 49 0 
N 11 29 0 
N 42 81 0 
N 56 36 0 
N 94 91 0 
N 56 37 0 
N 70 47 0 
N 83 72 0 
N 50 72 0 
N 59 47 0 
N 88 99 0 
N 13 9 0 
N 40 85 0 
N 6 1 0 
N 28 50 0 
N 39 51 0 
N 62 55 0 
N 82 34 0 
N 3 30 0 
N 34 36 0 
N 52 64 0 
N 13 23 0 
N 3 31 0 
N 64 70 0 
N 11 10 0 
N 78 8 0 
N 35 66 0 
N 74 23 0 
N 24 79 0 
N 65 20 0 
N 85 92 0 
N 41 48 0 
N 94 9 0 
N 90 6 0 
N 52 8 0 
N 36 56 0 
N 66 50 0 
N 36 17 0 
N 58 86 0 
N 29 83 0 
N 61 3 0 
N 48 5 0 
N 29 82 0 
N 39 49 0 
N 86 12 0 
N 15 65 0 
N 18 38 0 
N 14 29 0 
N 90 47 0 
N 80 93 0 
N 96 8 0 
N 2 62 0 
N 24 86 0 
N 16 93 0 
N 54 51 0 
N 63 5 0 
N 28 62 0 
N 73 76 0 
N 8 49 0 
N 70 1 0 
N 51 27 0 
N 22 87 0 
N 32 42 0 
N 95 72 0 
N 32 6 0 
N 69 49 0 
N 38 51 0 
N 87 97 0 
N 44 93 0 
N 74 10 0 
N 12 31 0 
N 27 85 0 
N 36 94 0 
N 33 73 0 
N 26 9 0 
N 69 38 0 
N 0 8 0 
N 51 12 0 
N 3 79 0 
N 73 78 0 
N 47 77 0 
N 15 79 0 
N 2 20 0 
N 91 51 0 
N 28 64 0 
N 65 75 0 
N 35 8 0 
N 64 1 0 
N 69 24 0 
N 97 4 0 
N 51 86 0 
N 12 41 0 
N 59 77 0 
N 48 37 0 
N 86 4 0 
N 90 49 0 
N 69 21 0 
N 93 48 0 
N 45 34 0 
N 18 96 0 
N 14 91 0 
N 67 5 0 
N 85 3 0 
N 85 68 0 
N 37 35 0 
N 22 37 0 
N 98 84 0 
N 53 7 0 
N 80 34 0 
N 10 11 0 
N 18 91 0 
N 94 7 0 
N 48 87 0 
N 91 89 0 
N 84 91 0 
N 58 85 0 
N 76 25 0 
N 64 81 0 
N 15 59 0 
N 80 24 0 
N 67 52 0 
N 78 22 0 
N 97 66 0 
N 81 39 0 
N 16 64 0 
N 16 23 0 
N 51 23 0 
N 51 33 0 
N 16 84 0 
N 37 3 0 
N 20 92 0 
N 41 56 0 
N 75 23 0 
N 63 36 0 
N 28 84 0 
N 88 50 0 
N 37 81 0 
N 58 80 0 
N 32 29 0 
N 64 3 0 
N 34 35 0 
N 5 37 0 
N 77 10 0 
N 72 25 0 
N 55 48 0 
N 92 37 0 
N 96 42 0 
N 64 72 0 
N 23 84 0 
N 72 9 0 
N 50 8 0 
N 40 82 0 
N 62 27 0 
N 28 63 0 
N 46 7 0 
N 44 90 0 
N 58 52 0 
N 93 8 0 
N 61 61 0 
N 59 26 0 
N 78 93 0 
N 13 32 0 
N 32 9 0 
N 59 51 0 
N 11 37 0 
N 10 82 0 
N 45 8 0 
N 32 69 0 
C 0 0 0 
C 10 0 0 
C 20 0 0 
C 30 0 0 
C 40 0 0 
C 50 0 0 
C 60 0 0 
C 70 0 0 
C 80 0 0 
C 90 0 0 
C 100 0 0 
C 0 10 0 
C 10 10 0 
C 20 10 0 
C 30 10 0 
C 40 10 0 
C 50 10 0 
C 60 10 0 
C 70 10 0 
C 80 10 0 
C 90 10 0 
C 100 10 0 
C 0 20 0 
C 10 20 0 
C 20 20 0 
C 30 20 0 
C 40 20 0 
C 50 20 0 
C 60 20 0 
C 70 20 0 
C 80 20 0 
C 90 20 0 
C 100 20 0 
C 0 30 0 
C 10 30 0 
C 20 30 0 
C 30 30 0 
C 40 30 0 
C 50 30 0 
C 60 30 0 
C 70 30 0 
C 80 30 0 
C 90 30 0 
C 100 30 0 
C 0 40 0 
C 10 40 0 
C 20 40 0 
C 30 40 0 
C 40 40 0 
C 50 40 0 
C 60 40 0 
C 70 40 0 
C 80 40 0 
C 90 40 0 
C 100 40 0 
C 0 50 0 
C 10 50 0 
C 20 50 0 
C 30 50 0 
C 40 50 0 
C 50 50 0 
C 60 50 0 
C 70 50 0 
C 80 50 0 
C 90 50 0 
C 100 50 0 
C 0 60 0 
C 10 60 0 
C 20 60 0 
C 30 60 0 
C 40 60 0 
C 50 60 0 
C 60 60 0 
C 70 60 0 
C 80 60 0 
C 90 60 0 
C 100 60 0 
C 0 70 0 
C 10 70 0 
C 20 70 0 
C 30 70 0 
C 40 70 0 
C 50 70 0 
C 60 70 0 
C 70 70 0 
C 80 70 0 
C 90 70 0 
C 100 70 0 
C 0 80 0 
C 10 80 0 
C 20 80 0 
C 30 80 0 
C 40 80 0 
C 50 80 0 
C 60 80 0 
C 70 80 0 
C 80 80 0 
C 90 80 0 
C 100 80 0 
C 0 90 0 
C 10 90 0 
C 20 90 0 
C 30 90 0 
C 40 90 0 
C 50 90 0 
C 60 90 0 
C 70 90 0 
C 80 90 0 
C 90 90 0 
C 100 90 0 
C 0 100 0 
C 10 100 0 
C 20 100 0 
C 30 100 0 
C 40 100 0 
C 50 100 0 
C 60 100 0 
C 70 100 0 
C 80 100 0 
C 90 100 0 
C 100 100 0 
O 86 99 0 
O 99 68 0 
O 29 59 0 
O 84 73 0 
O 92 49 0 
O 94 31 0 
O 83 8 0 
O 99 21 0 
O 99 7 0 
O 86 70 0 
O 64 99 0 
O 70 48 0 
O 83 67 0 
O 11 23 0 
O 0 26 0 
O 98 65 0 
O 79 70 0 
O 0 1 0 
O 9 9 0 
635
Atoms. Timestep: 9
N 89 13 0 
N 26 59 0 
N 20 75 0 
N 51 92 0 
N 32 23 0 
N 65 23 0 
N 83 67 0 
N 6 51 0 
N 10 54 0 
N 52 30 0 
N 87 66 0 
N 10 4 0 
N 65 31 0 
N 64 7 0 
N 91 90 0 
N 78 77 0 
N 53 84 0 
N 51 59 0 
N 34 35 0 
N 35 66 0 
N 9 87 0 
N 15 82 0 
N 4 10 0 
N 15 81 0 
N 89 31 0 
N 14 30 0 
N 91 76 0 
N 67 48 0 
N 79 96 0 
N 92 31 0 
N 82 9 0 
N 54 9 0 
N 19 24 0 
N 40 83 0 
N 52 76 0 
N 63 91 0 
N 16 86 0 
N 96 9 0 
N 93 66 0 
N 62 96 0 
N 86 99 0 
N 0 37 0 
N 72 23 0 
N 37 53 0 
N 8 93 0 
N 76 26 0 
N 64 18 0 
N 33 6 0 
N 28 62 0 
N 97 49 0 
N 31 22 0 
N 82 58 0 
N 94 66 0 
N 21 2 0 
N 63 4 0 
N 63 83 0 
N 99 9 0 
N 51 10 0 
N 81 10 0 
N 22 95 0 
N 11 49 0 
N 93 31 0 
N 28 59 0 
N 57 48 0 
N 64 23 0 
N 37 50 0 
N 62 74 0 
N 51 41 0 
N 88 75 0 
N 30 17 0 
N 34 23 0 
N 55 25 0 
N 37 43 0 
N 3 21 0 
N 22 27 0 
N 98 70 0 
N 16 81 0 
N 82 93 0 
N 59 65 0 
N 86 8 0 
N 3 22 0 
N 72 70 0 
N 99 67 0 
N 66 96 0 
N 5 29 0 
N 78 79 0 
N 72 10 0 
N 6 63 0 
N 76 66 0 
N 84 32 0 
N 42 21 0 
N 65 33 0 
N 41 19 0 
N 2 94 0 
N 4 47 0 
N 19 79 0 
N 40 82 0 
N 29 23 0 
N 53 86 0 
N 6 30 0 
N 29 57 0 
N 76 8 0 
N 68 47 0 
N 59 64 0 
N 76 69 0 
N 93 24 0 
N 82 96 0 
N 94 39 0 
N 0 36 0 
N 0 24 0 
N 33 94 0 
N 34 62 0 
N 4 55 0 
N 2 72 0 
N 72 49 0 
N 20 23 0 
N 85 50 0 
N 17 82 0 
N 34 7 0 
N 84 83 0 
N 13 82 0 
N 65 76 0 
N 90 97 0 
N 14 22 0 
N 93 64 0 
N 95 8 0 
N 64 3 0 
N 67 51 0 
N 18 61 0 
N 2 12 0 
N 31 60 0 
N 64 70 0 
N 11 29 0 
N 44 60 0 
N 64 92 0 
N 48 44 0 
N 96 8 0 
N 87 98 0 
N 53 90 0 
N 75 66 0 
N 69 47 0 
N 29 86 0 
N 20 76 0 
N 29 50 0 
N 37 48 0 
N 77 65 0 
N 16 77 0 
N 36 61 0 
N 81 8 0 
N 43 59 0 
N 41 51 0 
N 15 60 0 
N 5 71 0 
N 44 23 0 
N 70 94 0 
N 18 93 0 
N 2 50 0 
N 34 25 0 
N 61 79 0 
N 47 23 0 
N 60 55 0 
N 12 67 0 
N 14 27 0 
N 83 9 0 
N 7 71 0 
N 2 7 0 
N 28 19 0 
N 93 75 0 
N 1 80 0 
N 70 47 0 
N 7 38 0 
N 25 88 0 
N 11 38 0 
N 64 91 0 
N 16 8 0 
N 15 79 0 
N 30 58 0 
N 40 23 0 
N 88 45 0 
N 98 36 0 
N 85 14 0 
N 13 38 0 
N 75 77 0 
N 80 6 0 
N 56 10 0 
N 82 13 0 
N 85 90 0 
N 48 92 0 
N 60 97 0 
N 69 45 0 
N 93 48 0 
N 39 57 0 
N 98 73 0 
N 64 85 0 
N 93 32 0 
N 86 71 0 
N 21 32 0 
N 12 91 0 
N 53 71 0 
N 94 32 0 
N 19 81 0 
N 17 60 0 
N 99 78 0 
N 45 62 0 
N 2 66 0 
N 15 89 0 
N 1 1 0 
N 12 36 0 
N 82 31 0 
N 92 34 0 
N 36 56 0 
N 93 35 0 
N 57 80 0 
N 46 61 0 
N 16 7 0 
N 37 83 0 
N 41 77 0 
N 48 93 0 
N 75 14 0 
N 87 93 0 
N 93 22 0 
N 36 31 0 
N 16 66 0 
N 3 50 0 
N 43 70 0 
N 59 46 0 
N 7 95 0 
N 81 31 0 
N 23 31 0 
N 23 84 0 
N 14 10 0 
N 75 25 0 
N 47 87 0 
N 94 65 0 
N 52 8 0 
N 83 73 0 
N 45 66 0 
N 83 91 0 
N 74 31 0 
N 18 8 0 
N 82 62 0 
N 46 52 0 
N 1 71 0 
N 7 65 0 
N 94 50 0 
N 71 81 0 
N 79 10 0 
N 94 67 0 
N 23 23 0 
N 98 35 0 
N 37 92 0 
N 20 78 0 
N 1 86 0 
N 70 57 0 
N 22 82 0 
N 60 68 0 
N 94 23 0 
N 68 74 0 
N 93 25 0 
N 56 36 0 
N 37 90 0 
N 97 36 0 
N 80 8 0 
N 63 89 0 
N 67 30 0 
N 48 90 0 
N 62 4 0 
N 29 64 0 
N 45 84 0 
N 71 28 0 
N 63 41 0 
N 88 86 0 
N 98 63 0 
N 27 61 0 
N 29 60 0 
N 19 34 0 
N 11 8 0 
N 94 24 0 
N 28 23 0 
N 18 77 0 
N 62 71 0 
N 59 61 0 
N 93 77 0 
N 22 84 0 
N 1 65 0 
N 93 29 0 
N 99 70 0 
N 63 29 0 
N 26 45 0 
N 98 75 0 
N 79 33 0 
N 90 52 0 
N 80 22 0 
N 98 72 0 
N 83 79 0 
N 58 48 0 
N 39 19 0 
N 85 76 0 
N 69 51 0 
N 82 59 0 
N 25 26 0 
N 70 79 0 
N 10 36 0 
N 25 12 0 
N 77 59 0 
N 21 94 0 
N 17 65 0 
N 92 49 0 
N 10 28 0 
N 57 49 0 
N 21 7 0 
N 32 14 0 
N 22 62 0 
N 18 62 0 
N 9 9 0 
N 84 94 0 
N 38 83 0 
N 52 57 0 
N 44 86 0 
N 19 23 0 
N 16 26 0 
N 12 25 0 
N 81 34 0 
N 35 36 0 
N 93 50 0 
N 61 35 0 
N 52 21 0 
N 17 81 0 
N 15 65 0 
N 26 11 0 
N 4 32 0 
N 79 31 0 
N 94 49 0 
N 11 28 0 
N 42 80 0 
N 56 35 0 
N 94 92 0 
N 57 37 0 
N 70 48 0 
N 84 72 0 
N 51 72 0 
N 60 47 0 
N 87 99 0 
N 12 9 0 
N 39 85 0 
N 5 1 0 
N 27 50 0 
N 38 51 0 
N 63 55 0 
N 82 33 0 
N 2 30 0 
N 34 37 0 
N 52 63 0 
N 12 23 0 
N 2 31 0 
N 65 70 0 
N 11 9 0 
N 79 8 0 
N 34 66 0 
N 75 23 0 
N 24 78 0 
N 65 21 0 
N 85 93 0 
N 41 49 0 
N 94 10 0 
N 90 5 0 
N 53 8 0 
N 35 56 0 
N 67 50 0 
N 36 18 0 
N 59 86 0 
N 29 82 0 
N 61 4 0 
N 48 6 0 
N 28 82 0 
N 38 49 0 
N 85 12 0 
N 16 65 0 
N 17 38 0 
N 14 28 0 
N 91 47 0 
N 80 94 0 
N 97 8 0 
N 3 62 0 
N 25 86 0 
N 16 92 0 
N 54 50 0 
N 63 6 0 
N 29 62 0 
N 73 75 0 
N 9 49 0 
N 69 1 0 
N 51 28 0 
N 22 86 0 
N 31 42 0 
N 95 71 0 
N 32 7 0 
N 69 48 0 
N 37 51 0 
N 86 97 0 
N 45 93 0 
N 74 9 0 
N 12 30 0 
N 27 84 0 
N 36 95 0 
N 32 73 0 
N 25 9 0 
N 69 39 0 
N 1 8 0 
N 51 13 0 
N 3 78 0 
N 74 78 0 
N 47 76 0 
N 15 78 0 
N 3 20 0 
N 91 50 0 
N 28 63 0 
N 65 74 0 
N 35 9 0 
N 64 1 0 
N 70 24 0 
N 97 5 0 
N 51 87 0 
N 12 40 0 
N 60 77 0 
N 49 37 0 
N 86 5 0 
N 91 49 0 
N 70 21 0 
N 92 48 0 
N 45 35 0 
N 17 96 0 
N 13 91 0 
N 66 5 0 
N 86 3 0 
N 86 68 0 
N 36 35 0 
N 21 37 0 
N 98 83 0 
N 54 7 0 
N 80 33 0 
N 9 11 0 
N 18 90 0 
N 95 7 0 
N 48 88 0 
N 90 89 0 
N 84 92 0 
N 59 85 0 
N 77 25 0 
N 63 81 0 
N 16 59 0 
N 81 24 0 
N 68 52 0 
N 79 22 0 
N 98 66 0 
N 81 40 0 
N 17 64 0 
N 15 23 0 
N 51 24 0 
N 52 33 0 
N 15 84 0 
N 37 4 0 
N 20 91 0 
N 42 56 0 
N 75 22 0 
N 63 37 0 
N 29 84 0 
N 89 50 0 
N 36 81 0 
N 58 81 0 
N 31 29 0 
N 64 4 0 
N 33 35 0 
N 5 36 0 
N 77 9 0 
N 72 26 0 
N 56 48 0 
N 93 37 0 
N 96 43 0 
N 65 72 0 
N 23 83 0 
N 72 8 0 
N 50 9 0 
N 40 81 0 
N 63 27 0 
N 29 63 0 
N 46 8 0 
N 45 90 0 
N 59 52 0 
N 93 7 0 
N 62 61 0 
N 60 26 0 
N 78 94 0 
N 13 31 0 
N 31 9 0 
N 60 51 0 
N 11 36 0 
N 11 82 0 
N 45 9 0 
N 32 68 0 
C 0 0 0 
C 10 0 0 
C 20 0 0 
C 30 0 0 
C 40 0 0 
C 50 0 0 
C 60 0 0 
C 70 0 0 
C 80 0 0 
C 90 0 0 
C 100 0 0 
C 0 10 0 
C 10 10 0 
C 20 10 0 
C 30 10 0 
C 40 10 0 
C 50 10 0 
C 60 10 0 
C 70 10 0 
C 80 10 0 
C 90 10 0 
C 100 10 0 
C 0 20 0 
C 10 20 0 
C 20 20 0 
C 30 20 0 
C 40 20 0 
C 50 20 0 
C 60 20 0 
C 70 20 0 
C 80 20 0 
C 90 20 0 
C 100 20 0 
C 0 30 0 
C 10 30 0 
C 20 30 0 
C 30 30 0 
C 40 30 0 
C 50 30 0 
C 60 30 0 
C 70 30 0 
C 80 30 0 
C 90 30 0 
C 100 30 0 
C 0 40 0 
C 10 40 0 
C 20 40 0 
C 30 40 0 
C 40 40 0 
C 50 40 0 
C 60 40 0 
C 70 40 0 
C 80 40 0 
C 90 40 0 
C 100 40 0 
C 0 50 0 
C 10 50 0 
C 20 50 0 
C 30 50 0 
C 40 50 0 
C 50 50 0 
C 60 50 0 
C 70 50 0 
C 80 50 0 
C 90 50 0 
C 100 50 0 
C 0 60 0 
C 10 60 0 
C 20 60 0 
C 30 60 0 
C 40 60 0 
C 50 60 0 
C 60 60 0 
C 70 60 0 
C 80 60 0 
C 90 60 0 
C 100 60 0 
C 0 70 0 
C 10 70 0 
C 20 70 0 
C 30 70 0 
C 40 70 0 
C 50 70 0 
C 60 70 0 
C 70 70 0 
C 80 70 0 
C 90 70 0 
C 100 70 0 
C 0 80 0 
C 10 80 0 
C 20 80 0 
C 30 80 0 
C 40 80 0 
C 50 80 0 
C 60 80 0 
C 70 80 0 
C 80 80 0 
C 90 80 0 
C 100 80 0 
C 0 90 0 
C 10 90 0 
C 20 90 0 
C 30 90 0 
C 40 90 0 
C 50 90 0 
C 60 90 0 
C 70 90 0 
C 80 90 0 
C 90 90 0 
C 100 90 0 
C 0 100 0 
C 10 100 0 
C 20 100 0 
C 30 100 0 
C 40 100 0 
C 50 100 0 
C 60 100 0 
C 70 100 0 
C 80 100 0 
C 90 100 0 
C 100 100 0 
O 99 69 0 
O 30 59 0 
O 85 73 0 
O 95 31 0 
O 83 7 0 
O 0 21 0 
O 99 6 0 
O 87 70 0 
O 65 99 0 
O 11 22 0 
O 99 26 0 
O 99 65 0 
O 79 71 0 
O 99 1 0 
633
Atoms. Timestep: 10
N 89 12 0 
N 27 59 0 
N 21 75 0 
N 51 93 0 
N 31 23 0 
N 64 23 0 
N 84 67 0 
N 6 52 0 
N 11 54 0 
N 53 30 0 
N 87 67 0 
N 10 5 0 
N 65 30 0 
N 64 8 0 
N 92 90 0 
N 78 76 0 
N 54 84 0 
N 51 60 0 
N 33 35 0 
N 35 65 0 
N 9 86 0 
N 16 82 0 
N 4 9 0 
N 16 81 0 
N 90 31 0 
N 14 29 0 
N 91 75 0 
N 67 49 0 
N 80 96 0 
N 93 31 0 
N 82 8 0 
N 55 9 0 
N 18 24 0 
N 41 83 0 
N 53 76 0 
N 64 91 0 
N 16 85 0 
N 97 9 0 
N 93 65 0 
N 62 97 0 
N 85 99 0 
N 0 36 0 
N 72 22 0 
N 37 54 0 
N 8 92 0 
N 76 26 0 
N 64 19 0 
N 34 6 0 
N 29 62 0 
N 97 50 0 
N 30 22 0 
N 81 58 0 
N 94 65 0 
N 21 1 0 
N 64 4 0 
N 64 83 0 
N 99 8 0 
N 51 11 0 
N 82 10 0 
N 22 94 0 
N 11 48 0 
N 94 31 0 
N 29 59 0 
N 58 48 0 
N 64 24 0 
N 37 49 0 
N 63 74 0 
N 52 41 0 
N 87 75 0 
N 29 17 0 
N 34 22 0 
N 56 25 0 
N 36 43 0 
N 2 21 0 
N 21 27 0 
N 98 69 0 
N 16 80 0 
N 83 93 0 
N 59 66 0 
N 85 8 0 
N 2 22 0 
N 72 71 0 
N 99 66 0 
N 66 97 0 
N 5 28 0 
N 79 79 0 
N 72 9 0 
N 7 63 0 
N 76 67 0 
N 84 31 0 
N 42 22 0 
N 65 32 0 
N 41 20 0 
N 2 93 0 
N 4 48 0 
N 19 78 0 
N 41 82 0 
N 29 22 0 
N 53 87 0 
N 6 29 0 
N 29 58 0 
N 76 7 0 
N 68 48 0 
N 60 64 0 
N 77 69 0 
N 93 25 0 
N 83 96 0 
N 95 39 0 
N 1 36 0 
N 0 23 0 
N 33 95 0 
N 34 63 0 
N 4 56 0 
N 3 72 0 
N 73 49 0 
N 19 23 0 
N 85 51 0 
N 17 81 0 
N 35 7 0 
N 85 83 0 
N 13 81 0 
N 65 75 0 
N 91 97 0 
N 13 22 0 
N 94 64 0 
N 96 8 0 
N 65 3 0 
N 67 52 0 
N 18 62 0 
N 3 12 0 
N 31 61 0 
N 64 71 0 
N 11 29 0 
N 45 60 0 
N 65 92 0 
N 48 45 0 
N 97 8 0 
N 86 98 0 
N 54 90 0 
N 75 67 0 
N 70 47 0 
N 30 86 0 
N 21 76 0 
N 29 51 0 
N 38 48 0 
N 77 66 0 
N 17 77 0 
N 36 62 0 
N 81 7 0 
N 44 59 0 
N 41 52 0 
N 15 61 0 
N 6 71 0 
N 44 22 0 
N 69 94 0 
N 18 92 0 
N 2 49 0 
N 34 24 0 
N 62 79 0 
N 47 22 0 
N 59 55 0 
N 12 66 0 
N 14 26 0 
N 83 10 0 
N 7 70 0 
N 2 6 0 
N 28 20 0 
N 92 75 0 
N 1 79 0 
N 70 48 0 
N 7 37 0 
N 26 88 0 
N 11 37 0 
N 65 91 0 
N 17 8 0 
N 15 78 0 
N 30 59 0 
N 39 23 0 
N 89 45 0 
N 97 36 0 
N 85 13 0 
N 13 37 0 
N 76 77 0 
N 81 6 0 
N 57 10 0 
N 83 13 0 
N 85 89 0 
N 48 93 0 
N 61 97 0 
N 69 46 0 
N 93 47 0 
N 38 57 0 
N 99 73 0 
N 64 86 0 
N 94 32 0 
N 86 70 0 
N 20 32 0 
N 13 91 0 
N 54 71 0 
N 95 32 0 
N 19 80 0 
N 18 60 0 
N 99 77 0 
N 44 62 0 
N 3 66 0 
N 16 89 0 
N 2 1 0 
N 11 36 0 
N 83 31 0 
N 93 34 0 
N 35 56 0 
N 94 35 0 
N 57 81 0 
N 45 61 0 
N 17 7 0 
N 38 83 0 
N 41 76 0 
N 48 94 0 
N 76 14 0 
N 86 93 0 
N 92 22 0 
N 35 31 0 
N 17 66 0 
N 3 51 0 
N 43 69 0 
N 58 46 0 
N 7 94 0 
N 81 31 0 
N 22 31 0 
N 23 83 0 
N 13 10 0 
N 76 25 0 
N 47 88 0 
N 95 65 0 
N 52 9 0 
N 84 73 0 
N 44 66 0 
N 83 90 0 
N 75 31 0 
N 18 7 0 
N 81 62 0 
N 46 53 0 
N 1 70 0 
N 8 65 0 
N 95 50 0 
N 72 81 0 
N 79 9 0 
N 95 67 0 
N 22 23 0 
N 98 34 0 
N 37 93 0 
N 20 77 0 
N 1 85 0 
N 70 58 0 
N 22 81 0 
N 61 68 0 
N 93 23 0 
N 69 74 0 
N 94 25 0 
N 57 36 0 
N 38 90 0 
N 96 36 0 
N 80 7 0 
N 63 90 0 
N 67 31 0 
N 49 90 0 
N 62 5 0 
N 30 64 0 
N 45 85 0 
N 72 28 0 
N 64 41 0 
N 87 86 0 
N 98 64 0 
N 27 60 0 
N 29 61 0 
N 18 34 0 
N 12 8 0 
N 95 24 0 
N 28 22 0 
N 18 76 0 
N 63 71 0 
N 59 62 0 
N 92 77 0 
N 22 83 0 
N 2 65 0 
N 93 30 0 
N 99 69 0 
N 64 29 0 
N 27 45 0 
N 98 74 0 
N 80 33 0 
N 91 52 0 
N 80 21 0 
N 98 71 0 
N 82 79 0 
N 58 49 0 
N 38 19 0 
N 85 77 0 
N 70 51 0 
N 81 59 0 
N 24 26 0 
N 70 78 0 
N 10 35 0 
N 24 12 0 
N 77 60 0 
N 21 93 0 
N 18 65 0 
N 92 48 0 
N 11 28 0 
N 57 50 0 
N 22 7 0 
N 31 14 0 
N 23 62 0 
N 19 62 0 
N 10 9 0 
N 83 94 0 
N 38 82 0 
N 51 57 0 
N 45 86 0 
N 18 23 0 
N 15 26 0 
N 11 25 0 
N 81 33 0 
N 34 36 0 
N 93 49 0 
N 61 34 0 
N 52 22 0 
N 17 80 0 
N 15 65 0 
N 26 12 0 
N 5 32 0 
N 80 31 0 
N 95 49 0 
N 11 27 0 
N 41 80 0 
N 57 35 0 
N 94 91 0 
N 58 37 0 
N 71 48 0 
N 85 72 0 
N 51 71 0 
N 60 48 0 
N 87 99 0 
N 12 10 0 
N 38 85 0 
N 6 1 0 
N 28 50 0 
N 37 51 0 
N 64 55 0 
N 83 33 0 
N 3 30 0 
N 33 37 0 
N 52 62 0 
N 12 22 0 
N 3 31 0 
N 65 71 0 
N 11 10 0 
N 79 7 0 
N 33 66 0 
N 75 22 0 
N 24 77 0 
N 65 22 0 
N 84 93 0 
N 41 50 0 
N 94 9 0 
N 89 5 0 
N 53 9 0 
N 34 56 0 
N 68 50 0 
N 36 19 0 
N 60 86 0 
N 29 81 0 
N 61 5 0 
N 48 7 0 
N 28 81 0 
N 38 50 0 
N 84 12 0 
N 16 65 0 
N 17 37 0 
N 13 28 0 
N 90 47 0 
N 81 94 0 
N 97 7 0 
N 3 63 0 
N 25 85 0 
N 17 92 0 
N 53 50 0 
N 62 6 0 
N 30 62 0 
N 73 74 0 
N 9 50 0 
N 68 1 0 
N 52 28 0 
N 22 85 0 
N 31 43 0 
N 96 71 0 
N 32 6 0 
N 69 49 0 
N 37 52 0 
N 85 97 0 
N 46 93 0 
N 74 8 0 
N 11 30 0 
N 27 83 0 
N 36 96 0 
N 32 72 0 
N 25 10 0 
N 70 39 0 
N 1 7 0 
N 52 13 0 
N 4 78 0 
N 74 77 0 
N 46 76 0 
N 16 78 0 
N 2 20 0 
N 92 50 0 
N 29 63 0 
N 65 73 0 
N 35 10 0 
N 64 2 0 
N 70 23 0 
N 98 5 0 
N 51 88 0 
N 11 40 0 
N 60 76 0 
N 48 37 0 
N 86 6 0 
N 91 48 0 
N 71 21 0 
N 92 47 0 
N 44 35 0 
N 17 95 0 
N 13 90 0 
N 66 6 0 
N 86 4 0 
N 87 68 0 
N 35 35 0 
N 21 36 0 
N 99 83 0 
N 54 8 0 
N 80 32 0 
N 9 12 0 
N 19 90 0 
N 96 7 0 
N 48 89 0 
N 90 88 0 
N 83 92 0 
N 60 85 0 
N 77 26 0 
N 64 81 0 
N 17 59 0 
N 82 24 0 
N 69 52 0 
N 79 21 0 
N 98 65 0 
N 81 39 0 
N 17 63 0 
N 14 23 0 
N 52 24 0 
N 53 33 0 
N 16 84 0 
N 37 5 0 
N 21 91 0 
N 42 57 0 
N 75 21 0 
N 63 36 0 
N 30 84 0 
N 88 50 0 
N 35 81 0 
N 58 82 0 
N 30 29 0 
N 65 4 0 
N 33 36 0 
N 5 35 0 
N 78 9 0 
N 73 26 0 
N 56 49 0 
N 93 36 0 
N 95 43 0 
N 66 72 0 
N 23 82 0 
N 72 7 0 
N 51 9 0 
N 41 81 0 
N 64 27 0 
N 30 63 0 
N 47 8 0 
N 46 90 0 
N 58 52 0 
N 93 6 0 
N 63 61 0 
N 60 27 0 
N 79 94 0 
N 13 30 0 
N 30 9 0 
N 60 52 0 
N 11 35 0 
N 12 82 0 
N 45 10 0 
N 31 68 0 
C 0 0 0 
C 10 0 0 
C 20 0 0 
C 30 0 0 
C 40 0 0 
C 50 0 0 
C 60 0 0 
C 70 0 0 
C 80 0 0 
C 90 0 0 
C 100 0 0 
C 0 10 0 
C 10 10 0 
C 20 10 0 
C 30 10 0 
C 40 10 0 
C 50 10 0 
C 60 10 0 
C 70 10 0 
C 80 10 0 
C 90 10 0 
C 100 10 0 
C 0 20 0 
C 10 20 0 
C 20 20 0 
C 30 20 0 
C 40 20 0 
C 50 20 0 
C 60 20 0 
C 70 20 0 
C 80 20 0 
C 90 20 0 
C 100 20 0 
C 0 30 0 
C 10 30 0 
C 20 30 0 
C 30 30 0 
C 40 30 0 
C 50 30 0 
C 60 30 0 
C 70 30 0 
C 80 30 0 
C 90 30 0 
C 100 30 0 
C 0 40 0 
C 10 40 0 
C 20 40 0 
C 30 40 0 
C 40 40 0 
C 50 40 0 
C 60 40 0 
C 70 40 0 
C 80 40 0 
C 90 40 0 
C 100 40 0 
C 0 50 0 
C 10 50 0 
C 20 50 0 
C 30 50 0 
C 40 50 0 
C 50 50 0 
C 60 50 0 
C 70 50 0 
C 80 50 0 
C 90 50 0 
C 100 50 0 
C 0 60 0 
C 10 60 0 
C 20 60 0 
C 30 60 0 
C 40 60 0 
C 50 60 0 
C 60 60 0 
C 70 60 0 
C 80 60 0 
C 90 60 0 
C 100 60 0 
C 0 70 0 
C 10 70 0 
C 20 70 0 
C 30 70 0 
C 40 70 0 
C 50 70 0 
C 60 70 0 
C 70 70 0 
C 80 70 0 
C 90 70 0 
C 100 70 0 
C 0 80 0 
C 10 80 0 
C 20 80 0 
C 30 80 0 
C 40 80 0 
C 50 80 0 
C 60 80 0 
C 70 80 0 
C 80 80 0 
C 90 80 0 
C 100 80 0 
C 0 90 0 
C 10 90 0 
C 20 90 0 
C 30 90 0 
C 40 90 0 
C 50 90 0 
C 60 90 0 
C 70 90 0 
C 80 90 0 
C 90 90 0 
C 100 90 0 
C 0 100 0 
C 10 100 0 
C 20 100 0 
C 30 100 0 
C 40 100 0 
C 50 100 0 
C 60 100 0 
C 70 100 0 
C 80 100 0 
C 90 100 0 
C 100 100 0 
O 85 74 0 
O 95 30 0 
O 83 6 0 
O 99 21 0 
O 0 6 0 
O 88 70 0 
O 64 99 0 
O 11 21 0 
O 0 26 0 
O 0 65 0 
O 78 71 0 
O 0 1 0 
633
Atoms. Timestep: 11
N 88 12 0 
N 26 59 0 
N 21 74 0 
N 52 93 0 
N 30 23 0 
N 64 24 0 
N 84 68 0 
N 5 52 0 
N 11 55 0 
N 52 30 0 
N 87 68 0 
N 10 6 0 
N 66 30 0 
N 64 9 0 
N 91 90 0 
N 78 75 0 
N 55 84 0 
N 51 61 0 
N 32 35 0 
N 34 65 0 
N 8 86 0 
N 16 81 0 
N 3 9 0 
N 15 81 0 
N 91 31 0 
N 14 28 0 
N 90 75 0 
N 67 50 0 
N 80 95 0 
N 93 30 0 
N 83 8 0 
N 55 8 0 
N 18 23 0 
N 42 83 0 
N 53 75 0 
N 64 91 0 
N 16 84 0 
N 97 8 0 
N 92 65 0 
N 62 98 0 
N 85 98 0 
N 0 35 0 
N 73 22 0 
N 37 55 0 
N 8 91 0 
N 76 27 0 
N 64 20 0 
N 33 6 0 
N 29 63 0 
N 96 50 0 
N 30 21 0 
N 80 58 0 
N 94 65 0 
N 20 1 0 
N 64 5 0 
N 64 84 0 
N 98 8 0 
N 51 12 0 
N 82 9 0 
N 21 94 0 
N 11 47 0 
N 94 32 0 
N 29 60 0 
N 59 48 0 
N 64 25 0 
N 37 50 0 
N 64 74 0 
N 53 41 0 
N 87 74 0 
N 29 18 0 
N 34 21 0 
N 56 24 0 
N 35 43 0 
N 3 21 0 
N 21 26 0 
N 97 69 0 
N 16 79 0 
N 83 92 0 
N 60 66 0 
N 85 7 0 
N 3 22 0 
N 73 71 0 
N 98 66 0 
N 65 97 0 
N 4 28 0 
N 78 79 0 
N 73 9 0 
N 7 64 0 
N 76 68 0 
N 85 31 0 
N 41 22 0 
N 66 32 0 
N 41 21 0 
N 2 92 0 
N 3 48 0 
N 19 77 0 
N 42 82 0 
N 29 21 0 
N 54 87 0 
N 6 28 0 
N 28 58 0 
N 76 6 0 
N 69 48 0 
N 61 64 0 
N 77 70 0 
N 94 25 0 
N 83 95 0 
N 95 38 0 
N 1 35 0 
N 1 23 0 
N 33 96 0 
N 33 63 0 
N 4 55 0 
N 2 72 0 
N 73 50 0 
N 19 22 0 
N 86 51 0 
N 17 80 0 
N 34 7 0 
N 85 82 0 
N 12 81 0 
N 66 75 0 
N 90 97 0 
N 13 21 0 
N 94 63 0 
N 96 7 0 
N 65 4 0 
N 67 53 0 
N 17 62 0 
N 3 11 0 
N 31 62 0 
N 65 71 0 
N 11 28 0 
N 46 60 0 
N 64 92 0 
N 48 44 0 
N 97 7 0 
N 86 97 0 
N 55 90 0 
N 75 68 0 
N 71 47 0 
N 30 85 0 
N 21 76 0 
N 29 52 0 
N 37 48 0 
N 78 66 0 
N 17 77 0 
N 35 62 0 
N 82 7 0 
N 44 60 0 
N 41 51 0 
N 14 61 0 
N 5 71 0 
N 43 22 0 
N 68 94 0 
N 18 91 0 
N 1 49 0 
N 33 24 0 
N 62 80 0 
N 46 22 0 
N 60 55 0 
N 12 65 0 
N 14 25 0 
N 83 9 0 
N 7 69 0 
N 1 6 0 
N 27 20 0 
N 92 74 0 
N 0 79 0 
N 71 48 0 
N 6 37 0 
N 25 88 0 
N 11 37 0 
N 65 91 0 
N 16 8 0 
N 14 78 0 
N 30 59 0 
N 38 23 0 
N 89 44 0 
N 97 35 0 
N 85 12 0 
N 12 37 0 
N 76 76 0 
N 82 6 0 
N 58 10 0 
N 83 13 0 
N 85 88 0 
N 48 94 0 
N 61 98 0 
N 70 46 0 
N 93 46 0 
N 39 57 0 
N 99 72 0 
N 64 87 0 
N 95 32 0 
N 87 70 0 
N 19 32 0 
N 12 91 0 
N 55 71 0 
N 95 31 0 
N 18 80 0 
N 18 61 0 
N 99 76 0 
N 44 61 0 
N 3 65 0 
N 16 88 0 
N 1 1 0 
N 11 36 0 
N 83 30 0 
N 92 34 0 
N 35 57 0 
N 94 34 0 
N 58 81 0 
N 45 62 0 
N 17 6 0 
N 38 84 0 
N 41 75 0 
N 49 94 0 
N 76 15 0 
N 85 93 0 
N 92 21 0 
N 35 30 0 
N 16 66 0 
N 3 52 0 
N 43 70 0 
N 58 47 0 
N 6 94 0 
N 82 31 0 
N 21 31 0 
N 23 82 0 
N 13 11 0 
N 77 25 0 
N 47 89 0 
N 95 65 0 
N 52 10 0 
N 84 74 0 
N 44 67 0 
N 83 89 0 
N 75 30 0 
N 18 6 0 
N 80 62 0 
N 46 54 0 
N 1 69 0 
N 7 65 0 
N 95 49 0 
N 73 81 0 
N 79 8 0 
N 94 67 0 
N 21 23 0 
N 98 33 0 
N 37 94 0 
N 20 76 0 
N 1 84 0 
N 70 59 0 
N 21 81 0 
N 61 69 0 
N 93 22 0 
N 70 74 0 
N 94 26 0 
N 57 35 0 
N 39 90 0 
N 96 35 0 
N 80 6 0 
N 64 90 0 
N 68 31 0 
N 49 91 0 
N 63 5 0 
N 29 64 0 
N 45 86 0 
N 73 28 0 
N 64 40 0 
N 88 86 0 
N 98 65 0 
N 26 60 0 
N 28 61 0 
N 17 34 0 
N 11 8 0 
N 95 25 0 
N 28 21 0 
N 17 76 0 
N 63 71 0 
N 60 62 0 
N 91 77 0 
N 22 82 0 
N 1 65 0 
N 94 30 0 
N 99 68 0 
N 64 30 0 
N 27 44 0 
N 98 73 0 
N 81 33 0 
N 91 53 0 
N 81 21 0 
N 97 71 0 
N 82 78 0 
N 59 49 0 
N 38 20 0 
N 85 76 0 
N 71 51 0 
N 81 60 0 
N 24 25 0 
N 70 77 0 
N 11 35 0 
N 24 13 0 
N 77 61 0 
N 21 92 0 
N 17 65 0 
N 93 48 0 
N 11 27 0 
N 57 51 0 
N 22 6 0 
N 30 14 0 
N 22 62 0 
N 19 63 0 
N 9 9 0 
N 83 94 0 
N 39 82 0 
N 52 57 0 
N 45 87 0 
N 17 23 0 
N 15 25 0 
N 11 24 0 
N 82 33 0 
N 34 35 0 
N 94 49 0 
N 61 33 0 
N 53 22 0 
N 17 79 0 
N 14 65 0 
N 26 13 0 
N 4 32 0 
N 80 31 0 
N 95 48 0 
N 11 26 0 
N 41 81 0 
N 57 34 0 
N 93 91 0 
N 59 37 0 
N 72 48 0 
N 85 73 0 
N 52 71 0 
N 60 49 0 
N 87 98 0 
N 11 10 0 
N 38 86 0 
N 5 1 0 
N 28 51 0 
N 37 52 0 
N 64 56 0 
N 84 33 0 
N 2 30 0 
N 32 37 0 
N 53 62 0 
N 11 22 0 
N 2 31 0 
N 66 71 0 
N 11 11 0 
N 79 6 0 
N 32 66 0 
N 75 21 0 
N 24 76 0 
N 65 23 0 
N 84 92 0 
N 41 49 0 
N 94 8 0 
N 89 6 0 
N 53 10 0 
N 34 57 0 
N 69 50 0 
N 35 19 0 
N 61 86 0 
N 28 81 0 
N 61 6 0 
N 48 8 0 
N 28 80 0 
N 38 49 0 
N 83 12 0 
N 16 65 0 
N 17 36 0 
N 13 27 0 
N 90 46 0 
N 81 93 0 
N 97 6 0 
N 3 64 0 
N 24 85 0 
N 16 92 0 
N 53 51 0 
N 62 7 0 
N 30 62 0 
N 73 73 0 
N 9 51 0 
N 67 1 0 
N 53 28 0 
N 22 84 0 
N 31 42 0 
N 96 70 0 
N 31 6 0 
N 70 49 0 
N 36 52 0 
N 84 97 0 
N 47 93 0 
N 75 8 0 
N 11 30 0 
N 26 83 0 
N 36 97 0 
N 31 72 0 
N 25 11 0 
N 71 39 0 
N 0 7 0 
N 53 13 0 
N 3 78 0 
N 75 77 0 
N 46 75 0 
N 16 77 0 
N 3 20 0 
N 93 50 0 
N 28 63 0 
N 65 72 0 
N 35 11 0 
N 64 3 0 
N 71 23 0 
N 98 6 0 
N 52 88 0 
N 11 39 0 
N 60 75 0 
N 47 37 0 
N 85 6 0 
N 91 47 0 
N 72 21 0 
N 92 46 0 
N 43 35 0 
N 17 94 0 
N 12 90 0 
N 66 7 0 
N 86 5 0 
N 87 69 0 
N 35 34 0 
N 21 35 0 
N 99 82 0 
N 54 9 0 
N 81 32 0 
N 10 12 0 
N 18 90 0 
N 95 7 0 
N 48 90 0 
N 90 87 0 
N 83 91 0 
N 61 85 0 
N 77 27 0 
N 64 82 0 
N 16 59 0 
N 83 24 0 
N 69 53 0 
N 79 20 0 
N 97 65 0 
N 82 39 0 
N 17 64 0 
N 14 22 0 
N 52 25 0 
N 53 32 0 
N 16 83 0 
N 37 6 0 
N 20 91 0 
N 41 57 0 
N 75 20 0 
N 63 35 0 
N 29 84 0 
N 88 51 0 
N 36 81 0 
N 59 82 0 
N 30 28 0 
N 65 5 0 
N 32 36 0 
N 4 35 0 
N 78 8 0 
N 74 26 0 
N 56 50 0 
N 94 36 0 
N 95 42 0 
N 67 72 0 
N 23 81 0 
N 73 7 0 
N 51 10 0 
N 40 81 0 
N 64 28 0 
N 30 63 0 
N 47 9 0 
N 46 91 0 
N 58 53 0 
N 92 6 0 
N 63 62 0 
N 61 27 0 
N 80 94 0 
N 13 29 0 
N 29 9 0 
N 60 53 0 
N 11 34 0 
N 11 82 0 
N 45 11 0 
N 31 67 0 
C 0 0 0 
C 10 0 0 
C 20 0 0 
C 30 0 0 
C 40 0 0 
C 50 0 0 
C 60 0 0 
C 70 0 0 
C 80 0 0 
C 90 0 0 
C 100 0 0 
C 0 10 0 
C 10 10 0 
C 20 10 0 
C 30 10 0 
C 40 10 0 
C 50 10 0 
C 60 10 0 
C 70 10 0 
C 80 10 0 
C 90 10 0 
C 100 10 0 
C 0 20 0 
C 10 20 0 
C 20 20 0 
C 30 20 0 
C 40 20 0 
C 50 20 0 
C 60 20 0 
C 70 20 0 
C 80 20 0 
C 90 20 0 
C 100 20 0 
C 0 30 0 
C 10 30 0 
C 20 30 0 
C 30 30 0 
C 40 30 0 
C 50 30 0 
C 60 30 0 
C 70 30 0 
C 80 30 0 
C 90 30 0 
C 100 30 0 
C 0 40 0 
C 10 40 0 
C 20 40 0 
C 30 40 0 
C 40 40 0 
C 50 40 0 
C 60 40 0 
C 70 40 0 
C 80 40 0 
C 90 40 0 
C 100 40 0 
C 0 50 0 
C 10 50 0 
C 20 50 0 
C 30 50 0 
C 40 50 0 
C 50 50 0 
C 60 50 0 
C 70 50 0 
C 80 50 0 
C 90 50 0 
C 100 50 0 
C 0 60 0 
C 10 60 0 
C 20 60 0 
C 30 60 0 
C 40 60 0 
C 50 60 0 
C 60 60 0 
C 70 60 0 
C 80 60 0 
C 90 60 0 
C 100 60 0 
C 0 70 0 
C 10 70 0 
C 20 70 0 
C 30 70 0 
C 40 70 0 
C 50 70 0 
C 60 70 0 
C 70 70 0 
C 80 70 0 
C 90 70 0 
C 100 70 0 
C 0 80 0 
C 10 80 0 
C 20 80 0 
C 30 80 0 
C 40 80 0 
C 50 80 0 
C 60 80 0 
C 70 80 0 
C 80 80 0 
C 90 80 0 
C 100 80 0 
C 0 90 0 
C 10 90 0 
C 20 90 0 
C 30 90 0 
C 40 90 0 
C 50 90 0 
C 60 90 0 
C 70 90 0 
C 80 90 0 
C 90 90 0 
C 100 90 0 
C 0 100 0 
C 10 100 0 
C 20 100 0 
C 30 100 0 
C 40 100 0 
C 50 100 0 
C 60 100 0 
C 70 100 0 
C 80 100 0 
C 90 100 0 
C 100 100 0 
O 85 75 0 
O 95 29 0 
O 83 5 0 
O 0 21 0 
O 0 5 0 
O 88 71 0 
O 63 99 0 
O 11 20 0 
O 0 25 0 
O 99 65 0 
O 78 72 0 
O 99 1 0 
631
Atoms. Timestep: 12
N 88 11 0 
N 26 60 0 
N 21 73 0 
N 53 93 0 
N 29 23 0 
N 63 24 0 
N 84 69 0 
N 5 51 0 
N 11 54 0 
N 53 30 0 
N 87 69 0 
N 10 5 0 
N 66 29 0 
N 64 10 0 
N 91 89 0 
N 78 74 0 
N 55 83 0 
N 52 61 0 
N 31 35 0 
N 33 65 0 
N 8 85 0 
N 17 81 0 
N 3 8 0 
N 15 80 0 
N 92 31 0 
N 13 28 0 
N 90 74 0 
N 67 51 0 
N 80 94 0 
N 93 29 0 
N 83 8 0 
N 56 8 0 
N 18 22 0 
N 42 84 0 
N 54 75 0 
N 64 92 0 
N 17 84 0 
N 97 7 0 
N 92 66 0 
N 62 99 0 
N 84 98 0 
N 0 34 0 
N 73 21 0 
N 37 56 0 
N 8 90 0 
N 77 27 0 
N 64 21 0 
N 33 5 0 
N 29 64 0 
N 96 49 0 
N 29 21 0 
N 80 59 0 
N 94 66 0 
N 21 1 0 
N 64 6 0 
N 64 85 0 
N 98 7 0 
N 51 13 0 
N 82 8 0 
N 22 94 0 
N 11 46 0 
N 94 31 0 
N 28 60 0 
N 60 48 0 
N 64 26 0 
N 38 50 0 
N 65 74 0 
N 54 41 0 
N 87 73 0 
N 28 18 0 
N 34 20 0 
N 57 24 0 
N 35 42 0 
N 2 21 0 
N 20 26 0 
N 96 69 0 
N 16 78 0 
N 83 91 0 
N 60 67 0 
N 84 7 0 
N 2 22 0 
N 74 71 0 
N 98 67 0 
N 65 98 0 
N 4 27 0 
N 78 78 0 
N 73 8 0 
N 7 65 0 
N 77 68 0 
N 86 31 0 
N 40 22 0 
N 67 32 0 
N 41 20 0 
N 2 91 0 
N 3 47 0 
N 20 77 0 
N 43 82 0 
N 28 21 0 
N 55 87 0 
N 6 27 0 
N 28 57 0 
N 77 6 0 
N 69 49 0 
N 62 64 0 
N 78 70 0 
N 94 26 0 
N 83 94 0 
N 95 37 0 
N 1 34 0 
N 0 23 0 
N 33 97 0 
N 33 62 0 
N 5 55 0 
N 2 71 0 
N 74 50 0 
N 19 21 0 
N 86 52 0 
N 17 79 0 
N 33 7 0 
N 85 81 0 
N 12 80 0 
N 67 75 0 
N 90 96 0 
N 13 20 0 
N 93 63 0 
N 95 7 0 
N 65 5 0 
N 68 53 0 
N 17 63 0 
N 3 10 0 
N 30 62 0 
N 65 72 0 
N 11 27 0 
N 46 61 0 
N 63 92 0 
N 47 44 0 
N 97 6 0 
N 85 97 0 
N 56 90 0 
N 75 69 0 
N 71 48 0 
N 30 86 0 
N 22 76 0 
N 28 52 0 
N 37 47 0 
N 78 67 0 
N 18 77 0 
N 35 61 0 
N 83 7 0 
N 44 61 0 
N 42 51 0 
N 14 62 0 
N 6 71 0 
N 42 22 0 
N 67 94 0 
N 18 90 0 
N 0 49 0 
N 32 24 0 
N 63 80 0 
N 46 21 0 
N 60 56 0 
N 13 65 0 
N 14 24 0 
N 83 9 0 
N 8 69 0 
N 1 5 0 
N 26 20 0 
N 91 74 0 
N 1 79 0 
N 72 48 0 
N 6 36 0 
N 26 88 0 
N 11 36 0 
N 65 92 0 
N 15 8 0 
N 14 77 0 
N 29 59 0 
N 38 22 0 
N 89 43 0 
N 97 34 0 
N 85 11 0 
N 12 36 0 
N 77 76 0 
N 82 5 0 
N 59 10 0 
N 83 12 0 
N 84 88 0 
N 48 95 0 
N 61 99 0 
N 70 47 0 
N 93 45 0 
N 38 57 0 
N 98 72 0 
N 63 87 0 
N 95 32 0 
N 87 71 0 
N 19 31 0 
N 13 91 0 
N 55 72 0 
N 95 31 0 
N 18 79 0 
N 18 62 0 
N 98 76 0 
N 44 62 0 
N 3 66 0 
N 16 87 0 
N 2 1 0 
N 11 35 0 
N 83 29 0 
N 92 33 0 
N 35 58 0 
N 95 34 0 
N 59 81 0 
N 46 62 0 
N 16 6 0 
N 38 85 0 
N 41 74 0 
N 50 94 0 
N 77 15 0 
N 84 93 0 
N 91 21 0 
N 34 30 0 
N 16 67 0 
N 2 52 0 
N 43 71 0 
N 59 47 0 
N 6 93 0 
N 82 30 0 
N 20 31 0 
N 23 81 0 
N 12 11 0 
N 78 25 0 
N 48 89 0 
N 95 66 0 
N 53 10 0 
N 84 73 0 
N 44 68 0 
N 83 88 0 
N 75 29 0 
N 18 5 0 
N 80 63 0 
N 46 55 0 
N 1 70 0 
N 8 65 0 
N 95 48 0 
N 74 81 0 
N 80 8 0 
N 93 67 0 
N 21 22 0 
N 97 33 0 
N 37 95 0 
N 20 75 0 
N 1 83 0 
N 71 59 0 
N 21 80 0 
N 61 70 0 
N 94 22 0 
N 71 74 0 
N 94 27 0 
N 57 36 0 
N 39 91 0 
N 95 35 0 
N 81 6 0 
N 63 90 0 
N 68 30 0 
N 50 91 0 
N 63 6 0 
N 29 65 0 
N 46 86 0 
N 74 28 0 
N 65 40 0 
N 88 85 0 
N 99 65 0 
N 27 60 0 
N 28 62 0 
N 17 33 0 
N 11 9 0 
N 95 26 0 
N 28 20 0 
N 18 76 0 
N 64 71 0 
N 61 62 0 
N 91 76 0 
N 22 81 0 
N 2 65 0 
N 95 30 0 
N 99 67 0 
N 65 30 0 
N 27 43 0 
N 99 73 0 
N 81 32 0 
N 91 54 0 
N 81 20 0 
N 98 71 0 
N 82 77 0 
N 60 49 0 
N 37 20 0 
N 85 75 0 
N 71 52 0 
N 81 61 0 
N 24 24 0 
N 70 76 0 
N 11 34 0 
N 23 13 0 
N 78 61 0 
N 22 92 0 
N 18 65 0 
N 93 47 0 
N 11 26 0 
N 58 51 0 
N 22 5 0 
N 30 15 0 
N 22 63 0 
N 19 64 0 
N 9 8 0 
N 83 93 0 
N 39 83 0 
N 53 57 0 
N 45 88 0 
N 16 23 0 
N 15 24 0 
N 11 23 0 
N 83 33 0 
N 34 34 0 
N 94 48 0 
N 61 34 0 
N 53 23 0 
N 17 78 0 
N 15 65 0 
N 26 14 0 
N 4 31 0 
N 81 31 0 
N 95 47 0 
N 11 25 0 
N 42 81 0 
N 56 34 0 
N 93 90 0 
N 59 38 0 
N 72 49 0 
N 85 74 0 
N 52 72 0 
N 61 49 0 
N 86 98 0 
N 11 10 0 
N 38 87 0 
N 6 1 0 
N 29 51 0 
N 38 52 0 
N 64 57 0 
N 84 32 0 
N 1 30 0 
N 31 37 0 
N 53 63 0 
N 11 21 0 
N 1 31 0 
N 67 71 0 
N 11 11 0 
N 79 5 0 
N 33 66 0 
N 75 20 0 
N 24 75 0 
N 64 23 0 
N 84 91 0 
N 42 49 0 
N 93 8 0 
N 88 6 0 
N 53 11 0 
N 34 58 0 
N 68 50 0 
N 35 20 0 
N 62 86 0 
N 28 80 0 
N 62 6 0 
N 48 9 0 
N 28 79 0 
N 37 49 0 
N 83 11 0 
N 16 64 0 
N 16 36 0 
N 13 26 0 
N 90 45 0 
N 81 92 0 
N 96 6 0 
N 4 64 0 
N 25 85 0 
N 17 92 0 
N 54 51 0 
N 62 8 0 
N 30 63 0 
N 73 72 0 
N 9 52 0 
N 66 1 0 
N 54 28 0 
N 22 83 0 
N 31 41 0 
N 97 70 0 
N 30 6 0 
N 71 49 0 
N 36 53 0 
N 83 97 0 
N 47 94 0 
N 75 7 0 
N 11 29 0 
N 26 82 0 
N 37 97 0 
N 32 72 0 
N 25 12 0 
N 72 39 0 
N 0 6 0 
N 53 14 0 
N 3 77 0 
N 75 76 0 
N 46 74 0 
N 16 76 0 
N 4 20 0 
N 93 51 0 
N 28 64 0 
N 66 72 0 
N 35 12 0 
N 64 4 0 
N 71 24 0 
N 98 5 0 
N 52 89 0 
N 11 38 0 
N 61 75 0 
N 47 36 0 
N 84 6 0 
N 92 47 0 
N 72 20 0 
N 92 45 0 
N 42 35 0 
N 17 93 0 
N 13 90 0 
N 66 8 0 
N 85 5 0 
N 88 69 0 
N 35 33 0 
N 20 35 0 
N 99 81 0 
N 55 9 0 
N 82 32 0 
N 11 12 0 
N 19 90 0 
N 94 7 0 
N 48 91 0 
N 89 87 0 
N 83 90 0 
N 62 85 0 
N 78 27 0 
N 64 83 0 
N 16 60 0 
N 84 24 0 
N 69 54 0 
N 79 19 0 
N 97 65 0 
N 82 38 0 
N 18 64 0 
N 14 21 0 
N 52 26 0 
N 54 32 0 
N 17 83 0 
N 36 6 0 
N 21 91 0 
N 42 57 0 
N 75 19 0 
N 63 36 0 
N 29 83 0 
N 88 52 0 
N 37 81 0 
N 60 82 0 
N 29 28 0 
N 65 6 0 
N 31 36 0 
N 4 34 0 
N 78 7 0 
N 75 26 0 
N 56 51 0 
N 94 35 0 
N 95 41 0 
N 68 72 0 
N 23 80 0 
N 74 7 0 
N 51 11 0 
N 40 82 0 
N 63 28 0 
N 30 64 0 
N 47 10 0 
N 47 91 0 
N 58 54 0 
N 92 5 0 
N 64 62 0 
N 61 28 0 
N 80 93 0 
N 12 29 0 
N 29 10 0 
N 61 53 0 
N 11 33 0 
N 11 81 0 
N 45 12 0 
N 31 66 0 
C 0 0 0 
C 10 0 0 
C 20 0 0 
C 30 0 0 
C 40 0 0 
C 50 0 0 
C 60 0 0 
C 70 0 0 
C 80 0 0 
C 90 0 0 
C 100 0 0 
C 0 10 0 
C 10 10 0 
C 20 10 0 
C 30 10 0 
C 40 10 0 
C 50 10 0 
C 60 10 0 
C 70 10 0 
C 80 10 0 
C 90 10 0 
C 100 10 0 
C 0 20 0 
C 10 20 0 
C 20 20 0 
C 30 20 0 
C 40 20 0 
C 50 20 0 
C 60 20 0 
C 70 20 0 
C 80 20 0 
C 90 20 0 
C 100 20 0 
C 0 30 0 
C 10 30 0 
C 20 30 0 
C 30 30 0 
C 40 30 0 
C 50 30 0 
C 60 30 0 
C 70 30 0 
C 80 30 0 
C 90 30 0 
C 100 30 0 
C 0 40 0 
C 10 40 0 
C 20 40 0 
C 30 40 0 
C 40 40 0 
C 50 40 0 
C 60 40 0 
C 70 40 0 
C 80 40 0 
C 90 40 0 
C 100 40 0 
C 0 50 0 
C 10 50 0 
C 20 50 0 
C 30 50 0 
C 40 50 0 
C 50 50 0 
C 60 50 0 
C 70 50 0 
C 80 50 0 
C 90 50 0 
C 100 50 0 
C 0 60 0 
C 10 60 0 
C 20 60 0 
C 30 60 0 
C 40 60 0 
C 50 60 0 
C 60 60 0 
C 70 60 0 
C 80 60 0 
C 90 60 0 
C 100 60 0 
C 0 70 0 
C 10 70 0 
C 20 70 0 
C 30 70 0 
C 40 70 0 
C 50 70 0 
C 60 70 0 
C 70 70 0 
C 80 70 0 
C 90 70 0 
C 100 70 0 
C 0 80 0 
C 10 80 0 
C 20 80 0 
C 30 80 0 
C 40 80 0 
C 50 80 0 
C 60 80 0 
C 70 80 0 
C 80 80 0 
C 90 80 0 
C 100 80 0 
C 0 90 0 
C 10 90 0 
C 20 90 0 
C 30 90 0 
C 40 90 0 
C 50 90 0 
C 60 90 0 
C 70 90 0 
C 80 90 0 
C 90 90 0 
C 100 90 0 
C 0 100 0 
C 10 100 0 
C 20 100 0 
C 30 100 0 
C 40 100 0 
C 50 100 0 
C 60 100 0 
C 70 100 0 
C 80 100 0 
C 90 100 0 
C 100 100 0 
O 96 29 0 
O 84 5 0 
O 99 21 0 
O 0 4 0 
O 88 72 0 
O 63 0 0 
O 11 19 0 
O 99 25 0 
O 79 72 0 
O 0 1 0 
630
Atoms. Timestep: 13
N 88 10 0 
N 26 61 0 
N 22 73 0 
N 54 93 0 
N 28 23 0 
N 63 23 0 
N 83 69 0 
N 6 51 0 
N 11 53 0 
N 53 29 0 
N 87 70 0 
N 9 5 0 
N 67 29 0 
N 64 9 0 
N 91 88 0 
N 78 75 0 
N 55 82 0 
N 52 62 0 
N 31 34 0 
N 34 65 0 
N 8 84 0 
N 16 81 0 
N 3 7 0 
N 16 80 0 
N 92 30 0 
N 13 27 0 
N 89 74 0 
N 68 51 0 
N 79 94 0 
N 94 29 0 
N 83 7 0 
N 56 7 0 
N 17 22 0 
N 42 83 0 
N 55 75 0 
N 63 92 0 
N 16 84 0 
N 96 7 0 
N 92 67 0 
N 62 98 0 
N 83 98 0 
N 1 34 0 
N 74 21 0 
N 37 57 0 
N 8 89 0 
N 77 28 0 
N 63 21 0 
N 32 5 0 
N 30 64 0 
N 96 49 0 
N 28 21 0 
N 79 59 0 
N 94 67 0 
N 20 1 0 
N 63 6 0 
N 64 84 0 
N 98 8 0 
N 51 12 0 
N 81 8 0 
N 22 93 0 
N 11 45 0 
N 94 30 0 
N 27 60 0 
N 61 48 0 
N 64 25 0 
N 38 49 0 
N 66 74 0 
N 54 40 0 
N 88 73 0 
N 28 19 0 
N 33 20 0 
N 57 23 0 
N 34 42 0 
N 3 21 0 
N 20 25 0 
N 95 69 0 
N 16 77 0 
N 82 91 0 
N 60 68 0 
N 84 6 0 
N 3 22 0 
N 75 71 0 
N 98 68 0 
N 64 98 0 
N 4 26 0 
N 79 78 0 
N 72 8 0 
N 8 65 0 
N 77 69 0 
N 86 30 0 
N 40 21 0 
N 67 31 0 
N 41 19 0 
N 1 91 0 
N 3 46 0 
N 20 76 0 
N 44 82 0 
N 28 20 0 
N 55 86 0 
N 6 26 0 
N 29 57 0 
N 77 5 0 
N 70 49 0 
N 62 65 0 
N 78 71 0 
N 95 26 0 
N 82 94 0 
N 96 37 0 
N 1 33 0 
N 1 23 0 
N 34 97 0 
N 33 61 0 
N 5 56 0 
N 2 72 0 
N 75 50 0 
N 18 21 0 
N 86 53 0 
N 17 78 0 
N 32 7 0 
N 86 81 0 
N 13 80 0 
N 67 74 0 
N 90 95 0 
N 13 19 0 
N 93 64 0 
N 95 6 0 
N 64 5 0 
N 68 54 0 
N 17 63 0 
N 2 10 0 
N 30 63 0 
N 66 72 0 
N 11 26 0 
N 46 62 0 
N 63 91 0 
N 47 45 0 
N 97 5 0 
N 84 97 0 
N 57 90 0 
N 75 70 0 
N 72 48 0 
N 29 86 0 
N 22 75 0 
N 28 51 0 
N 36 47 0 
N 79 67 0 
N 18 76 0 
N 35 62 0 
N 83 6 0 
N 44 62 0 
N 41 51 0 
N 14 63 0 
N 6 72 0 
N 41 22 0 
N 67 93 0 
N 17 90 0 
N 1 49 0 
N 32 23 0 
N 63 79 0 
N 46 20 0 
N 61 56 0 
N 14 65 0 
N 14 23 0 
N 82 9 0 
N 8 70 0 
N 1 4 0 
N 25 20 0 
N 91 73 0 
N 2 79 0 
N 72 49 0 
N 6 35 0 
N 25 88 0 
N 11 35 0 
N 65 91 0 
N 14 8 0 
N 14 76 0 
N 30 59 0 
N 38 21 0 
N 89 42 0 
N 96 34 0 
N 85 10 0 
N 12 35 0 
N 78 76 0 
N 82 4 0 
N 59 9 0 
N 83 13 0 
N 84 87 0 
N 49 95 0 
N 61 98 0 
N 70 48 0 
N 93 44 0 
N 38 56 0 
N 97 72 0 
N 63 86 0 
N 95 31 0 
N 87 72 0 
N 19 30 0 
N 13 90 0 
N 56 72 0 
N 95 30 0 
N 18 78 0 
N 18 63 0 
N 98 75 0 
N 44 63 0 
N 3 67 0 
N 15 87 0 
N 2 2 0 
N 11 34 0 
N 84 29 0 
N 92 32 0 
N 35 57 0 
N 95 33 0 
N 60 81 0 
N 46 63 0 
N 16 5 0 
N 38 84 0 
N 41 73 0 
N 51 94 0 
N 78 15 0 
N 84 92 0 
N 92 21 0 
N 34 29 0 
N 16 68 0 
N 3 52 0 
N 43 72 0 
N 60 47 0 
N 5 93 0 
N 83 30 0 
N 20 31 0 
N 23 80 0 
N 12 12 0 
N 78 26 0 
N 48 88 0 
N 95 67 0 
N 53 9 0 
N 85 73 0 
N 45 68 0 
N 83 87 0 
N 76 29 0 
N 18 4 0 
N 80 64 0 
N 47 55 0 
N 1 69 0 
N 9 65 0 
N 96 48 0 
N 75 81 0 
N 79 8 0 
N 93 68 0 
N 21 21 0 
N 97 32 0 
N 38 95 0 
N 21 75 0 
N 1 82 0 
N 71 60 0 
N 21 79 0 
N 61 71 0 
N 95 22 0 
N 72 74 0 
N 95 27 0 
N 58 36 0 
N 40 91 0 
N 96 35 0 
N 81 5 0 
N 63 89 0 
N 68 29 0 
N 51 91 0 
N 63 5 0 
N 30 65 0 
N 47 86 0 
N 75 28 0 
N 65 39 0 
N 88 84 0 
N 99 66 0 
N 27 61 0 
N 29 62 0 
N 16 33 0 
N 11 10 0 
N 96 26 0 
N 27 20 0 
N 19 76 0 
N 64 72 0 
N 61 63 0 
N 90 76 0 
N 21 81 0 
N 3 65 0 
N 95 29 0 
N 99 68 0 
N 66 30 0 
N 26 43 0 
N 98 73 0 
N 82 32 0 
N 91 55 0 
N 82 20 0 
N 97 71 0 
N 81 77 0 
N 61 49 0 
N 36 20 0 
N 85 74 0 
N 71 53 0 
N 80 61 0 
N 23 24 0 
N 70 75 0 
N 11 33 0 
N 22 13 0 
N 79 61 0 
N 21 92 0 
N 18 66 0 
N 93 46 0 
N 11 25 0 
N 58 52 0 
N 21 5 0 
N 29 15 0 
N 23 63 0 
N 19 65 0 
N 8 8 0 
N 82 93 0 
N 39 82 0 
N 53 58 0 
N 46 88 0 
N 16 22 0 
N 15 23 0 
N 11 22 0 
N 84 33 0 
N 33 34 0 
N 94 47 0 
N 62 34 0 
N 53 24 0 
N 17 77 0 
N 16 65 0 
N 26 15 0 
N 5 31 0 
N 81 30 0 
N 96 47 0 
N 11 24 0 
N 42 80 0 
N 57 34 0 
N 93 89 0 
N 60 38 0 
N 73 49 0 
N 86 74 0 
N 53 72 0 
N 62 49 0 
N 85 98 0 
N 11 11 0 
N 38 86 0 
N 5 1 0 
N 29 50 0 
N 38 51 0 
N 65 57 0 
N 84 31 0 
N 2 30 0 
N 31 36 0 
N 54 63 0 
N 11 20 0 
N 2 31 0 
N 68 71 0 
N 11 12 0 
N 78 5 0 
N 34 66 0 
N 76 20 0 
N 25 75 0 
N 64 22 0 
N 85 91 0 
N 42 50 0 
N 92 8 0 
N 88 5 0 
N 54 11 0 
N 34 57 0 
N 69 50 0 
N 35 19 0 
N 62 85 0 
N 29 80 0 
N 62 5 0 
N 49 9 0 
N 28 78 0 
N 36 49 0 
N 83 10 0 
N 17 64 0 
N 16 35 0 
N 13 25 0 
N 90 44 0 
N 81 91 0 
N 96 5 0 
N 5 64 0 
N 25 84 0 
N 16 92 0 
N 54 52 0 
N 62 7 0 
N 31 63 0 
N 74 72 0 
N 9 51 0 
N 65 1 0 
N 54 27 0 
N 22 82 0 
N 30 41 0 
N 96 70 0 
N 29 6 0 
N 71 50 0 
N 36 52 0 
N 82 97 0 
N 47 93 0 
N 75 6 0 
N 11 28 0 
N 26 81 0 
N 37 96 0 
N 33 72 0 
N 24 12 0 
N 73 39 0 
N 0 5 0 
N 54 14 0 
N 3 76 0 
N 75 75 0 
N 46 73 0 
N 16 75 0 
N 5 20 0 
N 94 51 0 
N 28 65 0 
N 67 72 0 
N 35 13 0 
N 63 4 0 
N 72 24 0 
N 98 4 0 
N 53 89 0 
N 11 37 0 
N 62 75 0 
N 48 36 0 
N 85 6 0 
N 92 46 0 
N 72 21 0 
N 92 44 0 
N 42 34 0 
N 16 93 0 
N 12 90 0 
N 65 8 0 
N 84 5 0 
N 88 70 0 
N 36 33 0 
N 19 35 0 
N 99 80 0 
N 55 8 0 
N 83 32 0 
N 11 13 0 
N 19 89 0 
N 93 7 0 
N 48 90 0 
N 88 87 0 
N 84 90 0 
N 62 84 0 
N 79 27 0 
N 63 83 0 
N 16 61 0 
N 85 24 0 
N 69 55 0 
N 79 18 0 
N 96 65 0 
N 82 37 0 
N 18 64 0 
N 14 20 0 
N 53 26 0 
N 54 31 0 
N 16 83 0 
N 37 6 0 
N 21 90 0 
N 42 58 0 
N 76 19 0 
N 63 35 0 
N 29 82 0 
N 88 53 0 
N 38 81 0 
N 61 82 0 
N 28 28 0 
N 65 6 0 
N 30 36 0 
N 5 34 0 
N 79 7 0 
N 75 27 0 
N 56 52 0 
N 94 34 0 
N 96 41 0 
N 69 72 0 
N 23 79 0 
N 74 6 0 
N 52 11 0 
N 41 82 0 
N 63 27 0 
N 31 64 0 
N 47 9 0 
N 47 90 0 
N 59 54 0 
N 91 5 0 
N 64 61 0 
N 62 28 0 
N 79 93 0 
N 13 29 0 
N 29 11 0 
N 62 53 0 
N 10 33 0 
N 11 80 0 
N 45 11 0 
N 32 66 0 
C 0 0 0 
C 10 0 0 
C 20 0 0 
C 30 0 0 
C 40 0 0 
C 50 0 0 
C 60 0 0 
C 70 0 0 
C 80 0 0 
C 90 0 0 
C 100 0 0 
C 0 10 0 
C 10 10 0 
C 20 10 0 
C 30 10 0 
C 40 10 0 
C 50 10 0 
C 60 10 0 
C 70 10 0 
C 80 10 0 
C 90 10 0 
C 100 10 0 
C 0 20 0 
C 10 20 0 
C 20 20 0 
C 30 20 0 
C 40 20 0 
C 50 20 0 
C 60 20 0 
C 70 20 0 
C 80 20 0 
C 90 20 0 
C 100 20 0 
C 0 30 0 
C 10 30 0 
C 20 30 0 
C 30 30 0 
C 40 30 0 
C 50 30 0 
C 60 30 0 
C 70 30 0 
C 80 30 0 
C 90 30 0 
C 100 30 0 
C 0 40 0 
C 10 40 0 
C 20 40 0 
C 30 40 0 
C 40 40 0 
C 50 40 0 
C 60 40 0 
C 70 40 0 
C 80 40 0 
C 90 40 0 
C 100 40 0 
C 0 50 0 
C 10 50 0 
C 20 50 0 
C 30 50 0 
C 40 50 0 
C 50 50 0 
C 60 50 0 
C 70 50 0 
C 80 50 0 
C 90 50 0 
C 100 50 0 
C 0 60 0 
C 10 60 0 
C 20 60 0 
C 30 60 0 
C 40 60 0 
C 50 60 0 
C 60 60 0 
C 70 60 0 
C 80 60 0 
C 90 60 0 
C 100 60 0 
C 0 70 0 
C 10 70 0 
C 20 70 0 
C 30 70 0 
C 40 70 0 
C 50 70 0 
C 60 70 0 
C 70 70 0 
C 80 70 0 
C 90 70 0 
C 100 70 0 
C 0 80 0 
C 10 80 0 
C 20 80 0 
C 30 80 0 
C 40 80 0 
C 50 80 0 
C 60 80 0 
C 70 80 0 
C 80 80 0 
C 90 80 0 
C 100 80 0 
C 0 90 0 
C 10 90 0 
C 20 90 0 
C 30 90 0 
C 40 90 0 
C 50 90 0 
C 60 90 0 
C 70 90 0 
C 80 90 0 
C 90 90 0 
C 100 90 0 
C 0 100 0 
C 10 100 0 
C 20 100 0 
C 30 100 0 
C 40 100 0 
C 50 100 0 
C 60 100 0 
C 70 100 0 
C 80 100 0 
C 90 100 0 
C 100 100 0 
O 96 30 0 
O 99 20 0 
O 99 4 0 
O 88 71 0 
O 64 0 0 
O 10 19 0 
O 99 24 0 
O 80 72 0 
O 99 1 0 
628
Atoms. Timestep: 14
N 88 9 0 
N 26 62 0 
N 23 73 0 
N 54 92 0 
N 27 23 0 
N 64 23 0 
N 83 70 0 
N 7 51 0 
N 10 53 0 
N 53 28 0 
N 86 70 0 
N 9 4 0 
N 66 29 0 
N 64 9 0 
N 92 88 0 
N 78 74 0 
N 55 81 0 
N 52 63 0 
N 31 33 0 
N 33 65 0 
N 9 84 0 
N 16 80 0 
N 3 6 0 
N 16 79 0 
N 93 30 0 
N 12 27 0 
N 88 74 0 
N 68 52 0 
N 79 93 0 
N 95 29 0 
N 84 7 0 
N 57 7 0 
N 16 22 0 
N 43 83 0 
N 56 75 0 
N 64 92 0 
N 16 83 0 
N 97 7 0 
N 92 68 0 
N 62 97 0 
N 84 98 0 
N 2 34 0 
N 75 21 0 
N 37 56 0 
N 9 89 0 
N 78 28 0 
N 63 20 0 
N 33 5 0 
N 29 64 0 
N 97 49 0 
N 28 20 0 
N 79 60 0 
N 95 67 0 
N 21 1 0 
N 63 5 0 
N 64 83 0 
N 99 8 0 
N 52 12 0 
N 82 8 0 
N 23 93 0 
N 10 45 0 
N 95 30 0 
N 28 60 0 
N 61 49 0 
N 64 24 0 
N 38 50 0 
N 67 74 0 
N 55 40 0 
N 87 73 0 
N 27 19 0 
N 32 20 0 
N 58 23 0 
N 34 43 0 
N 4 21 0 
N 19 25 0 
N 94 69 0 
N 16 76 0 
N 81 91 0 
N 61 68 0 
N 84 5 0 
N 4 22 0 
N 76 71 0 
N 97 68 0 
N 64 97 0 
N 5 26 0 
N 80 78 0 
N 72 7 0 
N 9 65 0 
N 77 70 0 
N 86 29 0 
N 39 21 0 
N 66 31 0 
N 40 19 0 
N 1 90 0 
N 3 45 0 
N 21 76 0 
N 45 82 0 
N 29 20 0 
N 55 85 0 
N 6 25 0 
N 28 57 0 
N 77 4 0 
N 71 49 0 
N 63 65 0 
N 79 71 0 
N 96 26 0 
N 81 94 0 
N 96 36 0 
N 2 33 0 
N 1 24 0 
N 35 97 0 
N 33 60 0 
N 6 56 0 
N 3 72 0 
N 75 51 0 
N 17 21 0 
N 86 54 0 
N 17 77 0 
N 32 8 0 
N 85 81 0 
N 14 80 0 
N 67 73 0 
N 90 94 0 
N 12 19 0 
N 93 65 0 
N 96 6 0 
N 64 4 0 
N 68 55 0 
N 18 63 0 
N 3 10 0 
N 30 62 0 
N 67 72 0 
N 10 26 0 
N 47 62 0 
N 63 90 0 
N 48 45 0 
N 98 5 0 
N 84 96 0 
N 58 90 0 
N 76 70 0 
N 73 48 0 
N 30 86 0 
N 23 75 0 
N 28 50 0 
N 35 47 0 
N 80 67 0 
N 19 76 0 
N 34 62 0 
N 83 5 0 
N 45 62 0 
N 40 51 0 
N 15 63 0 
N 7 72 0 
N 40 22 0 
N 67 92 0 
N 17 91 0 
N 1 48 0 
N 31 23 0 
N 63 78 0 
N 46 19 0 
N 62 56 0 
N 14 66 0 
N 14 22 0 
N 83 9 0 
N 8 71 0 
N 2 4 0 
N 25 19 0 
N 90 73 0 
N 2 78 0 
N 72 50 0 
N 7 35 0 
N 26 88 0 
N 11 34 0 
N 64 91 0 
N 14 9 0 
N 15 76 0 
N 30 58 0 
N 37 21 0 
N 89 41 0 
N 96 33 0 
N 86 10 0 
N 12 34 0 
N 79 76 0 
N 83 4 0 
N 59 10 0 
N 83 14 0 
N 84 86 0 
N 50 95 0 
N 61 97 0 
N 71 48 0 
N 94 44 0 
N 38 57 0 
N 96 72 0 
N 64 86 0 
N 96 31 0 
N 86 72 0 
N 19 29 0 
N 14 90 0 
N 57 72 0 
N 96 30 0 
N 18 77 0 
N 19 63 0 
N 98 74 0 
N 45 63 0 
N 3 68 0 
N 16 87 0 
N 3 2 0 
N 10 34 0 
N 85 29 0 
N 93 32 0 
N 34 57 0 
N 95 32 0 
N 61 81 0 
N 47 63 0 
N 17 5 0 
N 38 83 0 
N 42 73 0 
N 52 94 0 
N 78 16 0 
N 83 92 0 
N 92 20 0 
N 34 28 0 
N 17 68 0 
N 4 52 0 
N 44 72 0 
N 60 48 0 
N 5 92 0 
N 84 30 0 
N 21 31 0 
N 24 80 0 
N 12 13 0 
N 78 27 0 
N 48 87 0 
N 95 68 0 
N 54 9 0 
N 84 73 0 
N 45 69 0 
N 83 86 0 
N 76 30 0 
N 19 4 0 
N 80 65 0 
N 47 56 0 
N 2 69 0 
N 10 65 0 
N 96 47 0 
N 75 80 0 
N 79 7 0 
N 93 69 0 
N 21 20 0 
N 96 32 0 
N 38 94 0 
N 21 74 0 
N 2 82 0 
N 71 61 0 
N 22 79 0 
N 62 71 0 
N 95 21 0 
N 73 74 0 
N 95 28 0 
N 59 36 0 
N 41 91 0 
N 96 35 0 
N 81 4 0 
N 63 88 0 
N 68 30 0 
N 51 90 0 
N 63 4 0 
N 31 65 0 
N 47 85 0 
N 76 28 0 
N 65 38 0 
N 88 83 0 
N 99 67 0 
N 27 62 0 
N 29 63 0 
N 16 32 0 
N 11 11 0 
N 96 27 0 
N 26 20 0 
N 19 75 0 
N 65 72 0 
N 62 63 0 
N 89 76 0 
N 22 81 0 
N 3 64 0 
N 96 29 0 
N 99 69 0 
N 67 30 0 
N 25 43 0 
N 97 73 0 
N 82 31 0 
N 91 56 0 
N 83 20 0 
N 96 71 0 
N 81 76 0 
N 61 50 0 
N 36 19 0 
N 84 74 0 
N 71 54 0 
N 80 62 0 
N 22 24 0 
N 71 75 0 
N 10 33 0 
N 22 14 0 
N 79 62 0 
N 21 91 0 
N 18 67 0 
N 93 45 0 
N 11 24 0 
N 59 52 0 
N 21 4 0 
N 29 16 0 
N 23 64 0 
N 20 65 0 
N 8 7 0 
N 81 93 0 
N 40 82 0 
N 54 58 0 
N 46 87 0 
N 16 21 0 
N 15 22 0 
N 11 21 0 
N 85 33 0 
N 32 34 0 
N 93 47 0 
N 62 33 0 
N 54 24 0 
N 17 76 0 
N 16 66 0 
N 26 16 0 
N 6 31 0 
N 82 30 0 
N 96 46 0 
N 11 23 0 
N 43 80 0 
N 57 33 0 
N 94 89 0 
N 61 38 0 
N 73 50 0 
N 86 73 0 
N 54 72 0 
N 62 50 0 
N 86 98 0 
N 11 12 0 
N 38 85 0 
N 6 1 0 
N 29 49 0 
N 37 51 0 
N 66 57 0 
N 85 31 0 
N 3 30 0 
N 30 36 0 
N 55 63 0 
N 11 19 0 
N 3 31 0 
N 69 71 0 
N 11 13 0 
N 78 4 0 
N 33 66 0 
N 77 20 0 
N 26 75 0 
N 64 21 0 
N 85 90 0 
N 42 49 0 
N 93 8 0 
N 89 5 0 
N 55 11 0 
N 34 58 0 
N 69 51 0 
N 34 19 0 
N 62 84 0 
N 28 80 0 
N 62 4 0 
N 50 9 0 
N 28 77 0 
N 36 48 0 
N 84 10 0 
N 18 64 0 
N 16 34 0 
N 12 25 0 
N 90 43 0 
N 80 91 0 
N 96 4 0 
N 5 65 0 
N 26 84 0 
N 15 92 0 
N 54 53 0 
N 62 6 0 
N 31 62 0 
N 75 72 0 
N 9 50 0 
N 65 0 0 
N 55 27 0 
N 23 82 0 
N 29 41 0 
N 95 70 0 
N 29 5 0 
N 71 51 0 
N 36 51 0 
N 82 96 0 
N 47 92 0 
N 74 6 0 
N 10 28 0 
N 27 81 0 
N 37 95 0 
N 34 72 0 
N 23 12 0 
N 73 38 0 
N 0 4 0 
N 54 13 0 
N 4 76 0 
N 75 74 0 
N 47 73 0 
N 17 75 0 
N 6 20 0 
N 94 50 0 
N 28 66 0 
N 68 72 0 
N 35 14 0 
N 63 3 0 
N 73 24 0 
N 97 4 0 
N 54 89 0 
N 10 37 0 
N 62 74 0 
N 48 35 0 
N 86 6 0 
N 92 45 0 
N 72 20 0 
N 92 43 0 
N 41 34 0 
N 17 93 0 
N 12 89 0 
N 64 8 0 
N 84 4 0 
N 88 71 0 
N 35 33 0 
N 18 35 0 
N 99 79 0 
N 55 7 0 
N 84 32 0 
N 11 14 0 
N 20 89 0 
N 93 6 0 
N 48 89 0 
N 88 86 0 
N 83 90 0 
N 63 84 0 
N 79 28 0 
N 62 83 0 
N 17 61 0 
N 86 24 0 
N 69 56 0 
N 80 18 0 
N 96 66 0 
N 83 37 0 
N 18 65 0 
N 13 20 0 
N 54 26 0 
N 54 30 0 
N 17 83 0 
N 38 6 0 
N 21 89 0 
N 43 58 0 
N 77 19 0 
N 63 34 0 
N 30 82 0 
N 88 54 0 
N 39 81 0 
N 62 82 0 
N 28 27 0 
N 65 5 0 
N 30 35 0 
N 6 34 0 
N 78 7 0 
N 76 27 0 
N 57 52 0 
N 93 34 0 
N 96 40 0 
N 70 72 0 
N 24 79 0 
N 73 6 0 
N 52 10 0 
N 42 82 0 
N 63 26 0 
N 32 64 0 
N 48 9 0 
N 47 89 0 
N 59 55 0 
N 91 4 0 
N 64 62 0 
N 63 28 0 
N 79 92 0 
N 13 28 0 
N 29 12 0 
N 63 53 0 
N 10 32 0 
N 12 80 0 
N 45 10 0 
N 32 67 0 
C 0 0 0 
C 10 0 0 
C 20 0 0 
C 30 0 0 
C 40 0 0 
C 50 0 0 
C 60 0 0 
C 70 0 0 
C 80 0 0 
C 90 0 0 
C 100 0 0 
C 0 10 0 
C 10 10 0 
C 20 10 0 
C 30 10 0 
C 40 10 0 
C 50 10 0 
C 60 10 0 
C 70 10 0 
C 80 10 0 
C 90 10 0 
C 100 10 0 
C 0 20 0 
C 10 20 0 
C 20 20 0 
C 30 20 0 
C 40 20 0 
C 50 20 0 
C 60 20 0 
C 70 20 0 
C 80 20 0 
C 90 20 0 
C 100 20 0 
C 0 30 0 
C 10 30 0 
C 20 30 0 
C 30 30 0 
C 40 30 0 
C 50 30 0 
C 60 30 0 
C 70 30 0 
C 80 30 0 
C 90 30 0 
C 100 30 0 
C 0 40 0 
C 10 40 0 
C 20 40 0 
C 30 40 0 
C 40 40 0 
C 50 40 0 
C 60 40 0 
C 70 40 0 
C 80 40 0 
C 90 40 0 
C 100 40 0 
C 0 50 0 
C 10 50 0 
C 20 50 0 
C 30 50 0 
C 40 50 0 
C 50 50 0 
C 60 50 0 
C 70 50 0 
C 80 50 0 
C 90 50 0 
C 100 50 0 
C 0 60 0 
C 10 60 0 
C 20 60 0 
C 30 60 0 
C 40 60 0 
C 50 60 0 
C 60 60 0 
C 70 60 0 
C 80 60 0 
C 90 60 0 
C 100 60 0 
C 0 70 0 
C 10 70 0 
C 20 70 0 
C 30 70 0 
C 40 70 0 
C 50 70 0 
C 60 70 0 
C 70 70 0 
C 80 70 0 
C 90 70 0 
C 100 70 0 
C 0 80 0 
C 10 80 0 
C 20 80 0 
C 30 80 0 
C 40 80 0 
C 50 80 0 
C 60 80 0 
C 70 80 0 
C 80 80 0 
C 90 80 0 
C 100 80 0 
C 0 90 0 
C 10 90 0 
C 20 90 0 
C 30 90 0 
C 40 90 0 
C 50 90 0 
C 60 90 0 
C 70 90 0 
C 80 90 0 
C 90 90 0 
C 100 90 0 
C 0 100 0 
C 10 100 0 
C 20 100 0 
C 30 100 0 
C 40 100 0 
C 50 100 0 
C 60 100 0 
C 70 100 0 
C 80 100 0 
C 90 100 0 
C 100 100 0 
O 99 21 0 
O 99 3 0 
O 64 99 0 
O 9 19 0 
O 99 25 0 
O 81 72 0 
O 99 0 0 
628
Atoms. Timestep: 15
N 88 8 0 
N 26 61 0 
N 23 72 0 
N 54 93 0 
N 27 22 0 
N 64 24 0 
N 83 71 0 
N 7 50 0 
N 9 53 0 
N 54 28 0 
N 85 70 0 
N 10 4 0 
N 65 29 0 
N 64 10 0 
N 93 88 0 
N 79 74 0 
N 56 81 0 
N 52 64 0 
N 30 33 0 
N 34 65 0 
N 9 83 0 
N 16 79 0 
N 3 5 0 
N 16 78 0 
N 93 29 0 
N 12 26 0 
N 87 74 0 
N 68 53 0 
N 78 93 0 
N 96 29 0 
N 84 6 0 
N 57 8 0 
N 15 22 0 
N 43 84 0 
N 57 75 0 
N 64 93 0 
N 16 82 0 
N 98 7 0 
N 93 68 0 
N 63 97 0 
N 85 98 0 
N 3 34 0 
N 76 21 0 
N 37 55 0 
N 10 89 0 
N 78 27 0 
N 64 20 0 
N 34 5 0 
N 28 64 0 
N 97 48 0 
N 28 19 0 
N 79 61 0 
N 95 68 0 
N 22 1 0 
N 63 5 0 
N 64 83 0 
N 99 7 0 
N 53 12 0 
N 82 7 0 
N 23 92 0 
N 10 44 0 
N 95 30 0 
N 29 60 0 
N 61 50 0 
N 64 25 0 
N 39 50 0 
N 67 73 0 
N 55 41 0 
N 87 72 0 
N 26 19 0 
N 32 19 0 
N 59 23 0 
N 34 42 0 
N 5 21 0 
N 18 25 0 
N 94 68 0 
N 17 76 0 
N 81 90 0 
N 61 69 0 
N 85 5 0 
N 5 22 0 
N 77 71 0 
N 97 69 0 
N 64 98 0 
N 6 26 0 
N 81 78 0 
N 71 7 0 
N 10 65 0 
N 78 70 0 
N 86 28 0 
N 39 20 0 
N 66 32 0 
N 39 19 0 
N 2 90 0 
N 4 45 0 
N 21 75 0 
N 46 82 0 
N 29 19 0 
N 55 86 0 
N 7 25 0 
N 28 58 0 
N 77 5 0 
N 72 49 0 
N 63 66 0 
N 79 72 0 
N 97 26 0 
N 80 94 0 
N 97 36 0 
N 2 32 0 
N 1 25 0 
N 35 98 0 
N 34 60 0 
N 6 55 0 
N 4 72 0 
N 75 52 0 
N 16 21 0 
N 85 54 0 
N 18 77 0 
N 32 9 0 
N 84 81 0 
N 14 79 0 
N 68 73 0 
N 90 93 0 
N 11 19 0 
N 92 65 0 
N 97 6 0 
N 64 5 0 
N 69 55 0 
N 18 64 0 
N 4 10 0 
N 31 62 0 
N 68 72 0 
N 10 25 0 
N 47 63 0 
N 63 91 0 
N 47 45 0 
N 98 4 0 
N 84 95 0 
N 58 91 0 
N 76 70 0 
N 74 48 0 
N 31 86 0 
N 23 74 0 
N 27 50 0 
N 36 47 0 
N 81 67 0 
N 19 75 0 
N 34 61 0 
N 83 4 0 
N 45 63 0 
N 40 52 0 
N 16 63 0 
N 7 72 0 
N 40 21 0 
N 66 92 0 
N 18 91 0 
N 2 48 0 
N 31 22 0 
N 64 78 0 
N 45 19 0 
N 62 57 0 
N 13 66 0 
N 14 21 0 
N 83 8 0 
N 8 72 0 
N 3 4 0 
N 24 19 0 
N 89 73 0 
N 3 78 0 
N 73 50 0 
N 7 34 0 
N 26 87 0 
N 10 34 0 
N 64 91 0 
N 13 9 0 
N 15 75 0 
N 30 59 0 
N 37 20 0 
N 89 40 0 
N 96 32 0 
N 86 9 0 
N 12 33 0 
N 79 75 0 
N 84 4 0 
N 59 11 0 
N 83 15 0 
N 84 85 0 
N 51 95 0 
N 61 98 0 
N 72 48 0 
N 95 44 0 
N 38 58 0 
N 95 72 0 
N 64 87 0 
N 96 30 0 
N 85 72 0 
N 19 28 0 
N 14 89 0 
N 58 72 0 
N 97 30 0 
N 18 76 0 
N 20 63 0 
N 98 73 0 
N 46 63 0 
N 4 68 0 
N 17 87 0 
N 4 2 0 
N 9 34 0 
N 85 28 0 
N 94 32 0 
N 35 57 0 
N 95 31 0 
N 61 82 0 
N 47 64 0 
N 17 4 0 
N 39 83 0 
N 42 72 0 
N 53 94 0 
N 79 16 0 
N 83 91 0 
N 93 20 0 
N 33 28 0 
N 17 69 0 
N 5 52 0 
N 45 72 0 
N 61 48 0 
N 6 92 0 
N 84 29 0 
N 20 31 0 
N 24 79 0 
N 11 13 0 
N 78 26 0 
N 49 87 0 
N 95 69 0 
N 55 9 0 
N 84 72 0 
N 46 69 0 
N 83 85 0 
N 76 29 0 
N 19 3 0 
N 81 65 0 
N 48 56 0 
N 3 69 0 
N 10 66 0 
N 96 46 0 
N 76 80 0 
N 79 8 0 
N 92 69 0 
N 21 19 0 
N 97 32 0 
N 39 94 0 
N 22 74 0 
N 3 82 0 
N 71 62 0 
N 22 80 0 
N 63 71 0 
N 96 21 0 
N 74 74 0 
N 95 27 0 
N 59 37 0 
N 41 92 0 
N 96 34 0 
N 82 4 0 
N 63 89 0 
N 67 30 0 
N 52 90 0 
N 63 4 0 
N 32 65 0 
N 48 85 0 
N 77 28 0 
N 64 38 0 
N 88 82 0 
N 99 68 0 
N 27 63 0 
N 29 62 0 
N 16 31 0 
N 10 11 0 
N 97 27 0 
N 25 20 0 
N 20 75 0 
N 66 72 0 
N 62 64 0 
N 88 76 0 
N 23 81 0 
N 4 64 0 
N 97 29 0 
N 98 69 0 
N 66 30 0 
N 24 43 0 
N 96 73 0 
N 82 30 0 
N 91 57 0 
N 84 20 0 
N 95 71 0 
N 81 75 0 
N 62 50 0 
N 35 19 0 
N 83 74 0 
N 71 55 0 
N 81 62 0 
N 21 24 0 
N 71 74 0 
N 10 32 0 
N 21 14 0 
N 79 63 0 
N 22 91 0 
N 18 68 0 
N 94 45 0 
N 10 24 0 
N 60 52 0 
N 21 3 0 
N 28 16 0 
N 24 64 0 
N 20 66 0 
N 8 6 0 
N 81 92 0 
N 41 82 0 
N 54 59 0 
N 47 87 0 
N 16 20 0 
N 15 21 0 
N 11 20 0 
N 86 33 0 
N 32 33 0 
N 93 46 0 
N 62 34 0 
N 54 23 0 
N 17 75 0 
N 16 67 0 
N 26 17 0 
N 7 31 0 
N 82 29 0 
N 96 45 0 
N 10 23 0 
N 43 81 0 
N 57 34 0 
N 95 89 0 
N 62 38 0 
N 73 51 0 
N 85 73 0 
N 55 72 0 
N 62 51 0 
N 86 97 0 
N 10 12 0 
N 39 85 0 
N 7 1 0 
N 28 49 0 
N 36 51 0 
N 66 58 0 
N 85 30 0 
N 3 29 0 
N 29 36 0 
N 55 64 0 
N 10 19 0 
N 4 31 0 
N 70 71 0 
N 11 14 0 
N 78 5 0 
N 34 66 0 
N 77 21 0 
N 27 75 0 
N 64 22 0 
N 84 90 0 
N 42 48 0 
N 93 7 0 
N 89 4 0 
N 55 12 0 
N 33 58 0 
N 70 51 0 
N 33 19 0 
N 62 85 0 
N 28 79 0 
N 62 5 0 
N 51 9 0 
N 29 77 0 
N 35 48 0 
N 85 10 0 
N 19 64 0 
N 16 33 0 
N 11 25 0 
N 91 43 0 
N 80 91 0 
N 97 4 0 
N 5 66 0 
N 26 83 0 
N 16 92 0 
N 55 53 0 
N 63 6 0 
N 32 62 0 
N 76 72 0 
N 9 49 0 
N 64 0 0 
N 55 28 0 
N 23 83 0 
N 28 41 0 
N 94 70 0 
N 30 5 0 
N 71 52 0 
N 35 51 0 
N 82 97 0 
N 48 92 0 
N 75 6 0 
N 9 28 0 
N 28 81 0 
N 38 95 0 
N 35 72 0 
N 23 13 0 
N 74 38 0 
N 0 3 0 
N 55 13 0 
N 5 76 0 
N 76 74 0 
N 48 73 0 
N 17 74 0 
N 6 19 0 
N 95 50 0 
N 28 67 0 
N 69 72 0 
N 34 14 0 
N 64 3 0 
N 74 24 0 
N 97 3 0 
N 54 90 0 
N 10 36 0 
N 62 73 0 
N 48 34 0 
N 86 5 0 
N 92 44 0 
N 72 21 0 
N 92 42 0 
N 41 33 0 
N 18 93 0 
N 12 88 0 
N 64 8 0 
N 84 3 0 
N 88 72 0 
N 34 33 0 
N 18 34 0 
N 99 78 0 
N 56 7 0 
N 85 32 0 
N 10 14 0 
N 21 89 0 
N 93 5 0 
N 49 89 0 
N 87 86 0 
N 83 89 0 
N 64 84 0 
N 80 28 0 
N 63 83 0 
N 18 61 0 
N 87 24 0 
N 69 57 0 
N 81 18 0 
N 95 66 0 
N 83 36 0 
N 19 65 0 
N 12 20 0 
N 55 26 0 
N 54 31 0 
N 18 83 0 
N 38 7 0 
N 22 89 0 
N 42 58 0 
N 78 19 0 
N 64 34 0 
N 30 81 0 
N 88 55 0 
N 39 82 0 
N 63 82 0 
N 28 26 0 
N 65 6 0 
N 29 35 0 
N 6 33 0 
N 77 7 0 
N 77 27 0 
N 58 52 0 
N 94 34 0 
N 96 39 0 
N 71 72 0 
N 25 79 0 
N 73 7 0 
N 53 10 0 
N 42 83 0 
N 63 25 0 
N 32 63 0 
N 49 9 0 
N 47 90 0 
N 59 56 0 
N 91 5 0 
N 64 63 0 
N 63 29 0 
N 78 92 0 
N 12 28 0 
N 28 12 0 
N 64 53 0 
N 9 32 0 
N 12 79 0 
N 46 10 0 
N 32 66 0 
C 0 0 0 
C 10 0 0 
C 20 0 0 
C 30 0 0 
C 40 0 0 
C 50 0 0 
C 60 0 0 
C 70 0 0 
C 80 0 0 
C 90 0 0 
C 100 0 0 
C 0 10 0 
C 10 10 0 
C 20 10 0 
C 30 10 0 
C 40 10 0 
C 50 10 0 
C 60 10 0 
C 70 10 0 
C 80 10 0 
C 90 10 0 
C 100 10 0 
C 0 20 0 
C 10 20 0 
C 20 20 0 
C 30 20 0 
C 40 20 0 
C 50 20 0 
C 60 20 0 
C 70 20 0 
C 80 20 0 
C 90 20 0 
C 100 20 0 
C 0 30 0 
C 10 30 0 
C 20 30 0 
C 30 30 0 
C 40 30 0 
C 50 30 0 
C 60 30 0 
C 70 30 0 
C 80 30 0 
C 90 30 0 
C 100 30 0 
C 0 40 0 
C 10 40 0 
C 20 40 0 
C 30 40 0 
C 40 40 0 
C 50 40 0 
C 60 40 0 
C 70 40 0 
C 80 40 0 
C 90 40 0 
C 100 40 0 
C 0 50 0 
C 10 50 0 
C 20 50 0 
C 30 50 0 
C 40 50 0 
C 50 50 0 
C 60 50 0 
C 70 50 0 
C 80 50 0 
C 90 50 0 
C 100 50 0 
C 0 60 0 
C 10 60 0 
C 20 60 0 
C 30 60 0 
C 40 60 0 
C 50 60 0 
C 60 60 0 
C 70 60 0 
C 80 60 0 
C 90 60 0 
C 100 60 0 
C 0 70 0 
C 10 70 0 
C 20 70 0 
C 30 70 0 
C 40 70 0 
C 50 70 0 
C 60 70 0 
C 70 70 0 
C 80 70 0 
C 90 70 0 
C 100 70 0 
C 0 80 0 
C 10 80 0 
C 20 80 0 
C 30 80 0 
C 40 80 0 
C 50 80 0 
C 60 80 0 
C 70 80 0 
C 80 80 0 
C 90 80 0 
C 100 80 0 
C 0 90 0 
C 10 90 0 
C 20 90 0 
C 30 90 0 
C 40 90 0 
C 50 90 0 
C 60 90 0 
C 70 90 0 
C 80 90 0 
C 90 90 0 
C 100 90 0 
C 0 100 0 
C 10 100 0 
C 20 100 0 
C 30 100 0 
C 40 100 0 
C 50 100 0 
C 60 100 0 
C 70 100 0 
C 80 100 0 
C 90 100 0 
C 100 100 0 
O 0 21 0 
O 99 2 0 
O 65 99 0 
O 8 19 0 
O 99 26 0 
O 81 73 0 
O 99 99 0 
628
Atoms. Timestep: 16
N 88 9 0 
N 26 62 0 
N 24 72 0 
N 54 94 0 
N 26 22 0 
N 64 25 0 
N 82 71 0 
N 7 49 0 
N 9 52 0 
N 54 29 0 
N 84 70 0 
N 10 3 0 
N 65 29 0 
N 64 11 0 
N 94 88 0 
N 79 73 0 
N 57 81 0 
N 52 65 0 
N 29 33 0 
N 33 65 0 
N 9 84 0 
N 17 79 0 
N 3 4 0 
N 17 78 0 
N 93 28 0 
N 12 25 0 
N 88 74 0 
N 69 53 0 
N 78 94 0 
N 96 28 0 
N 84 5 0 
N 57 9 0 
N 14 22 0 
N 43 85 0 
N 58 75 0 
N 65 93 0 
N 17 82 0 
N 98 6 0 
N 93 69 0 
N 64 97 0 
N 85 99 0 
N 3 33 0 
N 75 21 0 
N 37 56 0 
N 11 89 0 
N 78 26 0 
N 65 20 0 
N 35 5 0 
N 27 64 0 
N 97 47 0 
N 27 19 0 
N 80 61 0 
N 94 68 0 
N 23 1 0 
N 63 6 0 
N 64 84 0 
N 99 6 0 
N 54 12 0 
N 82 6 0 
N 24 92 0 
N 10 43 0 
N 96 30 0 
N 28 60 0 
N 62 50 0 
N 64 26 0 
N 39 51 0 
N 67 73 0 
N 56 41 0 
N 87 73 0 
N 25 19 0 
N 31 19 0 
N 59 24 0 
N 33 42 0 
N 4 21 0 
N 18 24 0 
N 94 69 0 
N 17 75 0 
N 81 89 0 
N 62 69 0 
N 86 5 0 
N 4 22 0 
N 78 71 0 
N 97 70 0 
N 64 99 0 
N 7 26 0 
N 81 77 0 
N 70 7 0 
N 10 66 0 
N 79 70 0 
N 86 27 0 
N 39 19 0 
N 66 33 0 
N 38 19 0 
N 2 91 0 
N 4 44 0 
N 22 75 0 
N 47 82 0 
N 29 19 0 
N 56 86 0 
N 7 24 0 
N 29 58 0 
N 77 6 0 
N 73 49 0 
N 63 67 0 
N 80 72 0 
N 98 26 0 
N 79 94 0 
N 97 35 0 
N 3 32 0 
N 2 25 0 
N 35 99 0 
N 35 60 0 
N 6 54 0 
N 4 73 0 
N 75 53 0 
N 16 20 0 
N 84 54 0 
N 18 76 0 
N 32 10 0 
N 83 81 0 
N 15 79 0 
N 68 73 0 
N 91 93 0 
N 10 19 0 
N 92 66 0 
N 97 5 0 
N 65 5 0 
N 69 56 0 
N 19 64 0 
N 5 10 0 
N 32 62 0 
N 69 72 0 
N 9 25 0 
N 47 64 0 
N 63 92 0 
N 47 46 0 
N 98 3 0 
N 84 96 0 
N 59 91 0 
N 77 70 0 
N 75 48 0 
N 32 86 0 
N 23 73 0 
N 26 50 0 
N 36 48 0 
N 81 68 0 
N 19 74 0 
N 33 61 0 
N 83 5 0 
N 45 64 0 
N 39 52 0 
N 16 62 0 
N 8 72 0 
N 39 21 0 
N 65 92 0 
N 19 91 0 
N 2 47 0 
N 32 22 0 
N 65 78 0 
N 45 18 0 
N 62 58 0 
N 14 66 0 
N 14 20 0 
N 83 7 0 
N 9 72 0 
N 3 3 0 
N 23 19 0 
N 89 73 0 
N 4 78 0 
N 73 51 0 
N 8 34 0 
N 27 87 0 
N 10 33 0 
N 65 91 0 
N 13 8 0 
N 15 74 0 
N 31 59 0 
N 36 20 0 
N 89 39 0 
N 97 32 0 
N 86 10 0 
N 12 32 0 
N 80 75 0 
N 84 3 0 
N 59 12 0 
N 82 15 0 
N 84 84 0 
N 52 95 0 
N 61 99 0 
N 73 48 0 
N 95 43 0 
N 39 58 0 
N 94 72 0 
N 64 88 0 
N 97 30 0 
N 84 72 0 
N 19 27 0 
N 15 89 0 
N 59 72 0 
N 97 29 0 
N 18 75 0 
N 21 63 0 
N 97 73 0 
N 46 63 0 
N 5 68 0 
N 17 88 0 
N 5 2 0 
N 9 33 0 
N 85 27 0 
N 95 32 0 
N 35 58 0 
N 96 31 0 
N 62 82 0 
N 46 64 0 
N 18 4 0 
N 39 84 0 
N 43 72 0 
N 53 95 0 
N 79 17 0 
N 82 91 0 
N 92 20 0 
N 33 27 0 
N 17 70 0 
N 5 51 0 
N 46 72 0 
N 61 49 0 
N 7 92 0 
N 83 29 0 
N 19 31 0 
N 24 80 0 
N 11 14 0 
N 79 26 0 
N 50 87 0 
N 95 70 0 
N 55 10 0 
N 83 72 0 
N 46 70 0 
N 83 84 0 
N 76 28 0 
N 20 3 0 
N 81 66 0 
N 48 57 0 
N 4 69 0 
N 11 66 0 
N 97 46 0 
N 77 80 0 
N 78 8 0 
N 92 70 0 
N 20 19 0 
N 98 32 0 
N 40 94 0 
N 22 73 0 
N 3 83 0 
N 71 63 0 
N 22 81 0 
N 63 72 0 
N 95 21 0 
N 74 73 0 
N 96 27 0 
N 60 37 0 
N 42 92 0 
N 95 34 0 
N 82 3 0 
N 63 90 0 
N 67 31 0 
N 52 91 0 
N 63 4 0 
N 31 65 0 
N 49 85 0 
N 78 28 0 
N 65 38 0 
N 88 81 0 
N 99 69 0 
N 27 62 0 
N 29 61 0 
N 16 30 0 
N 10 12 0 
N 98 27 0 
N 24 20 0 
N 20 74 0 
N 66 73 0 
N 63 64 0 
N 87 76 0 
N 23 82 0 
N 5 64 0 
N 97 28 0 
N 98 70 0 
N 65 30 0 
N 24 42 0 
N 95 73 0 
N 83 30 0 
N 91 58 0 
N 84 21 0 
N 94 71 0 
N 81 74 0 
N 63 50 0 
N 34 19 0 
N 83 73 0 
N 71 54 0 
N 81 63 0 
N 21 23 0 
N 72 74 0 
N 9 32 0 
N 21 15 0 
N 80 63 0 
N 22 92 0 
N 18 69 0 
N 95 45 0 
N 10 23 0 
N 60 53 0 
N 22 3 0 
N 28 17 0 
N 23 64 0 
N 21 66 0 
N 8 5 0 
N 81 93 0 
N 42 82 0 
N 54 60 0 
N 47 88 0 
N 16 19 0 
N 15 20 0 
N 11 20 0 
N 87 33 0 
N 32 32 0 
N 93 45 0 
N 62 33 0 
N 55 23 0 
N 17 74 0 
N 16 68 0 
N 26 18 0 
N 7 30 0 
N 82 28 0 
N 96 44 0 
N 10 22 0 
N 44 81 0 
N 57 35 0 
N 95 90 0 
N 62 39 0 
N 73 52 0 
N 84 73 0 
N 55 73 0 
N 62 52 0 
N 86 98 0 
N 9 12 0 
N 40 85 0 
N 7 2 0 
N 27 49 0 
N 36 52 0 
N 67 58 0 
N 86 30 0 
N 3 28 0 
N 28 36 0 
N 56 64 0 
N 9 19 0 
N 5 31 0 
N 71 71 0 
N 11 15 0 
N 78 6 0 
N 33 66 0 
N 77 21 0 
N 27 74 0 
N 64 23 0 
N 83 90 0 
N 41 48 0 
N 93 6 0 
N 90 4 0 
N 56 12 0 
N 33 59 0 
N 70 52 0 
N 33 19 0 
N 62 86 0 
N 28 80 0 
N 62 6 0 
N 51 10 0 
N 29 76 0 
N 35 47 0 
N 85 9 0 
N 19 65 0 
N 16 32 0 
N 11 24 0 
N 91 42 0 
N 81 91 0 
N 97 3 0 
N 5 67 0 
N 27 83 0 
N 17 92 0 
N 56 53 0 
N 63 7 0 
N 32 63 0 
N 77 72 0 
N 8 49 0 
N 65 0 0 
N 56 28 0 
N 23 84 0 
N 28 40 0 
N 93 70 0 
N 31 5 0 
N 72 52 0 
N 35 52 0 
N 81 97 0 
N 48 93 0 
N 74 6 0 
N 9 27 0 
N 27 81 0 
N 39 95 0 
N 35 73 0 
N 23 12 0 
N 75 38 0 
N 0 2 0 
N 56 13 0 
N 6 76 0 
N 76 73 0 
N 49 73 0 
N 17 73 0 
N 7 19 0 
N 95 49 0 
N 28 68 0 
N 69 73 0 
N 34 15 0 
N 64 4 0 
N 75 24 0 
N 97 2 0 
N 54 91 0 
N 10 35 0 
N 63 73 0 
N 48 35 0 
N 87 5 0 
N 92 43 0 
N 71 21 0 
N 93 42 0 
N 40 33 0 
N 19 93 0 
N 12 89 0 
N 64 9 0 
N 85 3 0 
N 88 73 0 
N 34 32 0 
N 18 33 0 
N 99 79 0 
N 56 8 0 
N 86 32 0 
N 10 15 0 
N 22 89 0 
N 94 5 0 
N 49 88 0 
N 87 85 0 
N 83 88 0 
N 64 85 0 
N 81 28 0 
N 63 84 0 
N 18 62 0 
N 87 25 0 
N 70 57 0 
N 81 19 0 
N 95 67 0 
N 84 36 0 
N 20 65 0 
N 12 19 0 
N 56 26 0 
N 54 32 0 
N 19 83 0 
N 39 7 0 
N 23 89 0 
N 43 58 0 
N 78 20 0 
N 64 35 0 
N 30 82 0 
N 88 56 0 
N 40 82 0 
N 64 82 0 
N 28 25 0 
N 65 7 0 
N 29 34 0 
N 6 32 0 
N 77 8 0 
N 77 26 0 
N 59 52 0 
N 94 33 0 
N 96 38 0 
N 71 73 0 
N 25 80 0 
N 73 8 0 
N 54 10 0 
N 41 83 0 
N 63 26 0 
N 33 63 0 
N 49 10 0 
N 47 91 0 
N 59 57 0 
N 92 5 0 
N 65 63 0 
N 63 30 0 
N 77 92 0 
N 12 27 0 
N 27 12 0 
N 64 54 0 
N 8 32 0 
N 13 79 0 
N 47 10 0 
N 31 66 0 
C 0 0 0 
C 10 0 0 
C 20 0 0 
C 30 0 0 
C 40 0 0 
C 50 0 0 
C 60 0 0 
C 70 0 0 
C 80 0 0 
C 90 0 0 
C 100 0 0 
C 0 10 0 
C 10 10 0 
C 20 10 0 
C 30 10 0 
C 40 10 0 
C 50 10 0 
C 60 10 0 
C 70 10 0 
C 80 10 0 
C 90 10 0 
C 100 10 0 
C 0 20 0 
C 10 20 0 
C 20 20 0 
C 30 20 0 
C 40 20 0 
C 50 20 0 
C 60 20 0 
C 70 20 0 
C 80 20 0 
C 90 20 0 
C 100 20 0 
C 0 30 0 
C 10 30 0 
C 20 30 0 
C 30 30 0 
C 40 30 0 
C 50 30 0 
C 60 30 0 
C 70 30 0 
C 80 30 0 
C 90 30 0 
C 100 30 0 
C 0 40 0 
C 10 40 0 
C 20 40 0 
C 30 40 0 
C 40 40 0 
C 50 40 0 
C 60 40 0 
C 70 40 0 
C 80 40 0 
C 90 40 0 
C 100 40 0 
C 0 50 0 
C 10 50 0 
C 20 50 0 
C 30 50 0 
C 40 50 0 
C 50 50 0 
C 60 50 0 
C 70 50 0 
C 80 50 0 
C 90 50 0 
C 100 50 0 
C 0 60 0 
C 10 60 0 
C 20 60 0 
C 30 60 0 
C 40 60 0 
C 50 60 0 
C 60 60 0 
C 70 60 0 
C 80 60 0 
C 90 60 0 
C 100 60 0 
C 0 70 0 
C 10 70 0 
C 20 70 0 
C 30 70 0 
C 40 70 0 
C 50 70 0 
C 60 70 0 
C 70 70 0 
C 80 70 0 
C 90 70 0 
C 100 70 0 
C 0 80 0 
C 10 80 0 
C 20 80 0 
C 30 80 0 
C 40 80 0 
C 50 80 0 
C 60 80 0 
C 70 80 0 
C 80 80 0 
C 90 80 0 
C 100 80 0 
C 0 90 0 
C 10 90 0 
C 20 90 0 
C 30 90 0 
C 40 90 0 
C 50 90 0 
C 60 90 0 
C 70 90 0 
C 80 90 0 
C 90 90 0 
C 100 90 0 
C 0 100 0 
C 10 100 0 
C 20 100 0 
C 30 100 0 
C 40 100 0 
C 50 100 0 
C 60 100 0 
C 70 100 0 
C 80 100 0 
C 90 100 0 
C 100 100 0 
O 99 21 0 
O 99 1 0 
O 66 99 0 
O 8 18 0 
O 99 27 0 
O 82 73 0 
O 99 0 0 
626
Atoms. Timestep: 17
N 88 8 0 
N 25 62 0 
N 24 73 0 
N 54 95 0 
N 26 21 0 
N 65 25 0 
N 81 71 0 
N 7 48 0 
N 9 51 0 
N 54 30 0 
N 84 69 0 
N 11 3 0 
N 65 30 0 
N 64 12 0 
N 95 88 0 
N 79 74 0 
N 57 82 0 
N 53 65 0 
N 29 32 0 
N 33 66 0 
N 10 84 0 
N 18 79 0 
N 4 4 0 
N 17 77 0 
N 94 28 0 
N 12 24 0 
N 89 74 0 
N 68 53 0 
N 78 95 0 
N 96 27 0 
N 84 4 0 
N 57 10 0 
N 14 21 0 
N 44 85 0 
N 59 75 0 
N 65 94 0 
N 17 81 0 
N 99 6 0 
N 94 69 0 
N 64 98 0 
N 86 99 0 
N 4 33 0 
N 76 21 0 
N 37 55 0 
N 11 88 0 
N 78 25 0 
N 66 20 0 
N 36 5 0 
N 28 64 0 
N 97 46 0 
N 27 18 0 
N 79 61 0 
N 94 67 0 
N 24 1 0 
N 63 7 0 
N 64 85 0 
N 99 5 0 
N 55 12 0 
N 82 5 0 
N 24 91 0 
N 10 44 0 
N 97 30 0 
N 28 61 0 
N 62 51 0 
N 64 27 0 
N 40 51 0 
N 67 74 0 
N 56 40 0 
N 87 72 0 
N 24 19 0 
N 31 18 0 
N 60 24 0 
N 32 42 0 
N 5 21 0 
N 17 24 0 
N 95 69 0 
N 17 74 0 
N 82 89 0 
N 62 70 0 
N 87 5 0 
N 5 22 0 
N 78 71 0 
N 97 69 0 
N 65 99 0 
N 7 25 0 
N 80 77 0 
N 69 7 0 
N 10 65 0 
N 78 70 0 
N 87 27 0 
N 38 19 0 
N 66 34 0 
N 38 18 0 
N 2 90 0 
N 5 44 0 
N 22 74 0 
N 47 83 0 
N 29 18 0 
N 57 86 0 
N 7 23 0 
N 30 58 0 
N 76 6 0 
N 73 48 0 
N 63 68 0 
N 80 73 0 
N 98 25 0 
N 79 95 0 
N 96 35 0 
N 4 32 0 
N 1 25 0 
N 36 99 0 
N 36 60 0 
N 7 54 0 
N 4 72 0 
N 75 54 0 
N 16 19 0 
N 84 53 0 
N 18 75 0 
N 32 11 0 
N 83 82 0 
N 15 78 0 
N 68 74 0 
N 91 92 0 
N 10 18 0 
N 92 65 0 
N 98 5 0 
N 65 6 0 
N 68 56 0 
N 19 63 0 
N 5 11 0 
N 33 62 0 
N 68 72 0 
N 9 24 0 
N 47 65 0 
N 63 93 0 
N 47 47 0 
N 99 3 0 
N 84 95 0 
N 60 91 0 
N 77 71 0 
N 74 48 0 
N 32 87 0 
N 23 72 0 
N 26 49 0 
N 35 48 0 
N 80 68 0 
N 20 74 0 
N 33 60 0 
N 83 4 0 
N 45 63 0 
N 38 52 0 
N 16 63 0 
N 8 71 0 
N 38 21 0 
N 66 92 0 
N 19 90 0 
N 3 47 0 
N 31 22 0 
N 65 79 0 
N 46 18 0 
N 62 59 0 
N 14 65 0 
N 14 19 0 
N 83 6 0 
N 9 71 0 
N 4 3 0 
N 22 19 0 
N 90 73 0 
N 5 78 0 
N 73 50 0 
N 8 34 0 
N 28 87 0 
N 10 32 0 
N 66 91 0 
N 13 9 0 
N 15 73 0 
N 31 58 0 
N 35 20 0 
N 90 39 0 
N 98 32 0 
N 85 10 0 
N 12 31 0 
N 79 75 0 
N 84 2 0 
N 59 13 0 
N 82 16 0 
N 84 83 0 
N 52 96 0 
N 62 99 0 
N 72 48 0 
N 95 42 0 
N 38 58 0 
N 94 71 0 
N 64 89 0 
N 97 29 0 
N 85 72 0 
N 19 26 0 
N 15 88 0 
N 59 73 0 
N 97 28 0 
N 18 74 0 
N 21 64 0 
N 98 73 0 
N 46 64 0 
N 6 68 0 
N 18 88 0 
N 5 1 0 
N 8 33 0 
N 85 26 0 
N 96 32 0 
N 35 59 0 
N 97 31 0 
N 63 82 0 
N 46 65 0 
N 18 3 0 
N 39 85 0 
N 43 71 0 
N 53 96 0 
N 79 16 0 
N 81 91 0 
N 92 21 0 
N 32 27 0 
N 17 69 0 
N 5 50 0 
N 46 73 0 
N 62 49 0 
N 7 91 0 
N 84 29 0 
N 19 30 0 
N 24 79 0 
N 10 14 0 
N 79 25 0 
N 51 87 0 
N 96 70 0 
N 55 11 0 
N 83 73 0 
N 46 71 0 
N 83 85 0 
N 77 28 0 
N 21 3 0 
N 81 67 0 
N 48 58 0 
N 4 68 0 
N 11 65 0 
N 98 46 0 
N 76 80 0 
N 77 8 0 
N 93 70 0 
N 19 19 0 
N 99 32 0 
N 40 95 0 
N 22 72 0 
N 4 83 0 
N 70 63 0 
N 22 80 0 
N 64 72 0 
N 96 21 0 
N 73 73 0 
N 97 27 0 
N 60 38 0 
N 43 92 0 
N 96 34 0 
N 83 3 0 
N 64 90 0 
N 67 32 0 
N 53 91 0 
N 63 5 0 
N 30 65 0 
N 48 85 0 
N 78 27 0 
N 66 38 0 
N 88 80 0 
N 99 68 0 
N 27 61 0 
N 29 60 0 
N 16 29 0 
N 9 12 0 
N 99 27 0 
N 23 20 0 
N 21 74 0 
N 66 74 0 
N 64 64 0 
N 87 75 0 
N 23 81 0 
N 5 63 0 
N 98 28 0 
N 99 70 0 
N 66 30 0 
N 24 41 0 
N 95 72 0 
N 84 30 0 
N 91 57 0 
N 83 21 0 
N 94 70 0 
N 80 74 0 
N 63 51 0 
N 33 19 0 
N 82 73 0 
N 72 54 0 
N 81 64 0 
N 20 23 0 
N 73 74 0 
N 9 31 0 
N 20 15 0 
N 80 64 0 
N 23 92 0 
N 19 69 0 
N 95 44 0 
N 10 22 0 
N 61 53 0 
N 22 2 0 
N 27 17 0 
N 24 64 0 
N 22 66 0 
N 9 5 0 
N 81 94 0 
N 43 82 0 
N 55 60 0 
N 47 89 0 
N 16 18 0 
N 15 19 0 
N 11 20 0 
N 87 32 0 
N 32 31 0 
N 93 44 0 
N 62 34 0 
N 55 24 0 
N 16 74 0 
N 16 69 0 
N 25 18 0 
N 7 29 0 
N 83 28 0 
N 96 43 0 
N 10 21 0 
N 44 82 0 
N 58 35 0 
N 96 90 0 
N 63 39 0 
N 73 53 0 
N 84 73 0 
N 56 73 0 
N 63 52 0 
N 87 98 0 
N 9 13 0 
N 40 86 0 
N 8 2 0 
N 27 48 0 
N 37 52 0 
N 68 58 0 
N 86 29 0 
N 4 28 0 
N 28 35 0 
N 57 64 0 
N 9 18 0 
N 6 31 0 
N 72 71 0 
N 11 16 0 
N 78 7 0 
N 32 66 0 
N 77 21 0 
N 28 74 0 
N 64 24 0 
N 82 90 0 
N 41 47 0 
N 94 6 0 
N 90 3 0 
N 57 12 0 
N 33 58 0 
N 70 53 0 
N 32 19 0 
N 63 86 0 
N 29 80 0 
N 62 7 0 
N 51 11 0 
N 30 76 0 
N 35 46 0 
N 85 8 0 
N 19 66 0 
N 15 32 0 
N 10 24 0 
N 91 41 0 
N 81 90 0 
N 97 2 0 
N 6 67 0 
N 27 82 0 
N 17 91 0 
N 57 53 0 
N 64 7 0 
N 32 64 0 
N 78 72 0 
N 9 49 0 
N 65 1 0 
N 56 29 0 
N 23 85 0 
N 27 40 0 
N 93 71 0 
N 32 5 0 
N 72 53 0 
N 35 53 0 
N 81 98 0 
N 48 94 0 
N 73 6 0 
N 9 26 0 
N 28 81 0 
N 39 96 0 
N 36 73 0 
N 22 12 0 
N 76 38 0 
N 0 1 0 
N 57 13 0 
N 6 75 0 
N 77 73 0 
N 50 73 0 
N 18 73 0 
N 8 19 0 
N 96 49 0 
N 27 68 0 
N 70 73 0 
N 33 15 0 
N 65 4 0 
N 75 23 0 
N 98 2 0 
N 55 91 0 
N 10 34 0 
N 64 73 0 
N 49 35 0 
N 88 5 0 
N 92 42 0 
N 70 21 0 
N 93 41 0 
N 39 33 0 
N 20 93 0 
N 13 89 0 
N 65 9 0 
N 86 3 0 
N 88 73 0 
N 33 32 0 
N 17 33 0 
N 99 78 0 
N 57 8 0 
N 86 31 0 
N 10 16 0 
N 22 88 0 
N 95 5 0 
N 50 88 0 
N 86 85 0 
N 83 87 0 
N 64 86 0 
N 81 27 0 
N 63 85 0 
N 18 63 0 
N 88 25 0 
N 71 57 0 
N 81 20 0 
N 95 68 0 
N 84 35 0 
N 20 66 0 
N 11 19 0 
N 56 27 0 
N 54 33 0 
N 19 82 0 
N 40 7 0 
N 24 89 0 
N 43 59 0 
N 78 21 0 
N 65 35 0 
N 30 83 0 
N 87 56 0 
N 39 82 0 
N 65 82 0 
N 27 25 0 
N 65 8 0 
N 28 34 0 
N 7 32 0 
N 77 9 0 
N 77 27 0 
N 59 53 0 
N 95 33 0 
N 96 37 0 
N 72 73 0 
N 26 80 0 
N 72 8 0 
N 54 11 0 
N 41 84 0 
N 63 27 0 
N 33 64 0 
N 49 11 0 
N 47 92 0 
N 59 58 0 
N 93 5 0 
N 65 64 0 
N 64 30 0 
N 77 93 0 
N 11 27 0 
N 26 12 0 
N 64 55 0 
N 8 31 0 
N 13 78 0 
N 47 11 0 
N 31 67 0 
C 0 0 0 
C 10 0 0 
C 20 0 0 
C 30 0 0 
C 40 0 0 
C 50 0 0 
C 60 0 0 
C 70 0 0 
C 80 0 0 
C 90 0 0 
C 100 0 0 
C 0 10 0 
C 10 10 0 
C 20 10 0 
C 30 10 0 
C 40 10 0 
C 50 10 0 
C 60 10 0 
C 70 10 0 
C 80 10 0 
C 90 10 0 
C 100 10 0 
C 0 20 0 
C 10 20 0 
C 20 20 0 
C 30 20 0 
C 40 20 0 
C 50 20 0 
C 60 20 0 
C 70 20 0 
C 80 20 0 
C 90 20 0 
C 100 20 0 
C 0 30 0 
C 10 30 0 
C 20 30 0 
C 30 30 0 
C 40 30 0 
C 50 30 0 
C 60 30 0 
C 70 30 0 
C 80 30 0 
C 90 30 0 
C 100 30 0 
C 0 40 0 
C 10 40 0 
C 20 40 0 
C 30 40 0 
C 40 40 0 
C 50 40 0 
C 60 40 0 
C 70 40 0 
C 80 40 0 
C 90 40 0 
C 100 40 0 
C 0 50 0 
C 10 50 0 
C 20 50 0 
C 30 50 0 
C 40 50 0 
C 50 50 0 
C 60 50 0 
C 70 50 0 
C 80 50 0 
C 90 50 0 
C 100 50 0 
C 0 60 0 
C 10 60 0 
C 20 60 0 
C 30 60 0 
C 40 60 0 
C 50 60 0 
C 60 60 0 
C 70 60 0 
C 80 60 0 
C 90 60 0 
C 100 60 0 
C 0 70 0 
C 10 70 0 
C 20 70 0 
C 30 70 0 
C 40 70 0 
C 50 70 0 
C 60 70 0 
C 70 70 0 
C 80 70 0 
C 90 70 0 
C 100 70 0 
C 0 80 0 
C 10 80 0 
C 20 80 0 
C 30 80 0 
C 40 80 0 
C 50 80 0 
C 60 80 0 
C 70 80 0 
C 80 80 0 
C 90 80 0 
C 100 80 0 
C 0 90 0 
C 10 90 0 
C 20 90 0 
C 30 90 0 
C 40 90 0 
C 50 90 0 
C 60 90 0 
C 70 90 0 
C 80 90 0 
C 90 90 0 
C 100 90 0 
C 0 100 0 
C 10 100 0 
C 20 100 0 
C 30 100 0 
C 40 100 0 
C 50 100 0 
C 60 100 0 
C 70 100 0 
C 80 100 0 
C 90 100 0 
C 100 100 0 
O 99 22 0 
O 99 0 0 
O 67 99 0 
O 7 18 0 
O 99 99 0 
626
Atoms. Timestep: 18
N 89 8 0 
N 26 62 0 
N 25 73 0 
N 55 95 0 
N 26 20 0 
N 65 26 0 
N 81 72 0 
N 7 47 0 
N 8 51 0 
N 55 30 0 
N 85 69 0 
N 12 3 0 
N 66 30 0 
N 65 12 0 
N 96 88 0 
N 78 74 0 
N 58 82 0 
N 54 65 0 
N 28 32 0 
N 32 66 0 
N 10 85 0 
N 18 78 0 
N 4 3 0 
N 18 77 0 
N 95 28 0 
N 12 23 0 
N 90 74 0 
N 68 54 0 
N 78 96 0 
N 97 27 0 
N 85 4 0 
N 58 10 0 
N 14 20 0 
N 45 85 0 
N 60 75 0 
N 65 95 0 
N 18 81 0 
N 99 5 0 
N 94 70 0 
N 65 98 0 
N 86 99 0 
N 5 33 0 
N 76 22 0 
N 37 54 0 
N 12 88 0 
N 79 25 0 
N 67 20 0 
N 36 6 0 
N 28 65 0 
N 98 46 0 
N 26 18 0 
N 78 61 0 
N 94 68 0 
N 25 1 0 
N 64 7 0 
N 65 85 0 
N 99 4 0 
N 56 12 0 
N 81 5 0 
N 25 91 0 
N 10 45 0 
N 97 29 0 
N 28 60 0 
N 63 51 0 
N 64 28 0 
N 40 52 0 
N 67 75 0 
N 56 41 0 
N 88 72 0 
N 24 19 0 
N 30 18 0 
N 61 24 0 
N 31 42 0 
N 5 20 0 
N 17 23 0 
N 96 69 0 
N 17 75 0 
N 82 90 0 
N 61 70 0 
N 88 5 0 
N 6 22 0 
N 77 71 0 
N 98 69 0 
N 66 99 0 
N 7 24 0 
N 80 78 0 
N 68 7 0 
N 10 64 0 
N 77 70 0 
N 87 26 0 
N 38 18 0 
N 67 34 0 
N 37 18 0 
N 3 90 0 
N 6 44 0 
N 23 74 0 
N 47 84 0 
N 28 18 0 
N 57 87 0 
N 7 22 0 
N 31 58 0 
N 76 7 0 
N 74 48 0 
N 63 69 0 
N 80 74 0 
N 98 24 0 
N 79 96 0 
N 97 35 0 
N 5 32 0 
N 2 25 0 
N 37 99 0 
N 37 60 0 
N 7 53 0 
N 4 73 0 
N 74 54 0 
N 15 19 0 
N 85 53 0 
N 19 75 0 
N 32 12 0 
N 82 82 0 
N 15 79 0 
N 68 75 0 
N 91 93 0 
N 9 18 0 
N 92 66 0 
N 98 4 0 
N 66 6 0 
N 67 56 0 
N 19 62 0 
N 6 11 0 
N 33 63 0 
N 67 72 0 
N 9 23 0 
N 47 66 0 
N 63 94 0 
N 48 47 0 
N 99 2 0 
N 84 96 0 
N 60 92 0 
N 76 71 0 
N 74 49 0 
N 33 87 0 
N 23 73 0 
N 25 49 0 
N 36 48 0 
N 80 69 0 
N 21 74 0 
N 33 59 0 
N 83 3 0 
N 45 64 0 
N 38 53 0 
N 16 64 0 
N 8 72 0 
N 38 20 0 
N 66 93 0 
N 19 91 0 
N 3 46 0 
N 30 22 0 
N 66 79 0 
N 45 18 0 
N 62 60 0 
N 15 65 0 
N 13 19 0 
N 83 5 0 
N 10 71 0 
N 4 2 0 
N 22 18 0 
N 91 73 0 
N 6 78 0 
N 73 51 0 
N 7 34 0 
N 28 88 0 
N 10 31 0 
N 67 91 0 
N 12 9 0 
N 15 74 0 
N 31 57 0 
N 34 20 0 
N 90 38 0 
N 99 32 0 
N 85 9 0 
N 11 31 0 
N 78 75 0 
N 84 1 0 
N 60 13 0 
N 82 17 0 
N 85 83 0 
N 52 97 0 
N 63 99 0 
N 72 47 0 
N 95 41 0 
N 39 58 0 
N 94 72 0 
N 64 90 0 
N 98 29 0 
N 86 72 0 
N 18 26 0 
N 15 89 0 
N 59 74 0 
N 98 28 0 
N 19 74 0 
N 20 64 0 
N 98 74 0 
N 47 64 0 
N 6 69 0 
N 19 88 0 
N 6 1 0 
N 7 33 0 
N 86 26 0 
N 97 32 0 
N 35 58 0 
N 98 31 0 
N 64 82 0 
N 46 66 0 
N 18 2 0 
N 39 86 0 
N 43 72 0 
N 54 96 0 
N 80 16 0 
N 80 91 0 
N 93 21 0 
N 31 27 0 
N 17 70 0 
N 6 50 0 
N 47 73 0 
N 62 48 0 
N 7 92 0 
N 85 29 0 
N 19 29 0 
N 25 79 0 
N 10 15 0 
N 80 25 0 
N 52 87 0 
N 97 70 0 
N 56 11 0 
N 82 73 0 
N 46 72 0 
N 82 85 0 
N 78 28 0 
N 22 3 0 
N 81 68 0 
N 48 57 0 
N 5 68 0 
N 11 66 0 
N 98 45 0 
N 75 80 0 
N 77 9 0 
N 93 71 0 
N 18 19 0 
N 99 31 0 
N 41 95 0 
N 22 73 0 
N 3 83 0 
N 70 64 0 
N 23 80 0 
N 65 72 0 
N 96 22 0 
N 73 74 0 
N 97 26 0 
N 60 39 0 
N 43 93 0 
N 96 33 0 
N 84 3 0 
N 65 90 0 
N 67 33 0 
N 53 92 0 
N 64 5 0 
N 29 65 0 
N 48 86 0 
N 78 26 0 
N 66 39 0 
N 89 80 0 
N 99 69 0 
N 27 60 0 
N 29 61 0 
N 15 29 0 
N 8 12 0 
N 99 26 0 
N 23 19 0 
N 21 75 0 
N 66 75 0 
N 64 65 0 
N 88 75 0 
N 24 81 0 
N 5 64 0 
N 98 27 0 
N 99 71 0 
N 67 30 0 
N 24 40 0 
N 96 72 0 
N 85 30 0 
N 91 56 0 
N 83 22 0 
N 95 70 0 
N 80 75 0 
N 63 52 0 
N 32 19 0 
N 81 73 0 
N 71 54 0 
N 80 64 0 
N 20 22 0 
N 73 75 0 
N 8 31 0 
N 20 14 0 
N 80 65 0 
N 24 92 0 
N 20 69 0 
N 95 43 0 
N 10 21 0 
N 62 53 0 
N 23 2 0 
N 26 17 0 
N 24 63 0 
N 22 65 0 
N 10 5 0 
N 81 95 0 
N 42 82 0 
N 55 59 0 
N 47 90 0 
N 16 18 0 
N 15 18 0 
N 11 19 0 
N 88 32 0 
N 31 31 0 
N 94 44 0 
N 63 34 0 
N 56 24 0 
N 16 75 0 
N 16 70 0 
N 24 18 0 
N 7 28 0 
N 84 28 0 
N 97 43 0 
N 9 21 0 
N 45 82 0 
N 58 36 0 
N 97 90 0 
N 63 40 0 
N 74 53 0 
N 84 74 0 
N 57 73 0 
N 64 52 0 
N 87 99 0 
N 8 13 0 
N 41 86 0 
N 9 2 0 
N 27 47 0 
N 36 52 0 
N 68 59 0 
N 86 28 0 
N 4 27 0 
N 28 34 0 
N 58 64 0 
N 8 18 0 
N 6 30 0 
N 71 71 0 
N 10 16 0 
N 78 8 0 
N 32 67 0 
N 78 21 0 
N 27 74 0 
N 64 25 0 
N 82 91 0 
N 41 48 0 
N 94 5 0 
N 91 3 0 
N 57 13 0 
N 32 58 0 
N 69 53 0 
N 32 18 0 
N 64 86 0 
N 29 80 0 
N 62 8 0 
N 52 11 0 
N 30 77 0 
N 34 46 0 
N 85 7 0 
N 19 67 0 
N 15 31 0 
N 10 23 0 
N 91 40 0 
N 81 90 0 
N 97 1 0 
N 6 66 0 
N 28 82 0 
N 17 92 0 
N 58 53 0 
N 65 7 0 
N 32 63 0 
N 77 72 0 
N 9 48 0 
N 66 1 0 
N 57 29 0 
N 24 85 0 
N 26 40 0 
N 93 72 0 
N 32 4 0 
N 71 53 0 
N 35 54 0 
N 80 98 0 
N 49 94 0 
N 72 6 0 
N 8 26 0 
N 29 81 0 
N 40 96 0 
N 36 74 0 
N 22 13 0 
N 76 37 0 
N 1 1 0 
N 58 13 0 
N 6 76 0 
N 77 74 0 
N 50 74 0 
N 19 73 0 
N 7 19 0 
N 96 48 0 
N 26 68 0 
N 69 73 0 
N 33 16 0 
N 66 4 0 
N 76 23 0 
N 98 1 0 
N 55 92 0 
N 9 34 0 
N 64 74 0 
N 50 35 0 
N 89 5 0 
N 93 42 0 
N 69 21 0 
N 93 40 0 
N 38 33 0 
N 21 93 0 
N 14 89 0 
N 66 9 0 
N 86 2 0 
N 89 73 0 
N 33 31 0 
N 17 32 0 
N 98 78 0 
N 58 8 0 
N 86 30 0 
N 9 16 0 
N 23 88 0 
N 96 5 0 
N 51 88 0 
N 86 86 0 
N 82 87 0 
N 65 86 0 
N 82 27 0 
N 63 85 0 
N 17 63 0 
N 88 24 0 
N 71 58 0 
N 82 20 0 
N 96 68 0 
N 85 35 0 
N 20 65 0 
N 10 19 0 
N 57 27 0 
N 54 34 0 
N 19 83 0 
N 40 8 0 
N 25 89 0 
N 43 60 0 
N 79 21 0 
N 65 36 0 
N 31 83 0 
N 88 56 0 
N 39 83 0 
N 66 82 0 
N 26 25 0 
N 66 8 0 
N 27 34 0 
N 7 32 0 
N 76 9 0 
N 77 26 0 
N 60 53 0 
N 95 32 0 
N 97 37 0 
N 72 74 0 
N 27 80 0 
N 72 9 0 
N 54 12 0 
N 42 84 0 
N 63 28 0 
N 33 65 0 
N 50 11 0 
N 47 93 0 
N 59 59 0 
N 93 4 0 
N 65 65 0 
N 63 30 0 
N 76 93 0 
N 10 27 0 
N 26 13 0 
N 64 56 0 
N 7 31 0 
N 13 79 0 
N 48 11 0 
N 30 67 0 
C 0 0 0 
C 10 0 0 
C 20 0 0 
C 30 0 0 
C 40 0 0 
C 50 0 0 
C 60 0 0 
C 70 0 0 
C 80 0 0 
C 90 0 0 
C 100 0 0 
C 0 10 0 
C 10 10 0 
C 20 10 0 
C 30 10 0 
C 40 10 0 
C 50 10 0 
C 60 10 0 
C 70 10 0 
C 80 10 0 
C 90 10 0 
C 100 10 0 
C 0 20 0 
C 10 20 0 
C 20 20 0 
C 30 20 0 
C 40 20 0 
C 50 20 0 
C 60 20 0 
C 70 20 0 
C 80 20 0 
C 90 20 0 
C 100 20 0 
C 0 30 0 
C 10 30 0 
C 20 30 0 
C 30 30 0 
C 40 30 0 
C 50 30 0 
C 60 30 0 
C 70 30 0 
C 80 30 0 
C 90 30 0 
C 100 30 0 
C 0 40 0 
C 10 40 0 
C 20 40 0 
C 30 40 0 
C 40 40 0 
C 50 40 0 
C 60 40 0 
C 70 40 0 
C 80 40 0 
C 90 40 0 
C 100 40 0 
C 0 50 0 
C 10 50 0 
C 20 50 0 
C 30 50 0 
C 40 50 0 
C 50 50 0 
C 60 50 0 
C 70 50 0 
C 80 50 0 
C 90 50 0 
C 100 50 0 
C 0 60 0 
C 10 60 0 
C 20 60 0 
C 30 60 0 
C 40 60 0 
C 50 60 0 
C 60 60 0 
C 70 60 0 
C 80 60 0 
C 90 60 0 
C 100 60 0 
C 0 70 0 
C 10 70 0 
C 20 70 0 
C 30 70 0 
C 40 70 0 
C 50 70 0 
C 60 70 0 
C 70 70 0 
C 80 70 0 
C 90 70 0 
C 100 70 0 
C 0 80 0 
C 10 80 0 
C 20 80 0 
C 30 80 0 
C 40 80 0 
C 50 80 0 
C 60 80 0 
C 70 80 0 
C 80 80 0 
C 90 80 0 
C 100 80 0 
C 0 90 0 
C 10 90 0 
C 20 90 0 
C 30 90 0 
C 40 90 0 
C 50 90 0 
C 60 90 0 
C 70 90 0 
C 80 90 0 
C 90 90 0 
C 100 90 0 
C 0 100 0 
C 10 100 0 
C 20 100 0 
C 30 100 0 
C 40 100 0 
C 50 100 0 
C 60 100 0 
C 70 100 0 
C 80 100 0 
C 90 100 0 
C 100 100 0 
O 0 22 0 
O 99 99 0 
O 68 99 0 
O 7 17 0 
O 0 99 0 
626
Atoms. Timestep: 19
N 90 8 0 
N 26 61 0 
N 24 73 0 
N 56 95 0 
N 25 20 0 
N 65 27 0 
N 81 73 0 
N 7 46 0 
N 8 50 0 
N 56 30 0 
N 86 69 0 
N 11 3 0 
N 67 30 0 
N 65 13 0 
N 96 89 0 
N 77 74 0 
N 58 83 0 
N 54 66 0 
N 28 31 0 
N 32 65 0 
N 10 86 0 
N 17 78 0 
N 3 3 0 
N 17 77 0 
N 94 28 0 
N 11 23 0 
N 90 75 0 
N 68 55 0 
N 77 96 0 
N 97 26 0 
N 85 5 0 
N 58 11 0 
N 13 20 0 
N 46 85 0 
N 60 76 0 
N 65 96 0 
N 18 82 0 
N 99 6 0 
N 94 71 0 
N 65 99 0 
N 87 99 0 
N 4 33 0 
N 75 22 0 
N 36 54 0 
N 11 88 0 
N 79 24 0 
N 67 21 0 
N 36 7 0 
N 29 65 0 
N 97 46 0 
N 25 18 0 
N 78 62 0 
N 94 69 0 
N 25 2 0 
N 65 7 0 
N 65 86 0 
N 99 4 0 
N 56 13 0 
N 81 6 0 
N 24 91 0 
N 10 44 0 
N 96 29 0 
N 28 61 0 
N 63 50 0 
N 64 27 0 
N 40 53 0 
N 68 75 0 
N 56 40 0 
N 89 72 0 
N 24 18 0 
N 29 18 0 
N 61 25 0 
N 30 42 0 
N 5 19 0 
N 17 22 0 
N 97 69 0 
N 17 76 0 
N 81 90 0 
N 62 70 0 
N 89 5 0 
N 5 22 0 
N 77 72 0 
N 99 69 0 
N 67 99 0 
N 7 23 0 
N 80 79 0 
N 68 8 0 
N 10 65 0 
N 76 70 0 
N 86 26 0 
N 37 18 0 
N 67 35 0 
N 36 18 0 
N 2 90 0 
N 6 43 0 
N 22 74 0 
N 48 84 0 
N 27 18 0 
N 57 88 0 
N 7 21 0 
N 32 58 0 
N 76 8 0 
N 75 48 0 
N 63 70 0 
N 79 74 0 
N 98 23 0 
N 79 97 0 
N 97 34 0 
N 5 31 0 
N 1 25 0 
N 38 99 0 
N 37 59 0 
N 7 52 0 
N 3 73 0 
N 74 55 0 
N 14 19 0 
N 85 52 0 
N 18 75 0 
N 32 13 0 
N 81 82 0 
N 15 80 0 
N 68 76 0 
N 91 94 0 
N 8 18 0 
N 93 66 0 
N 98 5 0 
N 66 7 0 
N 68 56 0 
N 20 62 0 
N 6 12 0 
N 32 63 0 
N 67 73 0 
N 9 22 0 
N 48 66 0 
N 63 95 0 
N 48 46 0 
N 99 3 0 
N 85 96 0 
N 60 93 0 
N 75 71 0 
N 75 49 0 
N 32 87 0 
N 22 73 0 
N 25 48 0 
N 37 48 0 
N 79 69 0 
N 20 74 0 
N 34 59 0 
N 83 4 0 
N 46 64 0 
N 38 52 0 
N 16 65 0 
N 7 72 0 
N 37 20 0 
N 67 93 0 
N 18 91 0 
N 2 46 0 
N 29 22 0 
N 67 79 0 
N 45 17 0 
N 63 60 0 
N 15 66 0 
N 12 19 0 
N 83 6 0 
N 9 71 0 
N 3 2 0 
N 21 18 0 
N 92 73 0 
N 5 78 0 
N 73 50 0 
N 7 33 0 
N 27 88 0 
N 9 31 0 
N 67 92 0 
N 12 10 0 
N 14 74 0 
N 30 57 0 
N 34 19 0 
N 90 37 0 
N 98 32 0 
N 85 10 0 
N 11 30 0 
N 78 76 0 
N 84 2 0 
N 60 14 0 
N 81 17 0 
N 85 84 0 
N 52 98 0 
N 64 99 0 
N 72 48 0 
N 95 40 0 
N 38 58 0 
N 95 72 0 
N 64 91 0 
N 98 28 0 
N 86 73 0 
N 17 26 0 
N 14 89 0 
N 60 74 0 
N 97 28 0 
N 18 74 0 
N 20 65 0 
N 99 74 0 
N 47 65 0 
N 6 70 0 
N 19 89 0 
N 5 1 0 
N 7 32 0 
N 85 26 0 
N 96 32 0 
N 35 57 0 
N 97 31 0 
N 64 83 0 
N 46 65 0 
N 18 3 0 
N 40 86 0 
N 42 72 0 
N 55 96 0 
N 80 17 0 
N 80 92 0 
N 92 21 0 
N 31 26 0 
N 17 71 0 
N 5 50 0 
N 47 74 0 
N 63 48 0 
N 7 93 0 
N 84 29 0 
N 18 29 0 
N 24 79 0 
N 9 15 0 
N 80 24 0 
N 52 88 0 
N 98 70 0 
N 57 11 0 
N 82 74 0 
N 47 72 0 
N 81 85 0 
N 77 28 0 
N 22 4 0 
N 81 69 0 
N 47 57 0 
N 5 69 0 
N 11 67 0 
N 98 44 0 
N 75 81 0 
N 76 9 0 
N 93 72 0 
N 17 19 0 
N 99 30 0 
N 42 95 0 
N 21 73 0 
N 3 82 0 
N 70 65 0 
N 22 80 0 
N 66 72 0 
N 95 22 0 
N 73 75 0 
N 97 25 0 
N 61 39 0 
N 43 94 0 
N 95 33 0 
N 84 4 0 
N 66 90 0 
N 68 33 0 
N 53 93 0 
N 65 5 0 
N 29 64 0 
N 48 87 0 
N 78 25 0 
N 67 39 0 
N 89 81 0 
N 99 70 0 
N 27 61 0 
N 29 60 0 
N 14 29 0 
N 7 12 0 
N 99 25 0 
N 22 19 0 
N 20 75 0 
N 66 76 0 
N 64 66 0 
N 89 75 0 
N 23 81 0 
N 5 65 0 
N 98 26 0 
N 99 72 0 
N 68 30 0 
N 23 40 0 
N 97 72 0 
N 84 30 0 
N 91 55 0 
N 82 22 0 
N 96 70 0 
N 79 75 0 
N 62 52 0 
N 32 18 0 
N 80 73 0 
N 70 54 0 
N 79 64 0 
N 20 21 0 
N 73 76 0 
N 8 30 0 
N 19 14 0 
N 80 66 0 
N 23 92 0 
N 19 69 0 
N 95 42 0 
N 9 21 0 
N 62 54 0 
N 23 3 0 
N 25 17 0 
N 25 63 0 
N 22 66 0 
N 9 5 0 
N 80 95 0 
N 42 83 0 
N 55 58 0 
N 48 90 0 
N 15 18 0 
N 14 18 0 
N 10 19 0 
N 87 32 0 
N 31 30 0 
N 93 44 0 
N 64 34 0 
N 56 25 0 
N 15 75 0 
N 16 71 0 
N 24 17 0 
N 7 27 0 
N 83 28 0 
N 96 43 0 
N 9 20 0 
N 46 82 0 
N 58 37 0 
N 98 90 0 
N 64 40 0 
N 75 53 0 
N 84 75 0 
N 57 74 0 
N 64 51 0 
N 88 99 0 
N 8 14 0 
N 41 87 0 
N 9 3 0 
N 27 48 0 
N 36 51 0 
N 68 60 0 
N 86 27 0 
N 3 27 0 
N 28 35 0 
N 58 65 0 
N 8 17 0 
N 6 29 0 
N 71 72 0 
N 10 17 0 
N 77 8 0 
N 33 67 0 
N 78 22 0 
N 28 74 0 
N 65 25 0 
N 82 92 0 
N 40 48 0 
N 95 5 0 
N 92 3 0 
N 57 14 0 
N 33 58 0 
N 68 53 0 
N 31 18 0 
N 64 87 0 
N 29 81 0 
N 63 8 0 
N 53 11 0 
N 30 76 0 
N 33 46 0 
N 85 8 0 
N 18 67 0 
N 15 30 0 
N 10 22 0 
N 91 39 0 
N 81 91 0 
N 98 1 0 
N 6 67 0 
N 28 83 0 
N 16 92 0 
N 57 53 0 
N 65 8 0 
N 31 63 0 
N 76 72 0 
N 8 48 0 
N 67 1 0 
N 58 29 0 
N 24 86 0 
N 26 39 0 
N 93 73 0 
N 32 5 0 
N 70 53 0 
N 35 53 0 
N 80 99 0 
N 50 94 0 
N 71 6 0 
N 7 26 0 
N 28 81 0 
N 40 97 0 
N 36 75 0 
N 21 13 0 
N 75 37 0 
N 1 2 0 
N 59 13 0 
N 6 77 0 
N 76 74 0 
N 51 74 0 
N 18 73 0 
N 7 18 0 
N 96 47 0 
N 26 69 0 
N 69 74 0 
N 33 17 0 
N 66 5 0 
N 75 23 0 
N 99 1 0 
N 55 93 0 
N 9 33 0 
N 64 75 0 
N 51 35 0 
N 90 5 0 
N 92 42 0 
N 68 21 0 
N 93 39 0 
N 37 33 0 
N 21 94 0 
N 14 90 0 
N 66 10 0 
N 86 3 0 
N 89 74 0 
N 32 31 0 
N 16 32 0 
N 99 78 0 
N 59 8 0 
N 86 29 0 
N 9 17 0 
N 22 88 0 
N 97 5 0 
N 51 89 0 
N 87 86 0 
N 82 88 0 
N 65 87 0 
N 81 27 0 
N 63 86 0 
N 17 62 0 
N 87 24 0 
N 71 59 0 
N 82 21 0 
N 97 68 0 
N 85 34 0 
N 21 65 0 
N 10 18 0 
N 57 28 0 
N 55 34 0 
N 18 83 0 
N 40 9 0 
N 24 89 0 
N 42 60 0 
N 79 22 0 
N 66 36 0 
N 30 83 0 
N 88 55 0 
N 40 83 0 
N 66 83 0 
N 25 25 0 
N 67 8 0 
N 26 34 0 
N 7 31 0 
N 76 10 0 
N 77 25 0 
N 60 52 0 
N 94 32 0 
N 96 37 0 
N 71 74 0 
N 26 80 0 
N 71 9 0 
N 55 12 0 
N 43 84 0 
N 63 29 0 
N 33 66 0 
N 50 12 0 
N 48 93 0 
N 60 59 0 
N 93 5 0 
N 66 65 0 
N 63 31 0 
N 75 93 0 
N 10 26 0 
N 25 13 0 
N 64 57 0 
N 7 30 0 
N 12 79 0 
N 48 12 0 
N 31 67 0 
C 0 0 0 
C 10 0 0 
C 20 0 0 
C 30 0 0 
C 40 0 0 
C 50 0 0 
C 60 0 0 
C 70 0 0 
C 80 0 0 
C 90 0 0 
C 100 0 0 
C 0 10 0 
C 10 10 0 
C 20 10 0 
C 30 10 0 
C 40 10 0 
C 50 10 0 
C 60 10 0 
C 70 10 0 
C 80 10 0 
C 90 10 0 
C 100 10 0 
C 0 20 0 
C 10 20 0 
C 20 20 0 
C 30 20 0 
C 40 20 0 
C 50 20 0 
C 60 20 0 
C 70 20 0 
C 80 20 0 
C 90 20 0 
C 100 20 0 
C 0 30 0 
C 10 30 0 
C 20 30 0 
C 30 30 0 
C 40 30 0 
C 50 30 0 
C 60 30 0 
C 70 30 0 
C 80 30 0 
C 90 30 0 
C 100 30 0 
C 0 40 0 
C 10 40 0 
C 20 40 0 
C 30 40 0 
C 40 40 0 
C 50 40 0 
C 60 40 0 
C 70 40 0 
C 80 40 0 
C 90 40 0 
C 100 40 0 
C 0 50 0 
C 10 50 0 
C 20 50 0 
C 30 50 0 
C 40 50 0 
C 50 50 0 
C 60 50 0 
C 70 50 0 
C 80 50 0 
C 90 50 0 
C 100 50 0 
C 0 60 0 
C 10 60 0 
C 20 60 0 
C 30 60 0 
C 40 60 0 
C 50 60 0 
C 60 60 0 
C 70 60 0 
C 80 60 0 
C 90 60 0 
C 100 60 0 
C 0 70 0 
C 10 70 0 
C 20 70 0 
C 30 70 0 
C 40 70 0 
C 50 70 0 
C 60 70 0 
C 70 70 0 
C 80 70 0 
C 90 70 0 
C 100 70 0 
C 0 80 0 
C 10 80 0 
C 20 80 0 
C 30 80 0 
C 40 80 0 
C 50 80 0 
C 60 80 0 
C 70 80 0 
C 80 80 0 
C 90 80 0 
C 100 80 0 
C 0 90 0 
C 10 90 0 
C 20 90 0 
C 30 90 0 
C 40 90 0 
C 50 90 0 
C 60 90 0 
C 70 90 0 
C 80 90 0 
C 90 90 0 
C 100 90 0 
C 0 100 0 
C 10 100 0 
C 20 100 0 
C 30 100 0 
C 40 100 0 
C 50 100 0 
C 60 100 0 
C 70 100 0 
C 80 100 0 
C 90 100 0 
C 100 100 0 
O 0 23 0 
O 99 0 0 
O 68 0 0 
O 6 17 0 
O 0 99 0 
625
Atoms. Timestep: 20
N 89 8 0 
N 26 62 0 
N 23 73 0 
N 56 94 0 
N 24 20 0 
N 66 27 0 
N 81 72 0 
N 6 46 0 
N 7 50 0 
N 56 29 0 
N 85 69 0 
N 11 4 0 
N 68 30 0 
N 66 13 0 
N 96 90 0 
N 77 73 0 
N 59 83 0 
N 54 65 0 
N 27 31 0 
N 32 66 0 
N 10 87 0 
N 16 78 0 
N 2 3 0 
N 16 77 0 
N 94 27 0 
N 10 23 0 
N 89 75 0 
N 68 54 0 
N 76 96 0 
N 96 26 0 
N 85 6 0 
N 58 10 0 
N 12 20 0 
N 47 85 0 
N 60 75 0 
N 66 96 0 
N 17 82 0 
N 99 7 0 
N 93 71 0 
N 66 99 0 
N 86 99 0 
N 4 32 0 
N 74 22 0 
N 36 55 0 
N 10 88 0 
N 78 24 0 
N 67 20 0 
N 37 7 0 
N 29 66 0 
N 96 46 0 
N 24 18 0 
N 78 61 0 
N 93 69 0 
N 26 2 0 
N 66 7 0 
N 65 85 0 
N 99 5 0 
N 57 13 0 
N 81 5 0 
N 23 91 0 
N 9 44 0 
N 95 29 0 
N 28 62 0 
N 64 50 0 
N 64 26 0 
N 40 54 0 
N 68 75 0 
N 56 41 0 
N 88 72 0 
N 23 18 0 
N 29 17 0 
N 61 24 0 
N 30 41 0 
N 6 19 0 
N 17 21 0 
N 97 70 0 
N 16 76 0 
N 81 89 0 
N 62 69 0 
N 90 5 0 
N 5 23 0 
N 76 72 0 
N 98 69 0 
N 68 99 0 
N 6 23 0 
N 79 79 0 
N 67 8 0 
N 10 66 0 
N 76 69 0 
N 86 25 0 
N 37 17 0 
N 67 34 0 
N 35 18 0 
N 2 91 0 
N 5 43 0 
N 21 74 0 
N 49 84 0 
N 26 18 0 
N 57 87 0 
N 6 21 0 
N 31 58 0 
N 76 9 0 
N 75 47 0 
N 63 69 0 
N 78 74 0 
N 97 23 0 
N 79 96 0 
N 97 33 0 
N 4 31 0 
N 0 25 0 
N 38 98 0 
N 37 58 0 
N 6 52 0 
N 2 73 0 
N 74 56 0 
N 13 19 0 
N 84 52 0 
N 17 75 0 
N 32 14 0 
N 81 81 0 
N 14 80 0 
N 68 76 0 
N 90 94 0 
N 7 18 0 
N 93 67 0 
N 98 6 0 
N 66 8 0 
N 68 56 0 
N 20 61 0 
N 6 13 0 
N 32 62 0 
N 68 73 0 
N 8 22 0 
N 48 65 0 
N 64 95 0 
N 47 46 0 
N 98 3 0 
N 85 97 0 
N 60 92 0 
N 75 70 0 
N 76 49 0 
N 31 87 0 
N 21 73 0 
N 25 47 0 
N 36 48 0 
N 78 69 0 
N 19 74 0 
N 34 60 0 
N 82 4 0 
N 46 63 0 
N 38 53 0 
N 16 66 0 
N 6 72 0 
N 37 19 0 
N 67 92 0 
N 17 91 0 
N 2 45 0 
N 29 21 0 
N 67 78 0 
N 44 17 0 
N 63 59 0 
N 14 66 0 
N 11 19 0 
N 83 5 0 
N 9 72 0 
N 2 2 0 
N 20 18 0 
N 92 74 0 
N 5 79 0 
N 73 49 0 
N 7 32 0 
N 27 89 0 
N 8 31 0 
N 67 91 0 
N 12 11 0 
N 13 74 0 
N 30 56 0 
N 34 18 0 
N 90 36 0 
N 98 31 0 
N 85 11 0 
N 11 29 0 
N 77 76 0 
N 84 1 0 
N 61 14 0 
N 80 17 0 
N 84 84 0 
N 53 98 0 
N 64 98 0 
N 71 48 0 
N 95 39 0 
N 39 58 0 
N 94 72 0 
N 65 91 0 
N 98 27 0 
N 86 74 0 
N 16 26 0 
N 13 89 0 
N 60 73 0 
N 96 28 0 
N 17 74 0 
N 20 64 0 
N 98 74 0 
N 47 66 0 
N 6 71 0 
N 18 89 0 
N 4 1 0 
N 6 32 0 
N 85 25 0 
N 96 31 0 
N 35 56 0 
N 97 30 0 
N 65 83 0 
N 45 65 0 
N 18 4 0 
N 40 85 0 
N 43 72 0 
N 55 95 0 
N 79 17 0 
N 79 92 0 
N 92 22 0 
N 30 26 0 
N 16 71 0 
N 5 49 0 
N 47 73 0 
N 62 48 0 
N 6 93 0 
N 84 28 0 
N 18 28 0 
N 24 80 0 
N 8 15 0 
N 80 23 0 
N 52 87 0 
N 98 71 0 
N 57 10 0 
N 82 73 0 
N 47 71 0 
N 80 85 0 
N 77 27 0 
N 22 5 0 
N 81 68 0 
N 47 56 0 
N 5 70 0 
N 11 68 0 
N 98 43 0 
N 75 80 0 
N 75 9 0 
N 93 73 0 
N 17 18 0 
N 99 29 0 
N 42 94 0 
N 20 73 0 
N 3 83 0 
N 70 64 0 
N 21 80 0 
N 67 72 0 
N 95 23 0 
N 73 74 0 
N 96 25 0 
N 62 39 0 
N 43 95 0 
N 94 33 0 
N 84 3 0 
N 67 90 0 
N 68 32 0 
N 54 93 0 
N 66 5 0 
N 29 63 0 
N 48 86 0 
N 77 25 0 
N 67 38 0 
N 88 81 0 
N 99 71 0 
N 27 62 0 
N 29 59 0 
N 14 28 0 
N 7 13 0 
N 99 24 0 
N 22 18 0 
N 19 75 0 
N 67 76 0 
N 65 66 0 
N 88 75 0 
N 23 82 0 
N 4 65 0 
N 98 25 0 
N 98 72 0 
N 68 29 0 
N 23 39 0 
N 96 72 0 
N 83 30 0 
N 91 54 0 
N 81 22 0 
N 96 71 0 
N 78 75 0 
N 62 51 0 
N 32 19 0 
N 79 73 0 
N 70 55 0 
N 79 63 0 
N 19 21 0 
N 72 76 0 
N 8 29 0 
N 19 15 0 
N 80 65 0 
N 22 92 0 
N 18 69 0 
N 94 42 0 
N 9 20 0 
N 62 55 0 
N 23 4 0 
N 24 17 0 
N 25 64 0 
N 23 66 0 
N 9 6 0 
N 80 94 0 
N 42 82 0 
N 56 58 0 
N 48 89 0 
N 14 18 0 
N 13 18 0 
N 9 19 0 
N 86 32 0 
N 31 29 0 
N 92 44 0 
N 64 33 0 
N 56 24 0 
N 15 76 0 
N 16 72 0 
N 23 17 0 
N 7 26 0 
N 82 28 0 
N 95 43 0 
N 8 20 0 
N 47 82 0 
N 59 37 0 
N 97 90 0 
N 64 39 0 
N 75 54 0 
N 83 75 0 
N 58 74 0 
N 64 52 0 
N 89 99 0 
N 7 14 0 
N 41 86 0 
N 9 4 0 
N 26 48 0 
N 35 51 0 
N 68 59 0 
N 85 27 0 
N 2 27 0 
N 27 35 0 
N 58 64 0 
N 7 17 0 
N 6 28 0 
N 70 72 0 
N 10 17 0 
N 77 7 0 
N 33 66 0 
N 78 23 0 
N 28 75 0 
N 65 24 0 
N 82 91 0 
N 39 48 0 
N 94 5 0 
N 92 4 0 
N 58 14 0 
N 33 57 0 
N 68 52 0 
N 30 18 0 
N 65 87 0 
N 28 81 0 
N 63 7 0 
N 53 10 0 
N 30 77 0 
N 33 47 0 
N 84 8 0 
N 17 67 0 
N 15 29 0 
N 10 21 0 
N 91 38 0 
N 80 91 0 
N 98 2 0 
N 5 67 0 
N 27 83 0 
N 15 92 0 
N 57 54 0 
N 64 8 0 
N 31 62 0 
N 75 72 0 
N 7 48 0 
N 67 0 0 
N 59 29 0 
N 23 86 0 
N 26 38 0 
N 93 74 0 
N 31 5 0 
N 69 53 0 
N 35 54 0 
N 80 98 0 
N 50 93 0 
N 71 5 0 
N 7 25 0 
N 27 81 0 
N 40 96 0 
N 36 74 0 
N 21 14 0 
N 74 37 0 
N 0 2 0 
N 60 13 0 
N 5 77 0 
N 76 73 0 
N 52 74 0 
N 17 73 0 
N 6 18 0 
N 95 47 0 
N 26 68 0 
N 68 74 0 
N 32 17 0 
N 67 5 0 
N 74 23 0 
N 99 0 0 
N 55 92 0 
N 9 32 0 
N 65 75 0 
N 50 35 0 
N 90 4 0 
N 91 42 0 
N 68 20 0 
N 92 39 0 
N 36 33 0 
N 21 95 0 
N 14 91 0 
N 66 9 0 
N 86 2 0 
N 89 73 0 
N 32 30 0 
N 15 32 0 
N 99 77 0 
N 59 7 0 
N 86 28 0 
N 9 17 0 
N 21 88 0 
N 97 4 0 
N 52 89 0 
N 88 86 0 
N 82 87 0 
N 66 87 0 
N 81 26 0 
N 63 85 0 
N 18 62 0 
N 87 23 0 
N 70 59 0 
N 81 21 0 
N 98 68 0 
N 84 34 0 
N 21 66 0 
N 9 18 0 
N 58 28 0 
N 55 33 0 
N 18 84 0 
N 41 9 0 
N 23 89 0 
N 42 61 0 
N 79 23 0 
N 66 35 0 
N 30 84 0 
N 88 54 0 
N 41 83 0 
N 67 83 0 
N 25 24 0 
N 67 7 0 
N 26 33 0 
N 6 31 0 
N 75 10 0 
N 77 24 0 
N 59 52 0 
N 93 32 0 
N 95 37 0 
N 71 73 0 
N 25 80 0 
N 71 8 0 
N 55 13 0 
N 43 83 0 
N 64 29 0 
N 34 66 0 
N 51 12 0 
N 49 93 0 
N 60 58 0 
N 93 4 0 
N 66 64 0 
N 64 31 0 
N 74 93 0 
N 10 25 0 
N 24 13 0 
N 64 56 0 
N 7 29 0 
N 11 79 0 
N 48 11 0 
N 31 68 0 
C 0 0 0 
C 10 0 0 
C 20 0 0 
C 30 0 0 
C 40 0 0 
C 50 0 0 
C 60 0 0 
C 70 0 0 
C 80 0 0 
C 90 0 0 
C 100 0 0 
C 0 10 0 
C 10 10 0 
C 20 10 0 
C 30 10 0 
C 40 10 0 
C 50 10 0 
C 60 10 0 
C 70 10 0 
C 80 10 0 
C 90 10 0 
C 100 10 0 
C 0 20 0 
C 10 20 0 
C 20 20 0 
C 30 20 0 
C 40 20 0 
C 50 20 0 
C 60 20 0 
C 70 20 0 
C 80 20 0 
C 90 20 0 
C 100 20 0 
C 0 30 0 
C 10 30 0 
C 20 30 0 
C 30 30 0 
C 40 30 0 
C 50 30 0 
C 60 30 0 
C 70 30 0 
C 80 30 0 
C 90 30 0 
C 100 30 0 
C 0 40 0 
C 10 40 0 
C 20 40 0 
C 30 40 0 
C 40 40 0 
C 50 40 0 
C 60 40 0 
C 70 40 0 
C 80 40 0 
C 90 40 0 
C 100 40 0 
C 0 50 0 
C 10 50 0 
C 20 50 0 
C 30 50 0 
C 40 50 0 
C 50 50 0 
C 60 50 0 
C 70 50 0 
C 80 50 0 
C 90 50 0 
C 100 50 0 
C 0 60 0 
C 10 60 0 
C 20 60 0 
C 30 60 0 
C 40 60 0 
C 50 60 0 
C 60 60 0 
C 70 60 0 
C 80 60 0 
C 90 60 0 
C 100 60 0 
C 0 70 0 
C 10 70 0 
C 20 70 0 
C 30 70 0 
C 40 70 0 
C 50 70 0 
C 60 70 0 
C 70 70 0 
C 80 70 0 
C 90 70 0 
C 100 70 0 
C 0 80 0 
C 10 80 0 
C 20 80 0 
C 30 80 0 
C 40 80 0 
C 50 80 0 
C 60 80 0 
C 70 80 0 
C 80 80 0 
C 90 80 0 
C 100 80 0 
C 0 90 0 
C 10 90 0 
C 20 90 0 
C 30 90 0 
C 40 90 0 
C 50 90 0 
C 60 90 0 
C 70 90 0 
C 80 90 0 
C 90 90 0 
C 100 90 0 
C 0 100 0 
C 10 100 0 
C 20 100 0 
C 30 100 0 
C 40 100 0 
C 50 100 0 
C 60 100 0 
C 70 100 0 
C 80 100 0 
C 90 100 0 
C 100 100 0 
O 0 24 0 
O 69 0 0 
O 5 17 0 
O 99 99 0 
624
Atoms. Timestep: 21
N 89 9 0 
N 27 62 0 
N 24 73 0 
N 56 93 0 
N 24 19 0 
N 66 26 0 
N 81 71 0 
N 5 46 0 
N 7 49 0 
N 56 28 0 
N 85 70 0 
N 11 5 0 
N 69 30 0 
N 67 13 0 
N 96 91 0 
N 77 72 0 
N 60 83 0 
N 54 64 0 
N 27 30 0 
N 33 66 0 
N 11 87 0 
N 17 78 0 
N 3 3 0 
N 17 77 0 
N 93 27 0 
N 9 23 0 
N 90 75 0 
N 69 54 0 
N 75 96 0 
N 95 26 0 
N 86 6 0 
N 59 10 0 
N 13 20 0 
N 48 85 0 
N 60 74 0 
N 67 96 0 
N 17 83 0 
N 99 8 0 
N 93 72 0 
N 67 99 0 
N 87 99 0 
N 4 31 0 
N 74 21 0 
N 37 55 0 
N 10 89 0 
N 77 24 0 
N 68 20 0 
N 38 7 0 
N 29 67 0 
N 95 46 0 
N 23 18 0 
N 77 61 0 
N 93 70 0 
N 26 3 0 
N 66 6 0 
N 65 84 0 
N 99 5 0 
N 57 12 0 
N 80 5 0 
N 24 91 0 
N 8 44 0 
N 94 29 0 
N 28 61 0 
N 64 49 0 
N 65 26 0 
N 41 54 0 
N 68 74 0 
N 57 41 0 
N 88 73 0 
N 22 18 0 
N 28 17 0 
N 62 24 0 
N 29 41 0 
N 5 19 0 
N 17 20 0 
N 98 70 0 
N 17 76 0 
N 80 89 0 
N 62 68 0 
N 90 6 0 
N 5 22 0 
N 75 72 0 
N 99 69 0 
N 68 98 0 
N 6 22 0 
N 79 78 0 
N 67 7 0 
N 11 66 0 
N 76 68 0 
N 85 25 0 
N 36 17 0 
N 67 33 0 
N 35 17 0 
N 1 91 0 
N 5 42 0 
N 21 75 0 
N 50 84 0 
N 26 17 0 
N 57 86 0 
N 5 21 0 
N 31 59 0 
N 75 9 0 
N 76 47 0 
N 64 69 0 
N 77 74 0 
N 96 23 0 
N 78 96 0 
N 96 33 0 
N 5 31 0 
N 0 24 0 
N 39 98 0 
N 38 58 0 
N 6 51 0 
N 2 74 0 
N 73 56 0 
N 12 19 0 
N 84 51 0 
N 18 75 0 
N 32 15 0 
N 80 81 0 
N 14 81 0 
N 69 76 0 
N 91 94 0 
N 6 18 0 
N 94 67 0 
N 99 6 0 
N 66 8 0 
N 68 55 0 
N 20 62 0 
N 6 14 0 
N 32 63 0 
N 69 73 0 
N 8 21 0 
N 48 66 0 
N 65 95 0 
N 47 45 0 
N 98 4 0 
N 86 97 0 
N 61 92 0 
N 75 69 0 
N 76 48 0 
N 32 87 0 
N 22 73 0 
N 25 46 0 
N 36 49 0 
N 78 68 0 
N 19 75 0 
N 34 59 0 
N 82 3 0 
N 45 63 0 
N 37 53 0 
N 17 66 0 
N 6 73 0 
N 36 19 0 
N 67 91 0 
N 17 92 0 
N 1 45 0 
N 28 21 0 
N 68 78 0 
N 45 17 0 
N 64 59 0 
N 15 66 0 
N 10 19 0 
N 84 5 0 
N 9 73 0 
N 3 2 0 
N 20 17 0 
N 92 75 0 
N 6 79 0 
N 73 48 0 
N 6 32 0 
N 27 90 0 
N 8 30 0 
N 68 91 0 
N 11 11 0 
N 14 74 0 
N 30 55 0 
N 34 17 0 
N 90 35 0 
N 98 30 0 
N 85 12 0 
N 10 29 0 
N 76 76 0 
N 84 0 0 
N 62 14 0 
N 79 17 0 
N 84 85 0 
N 54 98 0 
N 64 97 0 
N 71 47 0 
N 94 39 0 
N 39 59 0 
N 94 71 0 
N 65 90 0 
N 97 27 0 
N 86 75 0 
N 15 26 0 
N 13 90 0 
N 61 73 0 
N 96 27 0 
N 18 74 0 
N 19 64 0 
N 99 74 0 
N 46 66 0 
N 7 71 0 
N 19 89 0 
N 5 1 0 
N 6 31 0 
N 85 24 0 
N 95 31 0 
N 36 56 0 
N 96 30 0 
N 66 83 0 
N 46 65 0 
N 19 4 0 
N 40 84 0 
N 44 72 0 
N 56 95 0 
N 78 17 0 
N 78 92 0 
N 92 23 0 
N 29 26 0 
N 15 71 0 
N 5 48 0 
N 47 72 0 
N 62 49 0 
N 7 93 0 
N 84 27 0 
N 17 28 0 
N 25 80 0 
N 8 16 0 
N 79 23 0 
N 53 87 0 
N 98 72 0 
N 57 9 0 
N 82 72 0 
N 48 71 0 
N 79 85 0 
N 76 27 0 
N 22 6 0 
N 81 67 0 
N 47 57 0 
N 4 70 0 
N 12 68 0 
N 98 42 0 
N 75 79 0 
N 75 8 0 
N 94 73 0 
N 16 18 0 
N 98 29 0 
N 43 94 0 
N 20 74 0 
N 3 84 0 
N 69 64 0 
N 21 81 0 
N 67 71 0 
N 94 23 0 
N 72 74 0 
N 95 25 0 
N 62 38 0 
N 44 95 0 
N 93 33 0 
N 83 3 0 
N 68 90 0 
N 69 32 0 
N 55 93 0 
N 66 4 0 
N 28 63 0 
N 49 86 0 
N 76 25 0 
N 67 37 0 
N 88 82 0 
N 99 71 0 
N 27 63 0 
N 30 59 0 
N 13 28 0 
N 7 14 0 
N 98 24 0 
N 21 18 0 
N 19 76 0 
N 67 75 0 
N 65 65 0 
N 88 76 0 
N 24 82 0 
N 4 66 0 
N 97 25 0 
N 99 72 0 
N 69 29 0 
N 23 38 0 
N 97 72 0 
N 82 30 0 
N 91 55 0 
N 81 23 0 
N 97 71 0 
N 77 75 0 
N 61 51 0 
N 31 19 0 
N 78 73 0 
N 69 55 0 
N 79 62 0 
N 19 20 0 
N 71 76 0 
N 8 28 0 
N 18 15 0 
N 80 64 0 
N 23 92 0 
N 18 70 0 
N 94 41 0 
N 9 19 0 
N 63 55 0 
N 23 5 0 
N 23 17 0 
N 25 65 0 
N 24 66 0 
N 9 7 0 
N 80 93 0 
N 42 81 0 
N 55 58 0 
N 48 88 0 
N 15 18 0 
N 13 17 0 
N 8 19 0 
N 86 31 0 
N 30 29 0 
N 91 44 0 
N 64 32 0 
N 56 23 0 
N 15 77 0 
N 17 72 0 
N 22 17 0 
N 6 26 0 
N 82 27 0 
N 94 43 0 
N 7 20 0 
N 48 82 0 
N 60 37 0 
N 98 90 0 
N 64 38 0 
N 75 53 0 
N 82 75 0 
N 58 73 0 
N 64 51 0 
N 90 99 0 
N 7 15 0 
N 41 85 0 
N 9 5 0 
N 26 47 0 
N 35 52 0 
N 68 58 0 
N 85 26 0 
N 1 27 0 
N 26 35 0 
N 59 64 0 
N 7 17 0 
N 5 28 0 
N 70 71 0 
N 9 17 0 
N 77 6 0 
N 33 67 0 
N 77 23 0 
N 28 74 0 
N 66 24 0 
N 82 90 0 
N 40 48 0 
N 94 6 0 
N 92 5 0 
N 58 13 0 
N 33 56 0 
N 68 51 0 
N 30 17 0 
N 66 87 0 
N 28 82 0 
N 63 6 0 
N 54 10 0 
N 30 76 0 
N 32 47 0 
N 83 8 0 
N 17 68 0 
N 14 29 0 
N 9 21 0 
N 91 37 0 
N 79 91 0 
N 99 2 0 
N 5 68 0 
N 28 83 0 
N 16 92 0 
N 57 53 0 
N 65 8 0 
N 31 63 0 
N 74 72 0 
N 6 48 0 
N 67 1 0 
N 60 29 0 
N 23 87 0 
N 26 37 0 
N 93 75 0 
N 31 6 0 
N 69 52 0 
N 36 54 0 
N 80 97 0 
N 51 93 0 
N 70 5 0 
N 6 25 0 
N 27 82 0 
N 40 95 0 
N 36 73 0 
N 21 15 0 
N 73 37 0 
N 1 2 0 
N 61 13 0 
N 6 77 0 
N 75 73 0 
N 52 73 0 
N 18 73 0 
N 6 17 0 
N 94 47 0 
N 26 67 0 
N 69 74 0 
N 31 17 0 
N 68 5 0 
N 74 24 0 
N 99 1 0 
N 55 91 0 
N 9 31 0 
N 65 74 0 
N 50 36 0 
N 91 4 0 
N 91 41 0 
N 68 19 0 
N 91 39 0 
N 36 32 0 
N 21 96 0 
N 15 91 0 
N 67 9 0 
N 87 2 0 
N 89 74 0 
N 31 30 0 
N 14 32 0 
N 99 78 0 
N 59 6 0 
N 86 27 0 
N 8 17 0 
N 21 89 0 
N 97 5 0 
N 53 89 0 
N 89 86 0 
N 81 87 0 
N 67 87 0 
N 81 25 0 
N 63 84 0 
N 18 63 0 
N 86 23 0 
N 69 59 0 
N 80 21 0 
N 99 68 0 
N 83 34 0 
N 20 66 0 
N 8 18 0 
N 59 28 0 
N 56 33 0 
N 18 85 0 
N 42 9 0 
N 23 90 0 
N 43 61 0 
N 79 24 0 
N 67 35 0 
N 30 85 0 
N 88 53 0 
N 41 82 0 
N 67 82 0 
N 24 24 0 
N 68 7 0 
N 26 32 0 
N 6 30 0 
N 74 10 0 
N 76 24 0 
N 59 53 0 
N 92 32 0 
N 94 37 0 
N 71 72 0 
N 25 81 0 
N 71 7 0 
N 55 12 0 
N 44 83 0 
N 64 28 0 
N 34 65 0 
N 51 11 0 
N 49 92 0 
N 60 57 0 
N 94 4 0 
N 66 63 0 
N 65 31 0 
N 74 92 0 
N 10 24 0 
N 23 13 0 
N 65 56 0 
N 7 28 0 
N 11 80 0 
N 48 10 0 
N 31 69 0 
C 0 0 0 
C 10 0 0 
C 20 0 0 
C 30 0 0 
C 40 0 0 
C 50 0 0 
C 60 0 0 
C 70 0 0 
C 80 0 0 
C 90 0 0 
C 100 0 0 
C 0 10 0 
C 10 10 0 
C 20 10 0 
C 30 10 0 
C 40 10 0 
C 50 10 0 
C 60 10 0 
C 70 10 0 
C 80 10 0 
C 90 10 0 
C 100 10 0 
C 0 20 0 
C 10 20 0 
C 20 20 0 
C 30 20 0 
C 40 20 0 
C 50 20 0 
C 60 20 0 
C 70 20 0 
C 80 20 0 
C 90 20 0 
C 100 20 0 
C 0 30 0 
C 10 30 0 
C 20 30 0 
C 30 30 0 
C 40 30 0 
C 50 30 0 
C 60 30 0 
C 70 30 0 
C 80 30 0 
C 90 30 0 
C 100 30 0 
C 0 40 0 
C 10 40 0 
C 20 40 0 
C 30 40 0 
C 40 40 0 
C 50 40 0 
C 60 40 0 
C 70 40 0 
C 80 40 0 
C 90 40 0 
C 100 40 0 
C 0 50 0 
C 10 50 0 
C 20 50 0 
C 30 50 0 
C 40 50 0 
C 50 50 0 
C 60 50 0 
C 70 50 0 
C 80 50 0 
C 90 50 0 
C 100 50 0 
C 0 60 0 
C 10 60 0 
C 20 60 0 
C 30 60 0 
C 40 60 0 
C 50 60 0 
C 60 60 0 
C 70 60 0 
C 80 60 0 
C 90 60 0 
C 100 60 0 
C 0 70 0 
C 10 70 0 
C 20 70 0 
C 30 70 0 
C 40 70 0 
C 50 70 0 
C 60 70 0 
C 70 70 0 
C 80 70 0 
C 90 70 0 
C 100 70 0 
C 0 80 0 
C 10 80 0 
C 20 80 0 
C 30 80 0 
C 40 80 0 
C 50 80 0 
C 60 80 0 
C 70 80 0 
C 80 80 0 
C 90 80 0 
C 100 80 0 
C 0 90 0 
C 10 90 0 
C 20 90 0 
C 30 90 0 
C 40 90 0 
C 50 90 0 
C 60 90 0 
C 70 90 0 
C 80 90 0 
C 90 90 0 
C 100 90 0 
C 0 100 0 
C 10 100 0 
C 20 100 0 
C 30 100 0 
C 40 100 0 
C 50 100 0 
C 60 100 0 
C 70 100 0 
C 80 100 0 
C 90 100 0 
C 100 100 0 
O 68 0 0 
O 5 16 0 
O 99 0 0 
623
Atoms. Timestep: 22
N 89 10 0 
N 27 61 0 
N 25 73 0 
N 57 93 0 
N 24 18 0 
N 66 25 0 
N 80 71 0 
N 5 45 0 
N 7 48 0 
N 56 27 0 
N 85 69 0 
N 10 5 0 
N 68 30 0 
N 67 12 0 
N 96 90 0 
N 76 72 0 
N 61 83 0 
N 55 64 0 
N 27 29 0 
N 33 65 0 
N 10 87 0 
N 17 77 0 
N 3 4 0 
N 17 76 0 
N 92 27 0 
N 9 22 0 
N 89 75 0 
N 69 53 0 
N 75 95 0 
N 94 26 0 
N 86 5 0 
N 59 9 0 
N 13 19 0 
N 48 84 0 
N 60 73 0 
N 67 95 0 
N 16 83 0 
N 98 8 0 
N 92 72 0 
N 67 98 0 
N 86 99 0 
N 4 30 0 
N 74 20 0 
N 37 54 0 
N 10 88 0 
N 77 23 0 
N 68 19 0 
N 38 6 0 
N 28 67 0 
N 94 46 0 
N 22 18 0 
N 77 60 0 
N 92 70 0 
N 25 3 0 
N 66 5 0 
N 66 84 0 
N 99 6 0 
N 58 12 0 
N 79 5 0 
N 24 92 0 
N 8 43 0 
N 93 29 0 
N 28 60 0 
N 65 49 0 
N 65 25 0 
N 42 54 0 
N 68 74 0 
N 57 42 0 
N 88 72 0 
N 22 17 0 
N 28 16 0 
N 62 23 0 
N 29 40 0 
N 5 19 0 
N 16 20 0 
N 98 69 0 
N 17 75 0 
N 80 88 0 
N 62 67 0 
N 90 7 0 
N 5 21 0 
N 74 72 0 
N 0 69 0 
N 68 97 0 
N 6 21 0 
N 78 78 0 
N 67 6 0 
N 10 66 0 
N 76 67 0 
N 85 24 0 
N 35 17 0 
N 67 32 0 
N 34 17 0 
N 2 91 0 
N 5 41 0 
N 21 76 0 
N 50 83 0 
N 25 17 0 
N 57 85 0 
N 5 20 0 
N 32 59 0 
N 74 9 0 
N 75 47 0 
N 65 69 0 
N 76 74 0 
N 96 22 0 
N 77 96 0 
N 96 32 0 
N 5 31 0 
N 1 24 0 
N 39 97 0 
N 37 58 0 
N 5 51 0 
N 3 74 0 
N 73 55 0 
N 11 19 0 
N 84 52 0 
N 18 76 0 
N 31 15 0 
N 79 81 0 
N 14 80 0 
N 68 76 0 
N 90 94 0 
N 5 18 0 
N 95 67 0 
N 98 6 0 
N 66 7 0 
N 68 54 0 
N 20 61 0 
N 5 14 0 
N 32 62 0 
N 68 73 0 
N 8 20 0 
N 49 66 0 
N 65 94 0 
N 47 44 0 
N 99 4 0 
N 86 96 0 
N 62 92 0 
N 74 69 0 
N 77 48 0 
N 33 87 0 
N 22 72 0 
N 25 45 0 
N 36 48 0 
N 77 68 0 
N 19 76 0 
N 34 58 0 
N 82 2 0 
N 45 64 0 
N 36 53 0 
N 16 66 0 
N 6 72 0 
N 36 18 0 
N 68 91 0 
N 16 92 0 
N 2 45 0 
N 28 20 0 
N 68 77 0 
N 45 16 0 
N 64 58 0 
N 14 66 0 
N 10 18 0 
N 84 4 0 
N 9 72 0 
N 4 2 0 
N 19 17 0 
N 91 75 0 
N 6 78 0 
N 73 47 0 
N 5 32 0 
N 26 90 0 
N 7 30 0 
N 68 90 0 
N 10 11 0 
N 15 74 0 
N 29 55 0 
N 34 16 0 
N 90 34 0 
N 97 30 0 
N 85 13 0 
N 10 28 0 
N 75 76 0 
N 83 0 0 
N 63 14 0 
N 78 17 0 
N 83 85 0 
N 55 98 0 
N 65 97 0 
N 71 46 0 
N 94 38 0 
N 39 60 0 
N 93 71 0 
N 66 90 0 
N 96 27 0 
N 86 74 0 
N 15 25 0 
N 13 89 0 
N 62 73 0 
N 95 27 0 
N 17 74 0 
N 19 63 0 
N 99 73 0 
N 46 65 0 
N 8 71 0 
N 19 88 0 
N 5 2 0 
N 6 30 0 
N 85 23 0 
N 94 31 0 
N 36 57 0 
N 96 29 0 
N 66 82 0 
N 46 64 0 
N 19 5 0 
N 40 83 0 
N 44 71 0 
N 57 95 0 
N 78 16 0 
N 78 91 0 
N 91 23 0 
N 28 26 0 
N 15 70 0 
N 5 47 0 
N 47 71 0 
N 61 49 0 
N 6 93 0 
N 83 27 0 
N 16 28 0 
N 25 81 0 
N 7 16 0 
N 78 23 0 
N 53 86 0 
N 98 73 0 
N 58 9 0 
N 81 72 0 
N 48 70 0 
N 79 84 0 
N 76 26 0 
N 22 7 0 
N 80 67 0 
N 46 57 0 
N 4 69 0 
N 12 67 0 
N 98 41 0 
N 74 79 0 
N 75 7 0 
N 93 73 0 
N 15 18 0 
N 98 28 0 
N 43 93 0 
N 21 74 0 
N 3 83 0 
N 68 64 0 
N 20 81 0 
N 68 71 0 
N 94 22 0 
N 72 73 0 
N 94 25 0 
N 62 37 0 
N 44 94 0 
N 93 32 0 
N 83 2 0 
N 68 89 0 
N 69 31 0 
N 55 94 0 
N 66 3 0 
N 27 63 0 
N 50 86 0 
N 75 25 0 
N 68 37 0 
N 87 82 0 
N 0 71 0 
N 27 64 0 
N 29 59 0 
N 12 28 0 
N 7 15 0 
N 97 24 0 
N 20 18 0 
N 20 76 0 
N 68 75 0 
N 66 65 0 
N 88 75 0 
N 23 82 0 
N 3 66 0 
N 96 25 0 
N 99 72 0 
N 69 28 0 
N 22 38 0 
N 97 71 0 
N 81 30 0 
N 92 55 0 
N 80 23 0 
N 98 71 0 
N 76 75 0 
N 61 52 0 
N 31 18 0 
N 77 73 0 
N 69 55 0 
N 79 61 0 
N 18 20 0 
N 70 76 0 
N 7 28 0 
N 17 15 0 
N 79 64 0 
N 22 92 0 
N 18 69 0 
N 94 40 0 
N 8 19 0 
N 64 55 0 
N 22 5 0 
N 23 16 0 
N 25 64 0 
N 23 66 0 
N 8 7 0 
N 79 93 0 
N 43 81 0 
N 55 59 0 
N 49 88 0 
N 14 18 0 
N 13 16 0 
N 7 19 0 
N 85 31 0 
N 30 28 0 
N 91 43 0 
N 65 32 0 
N 56 22 0 
N 15 76 0 
N 16 72 0 
N 21 17 0 
N 5 26 0 
N 81 27 0 
N 94 42 0 
N 6 20 0 
N 49 82 0 
N 60 36 0 
N 98 89 0 
N 65 38 0 
N 74 53 0 
N 81 75 0 
N 59 73 0 
N 65 51 0 
N 89 99 0 
N 6 15 0 
N 42 85 0 
N 8 5 0 
N 27 47 0 
N 36 52 0 
N 68 57 0 
N 84 26 0 
N 1 26 0 
N 25 35 0 
N 60 64 0 
N 6 17 0 
N 5 27 0 
N 69 71 0 
N 9 16 0 
N 76 6 0 
N 32 67 0 
N 77 22 0 
N 28 73 0 
N 66 23 0 
N 82 89 0 
N 40 47 0 
N 94 7 0 
N 91 5 0 
N 59 13 0 
N 33 57 0 
N 68 50 0 
N 29 17 0 
N 67 87 0 
N 28 83 0 
N 64 6 0 
N 54 9 0 
N 31 76 0 
N 32 46 0 
N 82 8 0 
N 16 68 0 
N 13 29 0 
N 9 20 0 
N 91 36 0 
N 79 92 0 
N 98 2 0 
N 5 67 0 
N 29 83 0 
N 15 92 0 
N 57 54 0 
N 65 7 0 
N 31 64 0 
N 74 71 0 
N 6 47 0 
N 68 1 0 
N 61 29 0 
N 22 87 0 
N 26 36 0 
N 93 74 0 
N 30 6 0 
N 68 52 0 
N 36 55 0 
N 79 97 0 
N 51 92 0 
N 69 5 0 
N 6 24 0 
N 27 81 0 
N 40 94 0 
N 36 74 0 
N 21 16 0 
N 72 37 0 
N 1 3 0 
N 61 12 0 
N 6 76 0 
N 74 73 0 
N 53 73 0 
N 17 73 0 
N 5 17 0 
N 93 47 0 
N 26 68 0 
N 69 74 0 
N 31 16 0 
N 68 4 0 
N 74 23 0 
N 99 0 0 
N 55 90 0 
N 8 31 0 
N 65 73 0 
N 50 37 0 
N 92 4 0 
N 90 41 0 
N 68 18 0 
N 91 38 0 
N 35 32 0 
N 21 95 0 
N 16 91 0 
N 67 8 0 
N 87 1 0 
N 90 74 0 
N 31 29 0 
N 14 31 0 
N 99 77 0 
N 59 5 0 
N 86 26 0 
N 8 17 0 
N 22 89 0 
N 97 4 0 
N 54 89 0 
N 89 85 0 
N 80 87 0 
N 67 86 0 
N 81 24 0 
N 64 84 0 
N 18 64 0 
N 86 22 0 
N 69 58 0 
N 81 21 0 
N 99 67 0 
N 83 33 0 
N 20 67 0 
N 7 18 0 
N 59 27 0 
N 56 32 0 
N 18 84 0 
N 42 8 0 
N 23 89 0 
N 43 62 0 
N 78 24 0 
N 67 34 0 
N 31 85 0 
N 89 53 0 
N 41 81 0 
N 68 82 0 
N 24 23 0 
N 68 6 0 
N 26 31 0 
N 5 30 0 
N 73 10 0 
N 76 23 0 
N 58 53 0 
N 91 32 0 
N 94 36 0 
N 70 72 0 
N 26 81 0 
N 71 6 0 
N 56 12 0 
N 43 83 0 
N 64 27 0 
N 34 66 0 
N 51 10 0 
N 49 91 0 
N 59 57 0 
N 95 4 0 
N 66 62 0 
N 66 31 0 
N 74 91 0 
N 10 23 0 
N 23 14 0 
N 66 56 0 
N 7 27 0 
N 12 80 0 
N 49 10 0 
N 32 69 0 
C 0 0 0 
C 10 0 0 
C 20 0 0 
C 30 0 0 
C 40 0 0 
C 50 0 0 
C 60 0 0 
C 70 0 0 
C 80 0 0 
C 90 0 0 
C 100 0 0 
C 0 10 0 
C 10 10 0 
C 20 10 0 
C 30 10 0 
C 40 10 0 
C 50 10 0 
C 60 10 0 
C 70 10 0 
C 80 10 0 
C 90 10 0 
C 100 10 0 
C 0 20 0 
C 10 20 0 
C 20 20 0 
C 30 20 0 
C 40 20 0 
C 50 20 0 
C 60 20 0 
C 70 20 0 
C 80 20 0 
C 90 20 0 
C 100 20 0 
C 0 30 0 
C 10 30 0 
C 20 30 0 
C 30 30 0 
C 40 30 0 
C 50 30 0 
C 60 30 0 
C 70 30 0 
C 80 30 0 
C 90 30 0 
C 100 30 0 
C 0 40 0 
C 10 40 0 
C 20 40 0 
C 30 40 0 
C 40 40 0 
C 50 40 0 
C 60 40 0 
C 70 40 0 
C 80 40 0 
C 90 40 0 
C 100 40 0 
C 0 50 0 
C 10 50 0 
C 20 50 0 
C 30 50 0 
C 40 50 0 
C 50 50 0 
C 60 50 0 
C 70 50 0 
C 80 50 0 
C 90 50 0 
C 100 50 0 
C 0 60 0 
C 10 60 0 
C 20 60 0 
C 30 60 0 
C 40 60 0 
C 50 60 0 
C 60 60 0 
C 70 60 0 
C 80 60 0 
C 90 60 0 
C 100 60 0 
C 0 70 0 
C 10 70 0 
C 20 70 0 
C 30 70 0 
C 40 70 0 
C 50 70 0 
C 60 70 0 
C 70 70 0 
C 80 70 0 
C 90 70 0 
C 100 70 0 
C 0 80 0 
C 10 80 0 
C 20 80 0 
C 30 80 0 
C 40 80 0 
C 50 80 0 
C 60 80 0 
C 70 80 0 
C 80 80 0 
C 90 80 0 
C 100 80 0 
C 0 90 0 
C 10 90 0 
C 20 90 0 
C 30 90 0 
C 40 90 0 
C 50 90 0 
C 60 90 0 
C 70 90 0 
C 80 90 0 
C 90 90 0 
C 100 90 0 
C 0 100 0 
C 10 100 0 
C 20 100 0 
C 30 100 0 
C 40 100 0 
C 50 100 0 
C 60 100 0 
C 70 100 0 
C 80 100 0 
C 90 100 0 
C 100 100 0 
O 68 99 0 
O 5 15 0 
622
Atoms. Timestep: 23
N 89 11 0 
N 27 60 0 
N 26 73 0 
N 57 94 0 
N 25 18 0 
N 66 26 0 
N 79 71 0 
N 4 45 0 
N 8 48 0 
N 56 28 0 
N 85 68 0 
N 10 6 0 
N 68 31 0 
N 67 13 0 
N 95 90 0 
N 75 72 0 
N 62 83 0 
N 55 65 0 
N 27 28 0 
N 33 64 0 
N 10 86 0 
N 17 76 0 
N 3 5 0 
N 16 76 0 
N 91 27 0 
N 9 23 0 
N 88 75 0 
N 69 54 0 
N 74 95 0 
N 93 26 0 
N 86 6 0 
N 60 9 0 
N 14 19 0 
N 48 85 0 
N 61 73 0 
N 67 96 0 
N 17 83 0 
N 97 8 0 
N 91 72 0 
N 67 99 0 
N 85 99 0 
N 4 29 0 
N 74 21 0 
N 37 55 0 
N 10 89 0 
N 76 23 0 
N 68 20 0 
N 39 6 0 
N 28 66 0 
N 94 47 0 
N 22 19 0 
N 77 61 0 
N 91 70 0 
N 25 4 0 
N 67 5 0 
N 66 85 0 
N 99 7 0 
N 58 13 0 
N 79 6 0 
N 25 92 0 
N 8 42 0 
N 92 29 0 
N 28 59 0 
N 65 48 0 
N 65 26 0 
N 41 54 0 
N 68 74 0 
N 57 41 0 
N 88 73 0 
N 22 16 0 
N 27 16 0 
N 62 24 0 
N 29 39 0 
N 6 19 0 
N 16 19 0 
N 98 68 0 
N 18 75 0 
N 79 88 0 
N 62 68 0 
N 89 7 0 
N 5 22 0 
N 74 73 0 
N 0 68 0 
N 68 98 0 
N 7 21 0 
N 78 79 0 
N 68 6 0 
N 11 66 0 
N 75 67 0 
N 85 25 0 
N 35 16 0 
N 68 32 0 
N 34 16 0 
N 3 91 0 
N 5 42 0 
N 21 77 0 
N 51 83 0 
N 24 17 0 
N 57 86 0 
N 6 20 0 
N 31 59 0 
N 74 10 0 
N 75 48 0 
N 65 70 0 
N 75 74 0 
N 97 22 0 
N 77 97 0 
N 96 31 0 
N 5 30 0 
N 2 24 0 
N 39 98 0 
N 37 59 0 
N 5 52 0 
N 4 74 0 
N 72 55 0 
N 11 18 0 
N 84 53 0 
N 18 77 0 
N 30 15 0 
N 78 81 0 
N 14 79 0 
N 68 77 0 
N 90 95 0 
N 4 18 0 
N 94 67 0 
N 97 6 0 
N 67 7 0 
N 68 55 0 
N 21 61 0 
N 6 14 0 
N 31 62 0 
N 68 73 0 
N 8 19 0 
N 48 66 0 
N 65 95 0 
N 48 44 0 
N 99 5 0 
N 86 97 0 
N 62 93 0 
N 73 69 0 
N 77 49 0 
N 34 87 0 
N 21 72 0 
N 26 45 0 
N 36 49 0 
N 76 68 0 
N 20 76 0 
N 33 58 0 
N 82 3 0 
N 46 64 0 
N 35 53 0 
N 16 67 0 
N 6 71 0 
N 37 18 0 
N 69 91 0 
N 16 91 0 
N 2 44 0 
N 28 19 0 
N 68 78 0 
N 45 15 0 
N 65 58 0 
N 15 66 0 
N 10 17 0 
N 84 5 0 
N 9 73 0 
N 5 2 0 
N 19 16 0 
N 91 76 0 
N 6 77 0 
N 74 47 0 
N 6 32 0 
N 26 91 0 
N 7 29 0 
N 68 90 0 
N 10 12 0 
N 15 73 0 
N 30 55 0 
N 34 15 0 
N 91 34 0 
N 97 29 0 
N 84 13 0 
N 9 28 0 
N 74 76 0 
N 82 0 0 
N 62 14 0 
N 78 18 0 
N 82 85 0 
N 56 98 0 
N 64 97 0 
N 71 47 0 
N 95 38 0 
N 39 61 0 
N 93 72 0 
N 66 91 0 
N 95 27 0 
N 85 74 0 
N 15 26 0 
N 13 90 0 
N 62 74 0 
N 94 27 0 
N 18 74 0 
N 20 63 0 
N 98 73 0 
N 45 65 0 
N 9 71 0 
N 20 88 0 
N 6 2 0 
N 6 31 0 
N 84 23 0 
N 95 31 0 
N 36 58 0 
N 96 30 0 
N 67 82 0 
N 47 64 0 
N 20 5 0 
N 40 84 0 
N 44 70 0 
N 58 95 0 
N 77 16 0 
N 77 91 0 
N 90 23 0 
N 28 25 0 
N 15 71 0 
N 4 47 0 
N 48 71 0 
N 60 49 0 
N 7 93 0 
N 82 27 0 
N 16 27 0 
N 24 81 0 
N 7 15 0 
N 78 24 0 
N 53 87 0 
N 98 74 0 
N 58 10 0 
N 80 72 0 
N 49 70 0 
N 78 84 0 
N 76 27 0 
N 23 7 0 
N 80 66 0 
N 46 58 0 
N 4 70 0 
N 13 67 0 
N 98 40 0 
N 74 80 0 
N 74 7 0 
N 94 73 0 
N 15 17 0 
N 99 28 0 
N 44 93 0 
N 21 73 0 
N 3 84 0 
N 68 65 0 
N 20 82 0 
N 68 72 0 
N 93 22 0 
N 72 74 0 
N 93 25 0 
N 62 38 0 
N 44 95 0 
N 93 31 0 
N 83 3 0 
N 68 89 0 
N 69 32 0 
N 56 94 0 
N 66 4 0 
N 27 62 0 
N 51 86 0 
N 74 25 0 
N 69 37 0 
N 86 82 0 
N 0 72 0 
N 27 65 0 
N 29 58 0 
N 11 28 0 
N 8 15 0 
N 98 24 0 
N 21 18 0 
N 20 75 0 
N 68 75 0 
N 67 65 0 
N 88 76 0 
N 23 81 0 
N 3 67 0 
N 95 25 0 
N 99 71 0 
N 68 28 0 
N 22 37 0 
N 97 72 0 
N 81 31 0 
N 92 54 0 
N 79 23 0 
N 98 72 0 
N 75 75 0 
N 60 52 0 
N 30 18 0 
N 77 72 0 
N 69 56 0 
N 78 61 0 
N 17 20 0 
N 69 76 0 
N 7 27 0 
N 16 15 0 
N 78 64 0 
N 23 92 0 
N 18 68 0 
N 95 40 0 
N 8 18 0 
N 64 56 0 
N 22 6 0 
N 23 17 0 
N 25 63 0 
N 22 66 0 
N 8 8 0 
N 78 93 0 
N 44 81 0 
N 55 58 0 
N 50 88 0 
N 13 18 0 
N 14 16 0 
N 7 18 0 
N 84 31 0 
N 30 27 0 
N 90 43 0 
N 66 32 0 
N 56 23 0 
N 15 75 0 
N 16 71 0 
N 20 17 0 
N 4 26 0 
N 80 27 0 
N 94 43 0 
N 7 20 0 
N 49 83 0 
N 60 37 0 
N 98 90 0 
N 66 38 0 
N 74 54 0 
N 80 75 0 
N 59 74 0 
N 65 52 0 
N 88 99 0 
N 5 15 0 
N 42 86 0 
N 7 5 0 
N 27 48 0 
N 35 52 0 
N 68 58 0 
N 84 25 0 
N 2 26 0 
N 25 34 0 
N 60 65 0 
N 5 17 0 
N 5 27 0 
N 69 72 0 
N 9 15 0 
N 75 6 0 
N 33 67 0 
N 76 22 0 
N 28 72 0 
N 67 23 0 
N 82 90 0 
N 40 48 0 
N 93 7 0 
N 90 5 0 
N 60 13 0 
N 33 56 0 
N 68 51 0 
N 29 16 0 
N 68 87 0 
N 28 84 0 
N 64 7 0 
N 54 10 0 
N 31 77 0 
N 32 45 0 
N 81 8 0 
N 15 68 0 
N 12 29 0 
N 9 19 0 
N 91 35 0 
N 78 92 0 
N 97 2 0 
N 5 66 0 
N 29 82 0 
N 15 91 0 
N 57 55 0 
N 65 8 0 
N 31 63 0 
N 73 71 0 
N 6 46 0 
N 68 2 0 
N 62 29 0 
N 21 87 0 
N 26 35 0 
N 93 75 0 
N 30 7 0 
N 68 53 0 
N 36 54 0 
N 79 98 0 
N 52 92 0 
N 68 5 0 
N 6 23 0 
N 26 81 0 
N 40 95 0 
N 37 74 0 
N 20 16 0 
N 72 38 0 
N 2 3 0 
N 61 13 0 
N 6 75 0 
N 73 73 0 
N 53 74 0 
N 16 73 0 
N 5 16 0 
N 93 46 0 
N 26 67 0 
N 69 75 0 
N 30 16 0 
N 68 3 0 
N 73 23 0 
N 99 1 0 
N 56 90 0 
N 8 30 0 
N 66 73 0 
N 50 38 0 
N 92 5 0 
N 89 41 0 
N 68 18 0 
N 90 38 0 
N 35 31 0 
N 21 94 0 
N 16 90 0 
N 67 9 0 
N 87 2 0 
N 89 74 0 
N 31 28 0 
N 14 30 0 
N 99 76 0 
N 60 5 0 
N 85 26 0 
N 8 16 0 
N 21 89 0 
N 96 4 0 
N 53 89 0 
N 89 86 0 
N 79 87 0 
N 68 86 0 
N 81 23 0 
N 64 85 0 
N 17 64 0 
N 86 21 0 
N 69 59 0 
N 80 21 0 
N 0 67 0 
N 82 33 0 
N 19 67 0 
N 7 17 0 
N 59 28 0 
N 56 33 0 
N 17 84 0 
N 42 9 0 
N 23 88 0 
N 42 62 0 
N 77 24 0 
N 67 35 0 
N 30 85 0 
N 90 53 0 
N 42 81 0 
N 68 83 0 
N 23 23 0 
N 69 6 0 
N 26 30 0 
N 5 29 0 
N 72 10 0 
N 76 24 0 
N 58 54 0 
N 90 32 0 
N 94 35 0 
N 70 73 0 
N 26 82 0 
N 71 7 0 
N 56 11 0 
N 43 84 0 
N 64 28 0 
N 34 65 0 
N 51 9 0 
N 50 91 0 
N 58 57 0 
N 95 5 0 
N 66 63 0 
N 67 31 0 
N 74 92 0 
N 10 22 0 
N 22 14 0 
N 67 56 0 
N 7 26 0 
N 11 80 0 
N 49 11 0 
N 32 70 0 
C 0 0 0 
C 10 0 0 
C 20 0 0 
C 30 0 0 
C 40 0 0 
C 50 0 0 
C 60 0 0 
C 70 0 0 
C 80 0 0 
C 90 0 0 
C 100 0 0 
C 0 10 0 
C 10 10 0 
C 20 10 0 
C 30 10 0 
C 40 10 0 
C 50 10 0 
C 60 10 0 
C 70 10 0 
C 80 10 0 
C 90 10 0 
C 100 10 0 
C 0 20 0 
C 10 20 0 
C 20 20 0 
C 30 20 0 
C 40 20 0 
C 50 20 0 
C 60 20 0 
C 70 20 0 
C 80 20 0 
C 90 20 0 
C 100 20 0 
C 0 30 0 
C 10 30 0 
C 20 30 0 
C 30 30 0 
C 40 30 0 
C 50 30 0 
C 60 30 0 
C 70 30 0 
C 80 30 0 
C 90 30 0 
C 100 30 0 
C 0 40 0 
C 10 40 0 
C 20 40 0 
C 30 40 0 
C 40 40 0 
C 50 40 0 
C 60 40 0 
C 70 40 0 
C 80 40 0 
C 90 40 0 
C 100 40 0 
C 0 50 0 
C 10 50 0 
C 20 50 0 
C 30 50 0 
C 40 50 0 
C 50 50 0 
C 60 50 0 
C 70 50 0 
C 80 50 0 
C 90 50 0 
C 100 50 0 
C 0 60 0 
C 10 60 0 
C 20 60 0 
C 30 60 0 
C 40 60 0 
C 50 60 0 
C 60 60 0 
C 70 60 0 
C 80 60 0 
C 90 60 0 
C 100 60 0 
C 0 70 0 
C 10 70 0 
C 20 70 0 
C 30 70 0 
C 40 70 0 
C 50 70 0 
C 60 70 0 
C 70 70 0 
C 80 70 0 
C 90 70 0 
C 100 70 0 
C 0 80 0 
C 10 80 0 
C 20 80 0 
C 30 80 0 
C 40 80 0 
C 50 80 0 
C 60 80 0 
C 70 80 0 
C 80 80 0 
C 90 80 0 
C 100 80 0 
C 0 90 0 
C 10 90 0 
C 20 90 0 
C 30 90 0 
C 40 90 0 
C 50 90 0 
C 60 90 0 
C 70 90 0 
C 80 90 0 
C 90 90 0 
C 100 90 0 
C 0 100 0 
C 10 100 0 
C 20 100 0 
C 30 100 0 
C 40 100 0 
C 50 100 0 
C 60 100 0 
C 70 100 0 
C 80 100 0 
C 90 100 0 
C 100 100 0 
O 68 0 0 
622
Atoms. Timestep: 24
N 89 10 0 
N 27 59 0 
N 25 73 0 
N 57 93 0 
N 26 18 0 
N 67 26 0 
N 79 70 0 
N 3 45 0 
N 8 47 0 
N 57 28 0 
N 85 67 0 
N 10 5 0 
N 67 31 0 
N 68 13 0 
N 95 89 0 
N 75 71 0 
N 62 82 0 
N 55 64 0 
N 26 28 0 
N 33 63 0 
N 9 86 0 
N 18 76 0 
N 3 4 0 
N 16 77 0 
N 90 27 0 
N 9 22 0 
N 88 74 0 
N 69 53 0 
N 73 95 0 
N 93 27 0 
N 86 5 0 
N 60 8 0 
N 14 18 0 
N 48 84 0 
N 61 74 0 
N 67 95 0 
N 17 82 0 
N 96 8 0 
N 90 72 0 
N 67 98 0 
N 85 98 0 
N 4 28 0 
N 74 20 0 
N 38 55 0 
N 11 89 0 
N 75 23 0 
N 68 19 0 
N 40 6 0 
N 28 67 0 
N 93 47 0 
N 23 19 0 
N 77 60 0 
N 91 71 0 
N 25 3 0 
N 67 4 0 
N 66 84 0 
N 99 6 0 
N 58 12 0 
N 78 6 0 
N 24 92 0 
N 7 42 0 
N 92 30 0 
N 28 58 0 
N 65 47 0 
N 65 25 0 
N 41 55 0 
N 68 73 0 
N 58 41 0 
N 88 72 0 
N 22 17 0 
N 26 16 0 
N 63 24 0 
N 28 39 0 
N 5 19 0 
N 15 19 0 
N 98 69 0 
N 18 74 0 
N 78 88 0 
N 62 67 0 
N 89 6 0 
N 4 22 0 
N 74 72 0 
N 0 67 0 
N 68 97 0 
N 8 21 0 
N 77 79 0 
N 68 5 0 
N 10 66 0 
N 74 67 0 
N 85 24 0 
N 36 16 0 
N 68 32 0 
N 34 15 0 
N 4 91 0 
N 4 42 0 
N 21 78 0 
N 52 83 0 
N 25 17 0 
N 57 85 0 
N 5 20 0 
N 32 59 0 
N 74 9 0 
N 75 47 0 
N 65 69 0 
N 74 74 0 
N 96 22 0 
N 77 96 0 
N 96 30 0 
N 5 29 0 
N 1 24 0 
N 40 98 0 
N 38 59 0 
N 5 53 0 
N 3 74 0 
N 72 54 0 
N 11 17 0 
N 84 52 0 
N 17 77 0 
N 31 15 0 
N 77 81 0 
N 14 80 0 
N 68 76 0 
N 89 95 0 
N 4 19 0 
N 94 68 0 
N 97 5 0 
N 68 7 0 
N 68 54 0 
N 21 62 0 
N 5 14 0 
N 31 61 0 
N 68 72 0 
N 7 19 0 
N 48 67 0 
N 66 95 0 
N 49 44 0 
N 99 4 0 
N 86 96 0 
N 63 93 0 
N 72 69 0 
N 76 49 0 
N 35 87 0 
N 22 72 0 
N 26 46 0 
N 35 49 0 
N 75 68 0 
N 20 75 0 
N 33 59 0 
N 82 2 0 
N 47 64 0 
N 36 53 0 
N 17 67 0 
N 6 70 0 
N 37 17 0 
N 69 90 0 
N 17 91 0 
N 2 43 0 
N 28 20 0 
N 69 78 0 
N 46 15 0 
N 66 58 0 
N 16 66 0 
N 10 16 0 
N 84 4 0 
N 8 73 0 
N 5 1 0 
N 19 15 0 
N 91 75 0 
N 6 78 0 
N 74 48 0 
N 5 32 0 
N 26 92 0 
N 6 29 0 
N 68 89 0 
N 9 12 0 
N 16 73 0 
N 31 55 0 
N 35 15 0 
N 92 34 0 
N 98 29 0 
N 84 12 0 
N 9 27 0 
N 73 76 0 
N 81 0 0 
N 62 13 0 
N 78 17 0 
N 81 85 0 
N 57 98 0 
N 64 96 0 
N 71 46 0 
N 94 38 0 
N 39 62 0 
N 93 73 0 
N 66 90 0 
N 96 27 0 
N 85 73 0 
N 16 26 0 
N 13 91 0 
N 62 73 0 
N 94 26 0 
N 18 73 0 
N 19 63 0 
N 98 74 0 
N 45 64 0 
N 8 71 0 
N 20 89 0 
N 7 2 0 
N 5 31 0 
N 84 22 0 
N 95 32 0 
N 36 59 0 
N 95 30 0 
N 68 82 0 
N 47 65 0 
N 20 4 0 
N 41 84 0 
N 45 70 0 
N 59 95 0 
N 76 16 0 
N 76 91 0 
N 90 22 0 
N 28 24 0 
N 15 70 0 
N 4 46 0 
N 49 71 0 
N 61 49 0 
N 7 92 0 
N 82 26 0 
N 15 27 0 
N 23 81 0 
N 7 14 0 
N 77 24 0 
N 53 86 0 
N 98 75 0 
N 58 9 0 
N 79 72 0 
N 49 69 0 
N 77 84 0 
N 75 27 0 
N 24 7 0 
N 80 65 0 
N 46 59 0 
N 4 69 0 
N 12 67 0 
N 97 40 0 
N 73 80 0 
N 73 7 0 
N 95 73 0 
N 14 17 0 
N 99 29 0 
N 44 92 0 
N 21 74 0 
N 4 84 0 
N 68 64 0 
N 19 82 0 
N 68 71 0 
N 93 21 0 
N 71 74 0 
N 92 25 0 
N 63 38 0 
N 44 94 0 
N 94 31 0 
N 83 2 0 
N 68 88 0 
N 69 31 0 
N 56 93 0 
N 66 3 0 
N 28 62 0 
N 52 86 0 
N 73 25 0 
N 69 36 0 
N 85 82 0 
N 0 73 0 
N 28 65 0 
N 29 57 0 
N 10 28 0 
N 8 16 0 
N 99 24 0 
N 21 17 0 
N 21 75 0 
N 68 75 0 
N 67 64 0 
N 87 76 0 
N 23 82 0 
N 3 68 0 
N 96 25 0 
N 99 70 0 
N 68 27 0 
N 21 37 0 
N 98 72 0 
N 81 30 0 
N 91 54 0 
N 78 23 0 
N 99 72 0 
N 74 75 0 
N 61 52 0 
N 30 19 0 
N 76 72 0 
N 69 55 0 
N 79 61 0 
N 16 20 0 
N 69 75 0 
N 6 27 0 
N 16 14 0 
N 77 64 0 
N 23 91 0 
N 18 67 0 
N 94 40 0 
N 7 18 0 
N 64 55 0 
N 21 6 0 
N 23 16 0 
N 25 62 0 
N 22 65 0 
N 8 7 0 
N 77 93 0 
N 45 81 0 
N 56 58 0 
N 50 87 0 
N 13 17 0 
N 15 16 0 
N 7 17 0 
N 84 30 0 
N 30 26 0 
N 90 42 0 
N 67 32 0 
N 57 23 0 
N 15 76 0 
N 16 70 0 
N 20 18 0 
N 4 25 0 
N 80 26 0 
N 94 44 0 
N 8 20 0 
N 50 83 0 
N 60 36 0 
N 97 90 0 
N 66 37 0 
N 74 55 0 
N 79 75 0 
N 60 74 0 
N 65 53 0 
N 88 98 0 
N 4 15 0 
N 43 86 0 
N 7 6 0 
N 27 49 0 
N 36 52 0 
N 68 57 0 
N 83 25 0 
N 3 26 0 
N 25 33 0 
N 60 64 0 
N 4 17 0 
N 5 26 0 
N 69 71 0 
N 9 14 0 
N 74 6 0 
N 33 68 0 
N 76 21 0 
N 28 73 0 
N 67 22 0 
N 81 90 0 
N 39 48 0 
N 94 7 0 
N 89 5 0 
N 61 13 0 
N 34 56 0 
N 68 50 0 
N 30 16 0 
N 68 86 0 
N 27 84 0 
N 64 6 0 
N 55 10 0 
N 31 78 0 
N 32 44 0 
N 81 7 0 
N 15 67 0 
N 11 29 0 
N 9 18 0 
N 92 35 0 
N 78 91 0 
N 97 1 0 
N 5 65 0 
N 28 82 0 
N 15 92 0 
N 56 55 0 
N 65 7 0 
N 31 64 0 
N 72 71 0 
N 5 46 0 
N 68 1 0 
N 63 29 0 
N 21 86 0 
N 25 35 0 
N 93 74 0 
N 30 6 0 
N 68 52 0 
N 35 54 0 
N 79 97 0 
N 53 92 0 
N 68 4 0 
N 7 23 0 
N 26 80 0 
N 41 95 0 
N 37 73 0 
N 20 15 0 
N 72 37 0 
N 2 2 0 
N 61 12 0 
N 6 76 0 
N 72 73 0 
N 53 73 0 
N 17 73 0 
N 6 16 0 
N 93 45 0 
N 26 68 0 
N 69 74 0 
N 30 17 0 
N 68 3 0 
N 73 22 0 
N 98 1 0 
N 56 89 0 
N 8 29 0 
N 67 73 0 
N 50 37 0 
N 91 5 0 
N 89 40 0 
N 68 17 0 
N 91 38 0 
N 35 30 0 
N 21 95 0 
N 15 90 0 
N 68 9 0 
N 86 2 0 
N 89 73 0 
N 31 27 0 
N 15 30 0 
N 98 76 0 
N 60 4 0 
N 84 26 0 
N 8 17 0 
N 21 88 0 
N 96 3 0 
N 53 88 0 
N 88 86 0 
N 79 86 0 
N 68 85 0 
N 81 22 0 
N 64 84 0 
N 17 63 0 
N 86 20 0 
N 68 59 0 
N 79 21 0 
N 1 67 0 
N 82 32 0 
N 20 67 0 
N 7 16 0 
N 60 28 0 
N 56 32 0 
N 18 84 0 
N 42 8 0 
N 24 88 0 
N 43 62 0 
N 77 23 0 
N 67 34 0 
N 31 85 0 
N 90 52 0 
N 42 80 0 
N 69 83 0 
N 22 23 0 
N 69 5 0 
N 25 30 0 
N 5 28 0 
N 72 9 0 
N 75 24 0 
N 57 54 0 
N 91 32 0 
N 94 36 0 
N 70 72 0 
N 27 82 0 
N 71 6 0 
N 56 10 0 
N 43 83 0 
N 64 27 0 
N 35 65 0 
N 51 8 0 
N 51 91 0 
N 58 58 0 
N 94 5 0 
N 66 62 0 
N 67 30 0 
N 74 91 0 
N 10 23 0 
N 22 13 0 
N 68 56 0 
N 7 25 0 
N 11 81 0 
N 50 11 0 
N 32 69 0 
C 0 0 0 
C 10 0 0 
C 20 0 0 
C 30 0 0 
C 40 0 0 
C 50 0 0 
C 60 0 0 
C 70 0 0 
C 80 0 0 
C 90 0 0 
C 100 0 0 
C 0 10 0 
C 10 10 0 
C 20 10 0 
C 30 10 0 
C 40 10 0 
C 50 10 0 
C 60 10 0 
C 70 10 0 
C 80 10 0 
C 90 10 0 
C 100 10 0 
C 0 20 0 
C 10 20 0 
C 20 20 0 
C 30 20 0 
C 40 20 0 
C 50 20 0 
C 60 20 0 
C 70 20 0 
C 80 20 0 
C 90 20 0 
C 100 20 0 
C 0 30 0 
C 10 30 0 
C 20 30 0 
C 30 30 0 
C 40 30 0 
C 50 30 0 
C 60 30 0 
C 70 30 0 
C 80 30 0 
C 90 30 0 
C 100 30 0 
C 0 40 0 
C 10 40 0 
C 20 40 0 
C 30 40 0 
C 40 40 0 
C 50 40 0 
C 60 40 0 
C 70 40 0 
C 80 40 0 
C 90 40 0 
C 100 40 0 
C 0 50 0 
C 10 50 0 
C 20 50 0 
C 30 50 0 
C 40 50 0 
C 50 50 0 
C 60 50 0 
C 70 50 0 
C 80 50 0 
C 90 50 0 
C 100 50 0 
C 0 60 0 
C 10 60 0 
C 20 60 0 
C 30 60 0 
C 40 60 0 
C 50 60 0 
C 60 60 0 
C 70 60 0 
C 80 60 0 
C 90 60 0 
C 100 60 0 
C 0 70 0 
C 10 70 0 
C 20 70 0 
C 30 70 0 
C 40 70 0 
C 50 70 0 
C 60 70 0 
C 70 70 0 
C 80 70 0 
C 90 70 0 
C 100 70 0 
C 0 80 0 
C 10 80 0 
C 20 80 0 
C 30 80 0 
C 40 80 0 
C 50 80 0 
C 60 80 0 
C 70 80 0 
C 80 80 0 
C 90 80 0 
C 100 80 0 
C 0 90 0 
C 10 90 0 
C 20 90 0 
C 30 90 0 
C 40 90 0 
C 50 90 0 
C 60 90 0 
C 70 90 0 
C 80 90 0 
C 90 90 0 
C 100 90 0 
C 0 100 0 
C 10 100 0 
C 20 100 0 
C 30 100 0 
C 40 100 0 
C 50 100 0 
C 60 100 0 
C 70 100 0 
C 80 100 0 
C 90 100 0 
C 100 100 0 
O 68 99 0 
622
Atoms. Timestep: 25
N 89 11 0 
N 26 59 0 
N 24 73 0 
N 58 93 0 
N 26 17 0 
N 68 26 0 
N 78 70 0 
N 2 45 0 
N 7 47 0 
N 58 28 0 
N 84 67 0 
N 11 5 0 
N 67 32 0 
N 68 14 0 
N 94 89 0 
N 74 71 0 
N 62 83 0 
N 56 64 0 
N 26 27 0 
N 34 63 0 
N 9 85 0 
N 18 75 0 
N 4 4 0 
N 15 77 0 
N 89 27 0 
N 9 21 0 
N 88 75 0 
N 69 54 0 
N 73 96 0 
N 93 26 0 
N 85 5 0 
N 60 9 0 
N 14 17 0 
N 48 85 0 
N 62 74 0 
N 67 96 0 
N 16 82 0 
N 95 8 0 
N 90 73 0 
N 67 99 0 
N 84 98 0 
N 4 27 0 
N 73 20 0 
N 37 55 0 
N 12 89 0 
N 74 23 0 
N 67 19 0 
N 41 6 0 
N 29 67 0 
N 93 48 0 
N 23 20 0 
N 76 60 0 
N 91 70 0 
N 25 4 0 
N 67 4 0 
N 67 84 0 
N 98 6 0 
N 58 13 0 
N 78 7 0 
N 24 91 0 
N 7 41 0 
N 93 30 0 
N 29 58 0 
N 66 47 0 
N 66 25 0 
N 41 56 0 
N 68 73 0 
N 57 41 0 
N 87 72 0 
N 21 17 0 
N 26 15 0 
N 63 25 0 
N 27 39 0 
N 5 18 0 
N 15 18 0 
N 99 69 0 
N 18 73 0 
N 77 88 0 
N 62 68 0 
N 89 7 0 
N 4 21 0 
N 74 73 0 
N 99 67 0 
N 68 98 0 
N 8 20 0 
N 76 79 0 
N 67 5 0 
N 10 67 0 
N 73 67 0 
N 85 25 0 
N 36 17 0 
N 68 33 0 
N 34 16 0 
N 4 92 0 
N 5 42 0 
N 22 78 0 
N 53 83 0 
N 25 16 0 
N 57 86 0 
N 5 21 0 
N 33 59 0 
N 73 9 0 
N 75 46 0 
N 65 70 0 
N 74 75 0 
N 95 22 0 
N 77 97 0 
N 95 30 0 
N 6 29 0 
N 2 24 0 
N 40 99 0 
N 38 60 0 
N 4 53 0 
N 2 74 0 
N 72 55 0 
N 12 17 0 
N 84 51 0 
N 18 77 0 
N 31 16 0 
N 76 81 0 
N 15 80 0 
N 68 77 0 
N 89 96 0 
N 3 19 0 
N 94 69 0 
N 97 6 0 
N 68 8 0 
N 68 55 0 
N 21 63 0 
N 5 13 0 
N 31 62 0 
N 68 72 0 
N 7 20 0 
N 48 68 0 
N 66 96 0 
N 49 43 0 
N 98 4 0 
N 85 96 0 
N 63 94 0 
N 72 70 0 
N 77 49 0 
N 36 87 0 
N 22 73 0 
N 26 45 0 
N 36 49 0 
N 74 68 0 
N 20 76 0 
N 33 58 0 
N 82 3 0 
N 47 65 0 
N 35 53 0 
N 16 67 0 
N 7 70 0 
N 38 17 0 
N 69 91 0 
N 16 91 0 
N 3 43 0 
N 27 20 0 
N 68 78 0 
N 46 16 0 
N 67 58 0 
N 16 65 0 
N 10 17 0 
N 84 5 0 
N 7 73 0 
N 6 1 0 
N 18 15 0 
N 91 76 0 
N 6 77 0 
N 75 48 0 
N 5 33 0 
N 26 93 0 
N 6 30 0 
N 68 90 0 
N 8 12 0 
N 15 73 0 
N 31 54 0 
N 35 16 0 
N 92 33 0 
N 97 29 0 
N 84 13 0 
N 8 27 0 
N 73 77 0 
N 81 1 0 
N 63 13 0 
N 79 17 0 
N 80 85 0 
N 57 99 0 
N 65 96 0 
N 70 46 0 
N 94 39 0 
N 39 61 0 
N 92 73 0 
N 67 90 0 
N 97 27 0 
N 85 74 0 
N 16 27 0 
N 12 91 0 
N 63 73 0 
N 95 26 0 
N 19 73 0 
N 20 63 0 
N 99 74 0 
N 44 64 0 
N 7 71 0 
N 20 88 0 
N 8 2 0 
N 6 31 0 
N 83 22 0 
N 96 32 0 
N 36 60 0 
N 94 30 0 
N 68 82 0 
N 48 65 0 
N 19 4 0 
N 41 85 0 
N 46 70 0 
N 60 95 0 
N 75 16 0 
N 75 91 0 
N 89 22 0 
N 28 23 0 
N 15 69 0 
N 4 45 0 
N 49 72 0 
N 61 48 0 
N 8 92 0 
N 81 26 0 
N 14 27 0 
N 24 81 0 
N 6 14 0 
N 77 25 0 
N 53 87 0 
N 99 75 0 
N 58 10 0 
N 79 71 0 
N 50 69 0 
N 77 85 0 
N 75 28 0 
N 24 8 0 
N 80 66 0 
N 45 59 0 
N 4 70 0 
N 13 67 0 
N 96 40 0 
N 72 80 0 
N 73 8 0 
N 95 74 0 
N 13 17 0 
N 99 30 0 
N 45 92 0 
N 21 75 0 
N 4 85 0 
N 68 65 0 
N 19 83 0 
N 68 71 0 
N 93 22 0 
N 71 75 0 
N 92 26 0 
N 64 38 0 
N 44 93 0 
N 95 31 0 
N 83 3 0 
N 68 88 0 
N 69 32 0 
N 56 94 0 
N 66 4 0 
N 27 62 0 
N 51 86 0 
N 73 26 0 
N 68 36 0 
N 85 83 0 
N 0 74 0 
N 29 65 0 
N 28 57 0 
N 9 28 0 
N 7 16 0 
N 0 24 0 
N 20 17 0 
N 21 76 0 
N 68 75 0 
N 67 65 0 
N 87 77 0 
N 23 83 0 
N 4 68 0 
N 96 26 0 
N 98 70 0 
N 69 27 0 
N 21 36 0 
N 98 71 0 
N 81 31 0 
N 91 53 0 
N 78 24 0 
N 0 72 0 
N 74 76 0 
N 62 52 0 
N 31 19 0 
N 75 72 0 
N 69 56 0 
N 78 61 0 
N 15 20 0 
N 69 76 0 
N 6 26 0 
N 15 14 0 
N 77 65 0 
N 23 92 0 
N 19 67 0 
N 94 41 0 
N 6 18 0 
N 65 55 0 
N 21 5 0 
N 23 15 0 
N 25 61 0 
N 22 64 0 
N 8 8 0 
N 76 93 0 
N 46 81 0 
N 56 57 0 
N 51 87 0 
N 13 18 0 
N 16 16 0 
N 6 17 0 
N 84 31 0 
N 30 25 0 
N 90 43 0 
N 67 33 0 
N 58 23 0 
N 14 76 0 
N 17 70 0 
N 20 19 0 
N 4 24 0 
N 80 27 0 
N 94 43 0 
N 8 19 0 
N 50 82 0 
N 60 37 0 
N 98 90 0 
N 66 38 0 
N 73 55 0 
N 79 76 0 
N 60 75 0 
N 65 54 0 
N 87 98 0 
N 5 15 0 
N 43 87 0 
N 7 7 0 
N 27 50 0 
N 35 52 0 
N 68 58 0 
N 83 26 0 
N 2 26 0 
N 26 33 0 
N 61 64 0 
N 3 17 0 
N 4 26 0 
N 69 71 0 
N 10 14 0 
N 73 6 0 
N 33 69 0 
N 75 21 0 
N 28 74 0 
N 67 23 0 
N 81 91 0 
N 39 47 0 
N 94 8 0 
N 88 5 0 
N 61 14 0 
N 33 56 0 
N 68 51 0 
N 29 16 0 
N 68 87 0 
N 28 84 0 
N 64 7 0 
N 55 11 0 
N 31 79 0 
N 33 44 0 
N 81 8 0 
N 15 68 0 
N 11 28 0 
N 9 17 0 
N 91 35 0 
N 77 91 0 
N 97 2 0 
N 6 65 0 
N 29 82 0 
N 15 91 0 
N 56 54 0 
N 65 8 0 
N 30 64 0 
N 71 71 0 
N 5 47 0 
N 68 2 0 
N 64 29 0 
N 21 87 0 
N 24 35 0 
N 93 75 0 
N 31 6 0 
N 68 53 0 
N 34 54 0 
N 79 98 0 
N 53 93 0 
N 68 4 0 
N 7 24 0 
N 26 81 0 
N 41 96 0 
N 37 72 0 
N 21 15 0 
N 71 37 0 
N 3 2 0 
N 62 12 0 
N 5 76 0 
N 72 74 0 
N 53 74 0 
N 17 74 0 
N 6 15 0 
N 92 45 0 
N 26 67 0 
N 68 74 0 
N 30 18 0 
N 68 3 0 
N 72 22 0 
N 98 2 0 
N 57 89 0 
N 7 29 0 
N 67 74 0 
N 50 38 0 
N 90 5 0 
N 88 40 0 
N 68 18 0 
N 91 39 0 
N 35 29 0 
N 22 95 0 
N 15 89 0 
N 68 10 0 
N 86 3 0 
N 88 73 0 
N 30 27 0 
N 14 30 0 
N 98 77 0 
N 60 5 0 
N 84 27 0 
N 8 18 0 
N 21 89 0 
N 96 4 0 
N 54 88 0 
N 87 86 0 
N 79 87 0 
N 68 85 0 
N 81 23 0 
N 65 84 0 
N 17 64 0 
N 85 20 0 
N 68 60 0 
N 78 21 0 
N 2 67 0 
N 82 33 0 
N 20 68 0 
N 7 15 0 
N 61 28 0 
N 56 33 0 
N 19 84 0 
N 43 8 0 
N 24 89 0 
N 43 63 0 
N 76 23 0 
N 67 35 0 
N 32 85 0 
N 90 51 0 
N 43 80 0 
N 68 83 0 
N 22 22 0 
N 69 6 0 
N 25 31 0 
N 6 28 0 
N 72 10 0 
N 75 25 0 
N 57 55 0 
N 90 32 0 
N 93 36 0 
N 69 72 0 
N 26 82 0 
N 71 7 0 
N 56 11 0 
N 43 84 0 
N 65 27 0 
N 36 65 0 
N 52 8 0 
N 52 91 0 
N 57 58 0 
N 93 5 0 
N 66 63 0 
N 68 30 0 
N 74 92 0 
N 11 23 0 
N 23 13 0 
N 68 56 0 
N 6 25 0 
N 10 81 0 
N 51 11 0 
N 32 70 0 
C 0 0 0 
C 10 0 0 
C 20 0 0 
C 30 0 0 
C 40 0 0 
C 50 0 0 
C 60 0 0 
C 70 0 0 
C 80 0 0 
C 90 0 0 
C 100 0 0 
C 0 10 0 
C 10 10 0 
C 20 10 0 
C 30 10 0 
C 40 10 0 
C 50 10 0 
C 60 10 0 
C 70 10 0 
C 80 10 0 
C 90 10 0 
C 100 10 0 
C 0 20 0 
C 10 20 0 
C 20 20 0 
C 30 20 0 
C 40 20 0 
C 50 20 0 
C 60 20 0 
C 70 20 0 
C 80 20 0 
C 90 20 0 
C 100 20 0 
C 0 30 0 
C 10 30 0 
C 20 30 0 
C 30 30 0 
C 40 30 0 
C 50 30 0 
C 60 30 0 
C 70 30 0 
C 80 30 0 
C 90 30 0 
C 100 30 0 
C 0 40 0 
C 10 40 0 
C 20 40 0 
C 30 40 0 
C 40 40 0 
C 50 40 0 
C 60 40 0 
C 70 40 0 
C 80 40 0 
C 90 40 0 
C 100 40 0 
C 0 50 0 
C 10 50 0 
C 20 50 0 
C 30 50 0 
C 40 50 0 
C 50 50 0 
C 60 50 0 
C 70 50 0 
C 80 50 0 
C 90 50 0 
C 100 50 0 
C 0 60 0 
C 10 60 0 
C 20 60 0 
C 30 60 0 
C 40 60 0 
C 50 60 0 
C 60 60 0 
C 70 60 0 
C 80 60 0 
C 90 60 0 
C 100 60 0 
C 0 70 0 
C 10 70 0 
C 20 70 0 
C 30 70 0 
C 40 70 0 
C 50 70 0 
C 60 70 0 
C 70 70 0 
C 80 70 0 
C 90 70 0 
C 100 70 0 
C 0 80 0 
C 10 80 0 
C 20 80 0 
C 30 80 0 
C 40 80 0 
C 50 80 0 
C 60 80 0 
C 70 80 0 
C 80 80 0 
C 90 80 0 
C 100 80 0 
C 0 90 0 
C 10 90 0 
C 20 90 0 
C 30 90 0 
C 40 90 0 
C 50 90 0 
C 60 90 0 
C 70 90 0 
C 80 90 0 
C 90 90 0 
C 100 90 0 
C 0 100 0 
C 10 100 0 
C 20 100 0 
C 30 100 0 
C 40 100 0 
C 50 100 0 
C 60 100 0 
C 70 100 0 
C 80 100 0 
C 90 100 0 
C 100 100 0 
O 68 0 0 
622
Atoms. Timestep: 26
N 88 11 0 
N 26 60 0 
N 24 74 0 
N 58 92 0 
N 26 18 0 
N 68 25 0 
N 77 70 0 
N 2 46 0 
N 6 47 0 
N 58 27 0 
N 83 67 0 
N 11 4 0 
N 67 31 0 
N 68 13 0 
N 93 89 0 
N 74 70 0 
N 62 82 0 
N 56 63 0 
N 25 27 0 
N 33 63 0 
N 10 85 0 
N 18 76 0 
N 4 3 0 
N 15 78 0 
N 89 26 0 
N 9 22 0 
N 87 75 0 
N 69 53 0 
N 72 96 0 
N 92 26 0 
N 85 4 0 
N 61 9 0 
N 15 17 0 
N 48 84 0 
N 63 74 0 
N 67 95 0 
N 16 83 0 
N 95 7 0 
N 89 73 0 
N 68 99 0 
N 83 98 0 
N 4 26 0 
N 72 20 0 
N 38 55 0 
N 13 89 0 
N 73 23 0 
N 68 19 0 
N 42 6 0 
N 29 68 0 
N 93 49 0 
N 23 21 0 
N 76 59 0 
N 91 71 0 
N 25 3 0 
N 68 4 0 
N 67 83 0 
N 98 5 0 
N 59 13 0 
N 77 7 0 
N 25 91 0 
N 7 40 0 
N 93 29 0 
N 29 59 0 
N 66 46 0 
N 67 25 0 
N 41 57 0 
N 68 72 0 
N 58 41 0 
N 87 71 0 
N 21 18 0 
N 25 15 0 
N 64 25 0 
N 27 40 0 
N 5 17 0 
N 15 19 0 
N 98 69 0 
N 19 73 0 
N 78 88 0 
N 62 67 0 
N 88 7 0 
N 5 21 0 
N 73 73 0 
N 99 68 0 
N 68 97 0 
N 8 21 0 
N 76 78 0 
N 68 5 0 
N 10 66 0 
N 73 66 0 
N 84 25 0 
N 37 17 0 
N 68 32 0 
N 34 15 0 
N 4 91 0 
N 6 42 0 
N 21 78 0 
N 54 83 0 
N 26 16 0 
N 58 86 0 
N 5 22 0 
N 32 59 0 
N 73 8 0 
N 74 46 0 
N 65 69 0 
N 74 74 0 
N 95 21 0 
N 76 97 0 
N 95 31 0 
N 7 29 0 
N 3 24 0 
N 41 99 0 
N 39 60 0 
N 4 54 0 
N 3 74 0 
N 71 55 0 
N 12 16 0 
N 84 50 0 
N 18 78 0 
N 31 15 0 
N 76 80 0 
N 15 81 0 
N 68 76 0 
N 88 96 0 
N 3 20 0 
N 93 69 0 
N 96 6 0 
N 68 7 0 
N 68 54 0 
N 21 64 0 
N 6 13 0 
N 31 63 0 
N 68 71 0 
N 7 21 0 
N 47 68 0 
N 66 95 0 
N 49 42 0 
N 98 3 0 
N 85 95 0 
N 63 93 0 
N 72 69 0 
N 78 49 0 
N 37 87 0 
N 22 74 0 
N 27 45 0 
N 35 49 0 
N 74 67 0 
N 20 77 0 
N 34 58 0 
N 81 3 0 
N 48 65 0 
N 35 54 0 
N 16 66 0 
N 7 71 0 
N 39 17 0 
N 69 90 0 
N 15 91 0 
N 3 42 0 
N 27 21 0 
N 68 78 0 
N 47 16 0 
N 68 58 0 
N 17 65 0 
N 11 17 0 
N 83 5 0 
N 7 72 0 
N 7 1 0 
N 19 15 0 
N 91 75 0 
N 6 78 0 
N 75 49 0 
N 5 32 0 
N 26 92 0 
N 6 31 0 
N 68 89 0 
N 8 13 0 
N 15 72 0 
N 31 53 0 
N 36 16 0 
N 93 33 0 
N 97 30 0 
N 84 12 0 
N 7 27 0 
N 72 77 0 
N 80 1 0 
N 63 12 0 
N 79 16 0 
N 80 86 0 
N 57 98 0 
N 65 95 0 
N 70 45 0 
N 95 39 0 
N 40 61 0 
N 93 73 0 
N 67 89 0 
N 97 28 0 
N 86 74 0 
N 15 27 0 
N 11 91 0 
N 63 72 0 
N 96 26 0 
N 19 72 0 
N 19 63 0 
N 99 73 0 
N 45 64 0 
N 6 71 0 
N 19 88 0 
N 9 2 0 
N 7 31 0 
N 82 22 0 
N 96 33 0 
N 36 61 0 
N 94 29 0 
N 68 81 0 
N 48 66 0 
N 18 4 0 
N 42 85 0 
N 46 71 0 
N 61 95 0 
N 74 16 0 
N 75 90 0 
N 89 21 0 
N 28 24 0 
N 16 69 0 
N 5 45 0 
N 49 71 0 
N 62 48 0 
N 8 91 0 
N 81 25 0 
N 14 26 0 
N 25 81 0 
N 5 14 0 
N 76 25 0 
N 53 86 0 
N 98 75 0 
N 59 10 0 
N 79 70 0 
N 51 69 0 
N 77 84 0 
N 75 27 0 
N 23 8 0 
N 80 65 0 
N 44 59 0 
N 4 71 0 
N 14 67 0 
N 96 39 0 
N 72 79 0 
N 73 7 0 
N 95 73 0 
N 13 18 0 
N 99 31 0 
N 46 92 0 
N 21 74 0 
N 4 86 0 
N 68 64 0 
N 18 83 0 
N 68 70 0 
N 92 22 0 
N 71 74 0 
N 92 25 0 
N 64 39 0 
N 45 93 0 
N 94 31 0 
N 83 2 0 
N 68 87 0 
N 69 31 0 
N 57 94 0 
N 66 3 0 
N 27 61 0 
N 52 86 0 
N 73 25 0 
N 68 36 0 
N 85 82 0 
N 1 74 0 
N 28 65 0 
N 28 56 0 
N 8 28 0 
N 7 17 0 
N 0 25 0 
N 20 16 0 
N 22 76 0 
N 68 75 0 
N 67 64 0 
N 87 76 0 
N 23 84 0 
N 4 67 0 
N 96 27 0 
N 99 70 0 
N 68 27 0 
N 20 36 0 
N 97 71 0 
N 80 31 0 
N 91 52 0 
N 77 24 0 
N 1 72 0 
N 73 76 0 
N 63 52 0 
N 30 19 0 
N 74 72 0 
N 69 55 0 
N 78 60 0 
N 16 20 0 
N 69 75 0 
N 5 26 0 
N 14 14 0 
N 77 64 0 
N 23 93 0 
N 18 67 0 
N 93 41 0 
N 6 17 0 
N 66 55 0 
N 20 5 0 
N 23 14 0 
N 25 60 0 
N 22 63 0 
N 9 8 0 
N 76 92 0 
N 47 81 0 
N 57 57 0 
N 52 87 0 
N 12 18 0 
N 15 16 0 
N 6 16 0 
N 84 30 0 
N 31 25 0 
N 89 43 0 
N 67 33 0 
N 59 23 0 
N 15 76 0 
N 16 70 0 
N 19 19 0 
N 4 25 0 
N 79 27 0 
N 93 43 0 
N 7 19 0 
N 50 81 0 
N 60 36 0 
N 98 89 0 
N 67 38 0 
N 73 54 0 
N 79 75 0 
N 60 74 0 
N 65 53 0 
N 86 98 0 
N 4 15 0 
N 44 87 0 
N 8 7 0 
N 26 50 0 
N 36 52 0 
N 68 57 0 
N 82 26 0 
N 2 25 0 
N 25 33 0 
N 62 64 0 
N 4 17 0 
N 3 26 0 
N 69 70 0 
N 10 13 0 
N 72 6 0 
N 34 69 0 
N 74 21 0 
N 28 75 0 
N 67 22 0 
N 81 90 0 
N 40 47 0 
N 94 7 0 
N 88 4 0 
N 61 13 0 
N 32 56 0 
N 69 51 0 
N 29 15 0 
N 68 86 0 
N 28 85 0 
N 64 6 0 
N 55 10 0 
N 31 78 0 
N 33 45 0 
N 80 8 0 
N 15 67 0 
N 10 28 0 
N 9 18 0 
N 91 34 0 
N 76 91 0 
N 96 2 0 
N 7 65 0 
N 28 82 0 
N 15 90 0 
N 56 53 0 
N 66 8 0 
N 29 64 0 
N 71 70 0 
N 5 46 0 
N 68 1 0 
N 65 29 0 
N 21 86 0 
N 24 36 0 
N 92 75 0 
N 31 5 0 
N 68 52 0 
N 34 53 0 
N 79 97 0 
N 53 92 0 
N 68 3 0 
N 6 24 0 
N 27 81 0 
N 41 95 0 
N 37 71 0 
N 20 15 0 
N 71 36 0 
N 4 2 0 
N 62 11 0 
N 6 76 0 
N 72 73 0 
N 53 73 0 
N 17 73 0 
N 7 15 0 
N 91 45 0 
N 26 68 0 
N 68 74 0 
N 31 18 0 
N 67 3 0 
N 71 22 0 
N 98 1 0 
N 58 89 0 
N 7 28 0 
N 67 73 0 
N 50 39 0 
N 90 4 0 
N 88 41 0 
N 68 17 0 
N 92 39 0 
N 36 29 0 
N 22 96 0 
N 16 89 0 
N 68 9 0 
N 85 3 0 
N 88 72 0 
N 30 26 0 
N 14 29 0 
N 98 78 0 
N 61 5 0 
N 84 26 0 
N 8 17 0 
N 21 88 0 
N 96 3 0 
N 54 87 0 
N 87 85 0 
N 78 87 0 
N 68 84 0 
N 80 23 0 
N 66 84 0 
N 18 64 0 
N 84 20 0 
N 68 59 0 
N 77 21 0 
N 1 67 0 
N 82 32 0 
N 21 68 0 
N 7 14 0 
N 61 27 0 
N 56 32 0 
N 20 84 0 
N 43 7 0 
N 23 89 0 
N 43 64 0 
N 76 22 0 
N 68 35 0 
N 32 86 0 
N 89 51 0 
N 43 79 0 
N 68 83 0 
N 22 21 0 
N 68 6 0 
N 24 31 0 
N 6 27 0 
N 72 9 0 
N 75 24 0 
N 56 55 0 
N 91 32 0 
N 93 35 0 
N 69 72 0 
N 27 82 0 
N 71 6 0 
N 56 10 0 
N 44 84 0 
N 66 27 0 
N 36 66 0 
N 53 8 0 
N 52 90 0 
N 56 58 0 
N 92 5 0 
N 67 63 0 
N 68 29 0 
N 74 91 0 
N 11 22 0 
N 22 13 0 
N 68 56 0 
N 5 25 0 
N 11 81 0 
N 51 10 0 
N 31 70 0 
C 0 0 0 
C 10 0 0 
C 20 0 0 
C 30 0 0 
C 40 0 0 
C 50 0 0 
C 60 0 0 
C 70 0 0 
C 80 0 0 
C 90 0 0 
C 100 0 0 
C 0 10 0 
C 10 10 0 
C 20 10 0 
C 30 10 0 
C 40 10 0 
C 50 10 0 
C 60 10 0 
C 70 10 0 
C 80 10 0 
C 90 10 0 
C 100 10 0 
C 0 20 0 
C 10 20 0 
C 20 20 0 
C 30 20 0 
C 40 20 0 
C 50 20 0 
C 60 20 0 
C 70 20 0 
C 80 20 0 
C 90 20 0 
C 100 20 0 
C 0 30 0 
C 10 30 0 
C 20 30 0 
C 30 30 0 
C 40 30 0 
C 50 30 0 
C 60 30 0 
C 70 30 0 
C 80 30 0 
C 90 30 0 
C 100 30 0 
C 0 40 0 
C 10 40 0 
C 20 40 0 
C 30 40 0 
C 40 40 0 
C 50 40 0 
C 60 40 0 
C 70 40 0 
C 80 40 0 
C 90 40 0 
C 100 40 0 
C 0 50 0 
C 10 50 0 
C 20 50 0 
C 30 50 0 
C 40 50 0 
C 50 50 0 
C 60 50 0 
C 70 50 0 
C 80 50 0 
C 90 50 0 
C 100 50 0 
C 0 60 0 
C 10 60 0 
C 20 60 0 
C 30 60 0 
C 40 60 0 
C 50 60 0 
C 60 60 0 
C 70 60 0 
C 80 60 0 
C 90 60 0 
C 100 60 0 
C 0 70 0 
C 10 70 0 
C 20 70 0 
C 30 70 0 
C 40 70 0 
C 50 70 0 
C 60 70 0 
C 70 70 0 
C 80 70 0 
C 90 70 0 
C 100 70 0 
C 0 80 0 
C 10 80 0 
C 20 80 0 
C 30 80 0 
C 40 80 0 
C 50 80 0 
C 60 80 0 
C 70 80 0 
C 80 80 0 
C 90 80 0 
C 100 80 0 
C 0 90 0 
C 10 90 0 
C 20 90 0 
C 30 90 0 
C 40 90 0 
C 50 90 0 
C 60 90 0 
C 70 90 0 
C 80 90 0 
C 90 90 0 
C 100 90 0 
C 0 100 0 
C 10 100 0 
C 20 100 0 
C 30 100 0 
C 40 100 0 
C 50 100 0 
C 60 100 0 
C 70 100 0 
C 80 100 0 
C 90 100 0 
C 100 100 0 
O 67 0 0 
622
Atoms. Timestep: 27
N 87 11 0 
N 27 60 0 
N 24 75 0 
N 58 91 0 
N 27 18 0 
N 68 24 0 
N 76 70 0 
N 2 45 0 
N 6 46 0 
N 59 27 0 
N 83 66 0 
N 12 4 0 
N 67 30 0 
N 68 12 0 
N 92 89 0 
N 73 70 0 
N 62 81 0 
N 57 63 0 
N 25 26 0 
N 33 62 0 
N 9 85 0 
N 18 77 0 
N 4 2 0 
N 15 79 0 
N 89 25 0 
N 10 22 0 
N 86 75 0 
N 69 52 0 
N 71 96 0 
N 93 26 0 
N 84 4 0 
N 62 9 0 
N 15 16 0 
N 49 84 0 
N 63 73 0 
N 67 94 0 
N 15 83 0 
N 94 7 0 
N 89 72 0 
N 67 99 0 
N 82 98 0 
N 4 25 0 
N 72 19 0 
N 38 54 0 
N 13 90 0 
N 73 22 0 
N 68 18 0 
N 43 6 0 
N 30 68 0 
N 93 48 0 
N 24 21 0 
N 75 59 0 
N 91 72 0 
N 26 3 0 
N 67 4 0 
N 67 82 0 
N 98 4 0 
N 60 13 0 
N 77 6 0 
N 25 90 0 
N 8 40 0 
N 92 29 0 
N 30 59 0 
N 67 46 0 
N 67 24 0 
N 40 57 0 
N 68 71 0 
N 59 41 0 
N 87 70 0 
N 21 19 0 
N 25 16 0 
N 65 25 0 
N 27 39 0 
N 4 17 0 
N 14 19 0 
N 98 70 0 
N 19 72 0 
N 78 87 0 
N 63 67 0 
N 87 7 0 
N 5 22 0 
N 72 73 0 
N 0 68 0 
N 67 97 0 
N 9 21 0 
N 75 78 0 
N 67 5 0 
N 9 66 0 
N 72 66 0 
N 84 24 0 
N 38 17 0 
N 68 32 0 
N 35 15 0 
N 4 90 0 
N 5 42 0 
N 21 77 0 
N 54 82 0 
N 27 16 0 
N 59 86 0 
N 6 22 0 
N 32 58 0 
N 73 9 0 
N 74 45 0 
N 66 69 0 
N 73 74 0 
N 94 21 0 
N 76 96 0 
N 96 31 0 
N 7 28 0 
N 4 24 0 
N 41 98 0 
N 39 59 0 
N 5 54 0 
N 2 74 0 
N 71 54 0 
N 12 15 0 
N 84 49 0 
N 18 79 0 
N 32 15 0 
N 75 80 0 
N 16 81 0 
N 67 76 0 
N 88 95 0 
N 4 20 0 
N 93 70 0 
N 96 5 0 
N 68 6 0 
N 68 53 0 
N 20 64 0 
N 6 12 0 
N 32 63 0 
N 68 70 0 
N 6 21 0 
N 47 67 0 
N 66 94 0 
N 49 41 0 
N 98 2 0 
N 84 95 0 
N 64 93 0 
N 72 68 0 
N 78 50 0 
N 37 86 0 
N 22 73 0 
N 26 45 0 
N 35 50 0 
N 74 66 0 
N 20 78 0 
N 34 59 0 
N 81 2 0 
N 49 65 0 
N 35 53 0 
N 16 67 0 
N 6 71 0 
N 39 16 0 
N 69 89 0 
N 15 92 0 
N 2 42 0 
N 28 21 0 
N 68 77 0 
N 46 16 0 
N 68 57 0 
N 17 64 0 
N 11 18 0 
N 82 5 0 
N 6 72 0 
N 8 1 0 
N 18 15 0 
N 91 74 0 
N 7 78 0 
N 76 49 0 
N 5 31 0 
N 26 91 0 
N 7 31 0 
N 68 88 0 
N 8 14 0 
N 15 71 0 
N 31 54 0 
N 37 16 0 
N 93 32 0 
N 96 30 0 
N 84 11 0 
N 7 26 0 
N 72 76 0 
N 79 1 0 
N 63 11 0 
N 78 16 0 
N 79 86 0 
N 57 97 0 
N 65 94 0 
N 69 45 0 
N 96 39 0 
N 41 61 0 
N 92 73 0 
N 67 88 0 
N 98 28 0 
N 86 73 0 
N 15 28 0 
N 12 91 0 
N 62 72 0 
N 96 25 0 
N 20 72 0 
N 19 64 0 
N 0 73 0 
N 46 64 0 
N 5 71 0 
N 19 87 0 
N 10 2 0 
N 8 31 0 
N 82 21 0 
N 97 33 0 
N 36 62 0 
N 94 30 0 
N 68 80 0 
N 48 67 0 
N 18 5 0 
N 43 85 0 
N 47 71 0 
N 62 95 0 
N 73 16 0 
N 75 89 0 
N 88 21 0 
N 28 25 0 
N 16 68 0 
N 4 45 0 
N 49 72 0 
N 61 48 0 
N 9 91 0 
N 81 24 0 
N 13 26 0 
N 25 82 0 
N 4 14 0 
N 76 24 0 
N 53 85 0 
N 99 75 0 
N 59 9 0 
N 79 69 0 
N 51 68 0 
N 77 83 0 
N 75 26 0 
N 23 7 0 
N 80 64 0 
N 45 59 0 
N 4 72 0 
N 14 68 0 
N 97 39 0 
N 71 79 0 
N 73 6 0 
N 95 72 0 
N 13 19 0 
N 0 31 0 
N 46 91 0 
N 21 73 0 
N 5 86 0 
N 67 64 0 
N 19 83 0 
N 67 70 0 
N 91 22 0 
N 71 73 0 
N 92 24 0 
N 64 38 0 
N 46 93 0 
N 94 32 0 
N 82 2 0 
N 68 86 0 
N 68 31 0 
N 57 93 0 
N 66 2 0 
N 26 61 0 
N 52 85 0 
N 73 24 0 
N 67 36 0 
N 84 82 0 
N 0 74 0 
N 27 65 0 
N 28 57 0 
N 8 27 0 
N 8 17 0 
N 0 26 0 
N 20 17 0 
N 21 76 0 
N 67 75 0 
N 67 63 0 
N 86 76 0 
N 22 84 0 
N 4 66 0 
N 97 27 0 
N 99 71 0 
N 68 26 0 
N 21 36 0 
N 96 71 0 
N 80 32 0 
N 92 52 0 
N 77 23 0 
N 1 71 0 
N 73 75 0 
N 64 52 0 
N 29 19 0 
N 73 72 0 
N 68 55 0 
N 79 60 0 
N 16 19 0 
N 69 74 0 
N 6 26 0 
N 14 13 0 
N 76 64 0 
N 23 92 0 
N 17 67 0 
N 93 40 0 
N 6 16 0 
N 67 55 0 
N 20 6 0 
N 23 15 0 
N 25 61 0 
N 21 63 0 
N 10 8 0 
N 75 92 0 
N 48 81 0 
N 58 57 0 
N 53 87 0 
N 12 19 0 
N 16 16 0 
N 5 16 0 
N 83 30 0 
N 31 26 0 
N 90 43 0 
N 67 32 0 
N 60 23 0 
N 16 76 0 
N 17 70 0 
N 18 19 0 
N 5 25 0 
N 79 26 0 
N 94 43 0 
N 6 19 0 
N 51 81 0 
N 60 35 0 
N 98 88 0 
N 67 37 0 
N 73 53 0 
N 78 75 0 
N 60 73 0 
N 65 52 0 
N 86 97 0 
N 4 16 0 
N 44 86 0 
N 9 7 0 
N 25 50 0 
N 35 52 0 
N 68 56 0 
N 82 25 0 
N 1 25 0 
N 26 33 0 
N 62 63 0 
N 3 17 0 
N 2 26 0 
N 69 69 0 
N 9 13 0 
N 72 5 0 
N 33 69 0 
N 73 21 0 
N 28 74 0 
N 67 21 0 
N 81 89 0 
N 41 47 0 
N 93 7 0 
N 88 3 0 
N 62 13 0 
N 31 56 0 
N 69 50 0 
N 30 15 0 
N 68 85 0 
N 29 85 0 
N 65 6 0 
N 56 10 0 
N 31 79 0 
N 34 45 0 
N 79 8 0 
N 15 68 0 
N 9 28 0 
N 9 19 0 
N 91 35 0 
N 75 91 0 
N 96 1 0 
N 6 65 0 
N 27 82 0 
N 15 89 0 
N 57 53 0 
N 67 8 0 
N 29 63 0 
N 71 69 0 
N 5 47 0 
N 68 0 0 
N 65 28 0 
N 21 87 0 
N 24 37 0 
N 92 74 0 
N 32 5 0 
N 68 51 0 
N 34 54 0 
N 79 96 0 
N 53 91 0 
N 67 3 0 
N 6 23 0 
N 26 81 0 
N 41 94 0 
N 37 70 0 
N 21 15 0 
N 70 36 0 
N 4 1 0 
N 62 10 0 
N 6 77 0 
N 72 72 0 
N 53 72 0 
N 17 72 0 
N 7 16 0 
N 91 46 0 
N 27 68 0 
N 68 73 0 
N 30 18 0 
N 67 2 0 
N 71 21 0 
N 98 0 0 
N 59 89 0 
N 6 28 0 
N 67 72 0 
N 51 39 0 
N 90 3 0 
N 89 41 0 
N 67 17 0 
N 91 39 0 
N 36 30 0 
N 23 96 0 
N 16 90 0 
N 68 8 0 
N 84 3 0 
N 87 72 0 
N 30 25 0 
N 13 29 0 
N 97 78 0 
N 62 5 0 
N 85 26 0 
N 9 17 0 
N 22 88 0 
N 95 3 0 
N 54 86 0 
N 86 85 0 
N 78 86 0 
N 67 84 0 
N 80 22 0 
N 66 83 0 
N 18 65 0 
N 83 20 0 
N 67 59 0 
N 77 20 0 
N 2 67 0 
N 81 32 0 
N 20 68 0 
N 7 13 0 
N 62 27 0 
N 56 31 0 
N 21 84 0 
N 44 7 0 
N 22 89 0 
N 43 65 0 
N 76 21 0 
N 68 34 0 
N 33 86 0 
N 90 51 0 
N 44 79 0 
N 68 82 0 
N 22 22 0 
N 67 6 0 
N 24 30 0 
N 5 27 0 
N 72 8 0 
N 75 23 0 
N 57 55 0 
N 90 32 0 
N 93 36 0 
N 69 71 0 
N 27 83 0 
N 71 5 0 
N 57 10 0 
N 44 83 0 
N 67 27 0 
N 37 66 0 
N 54 8 0 
N 53 90 0 
N 57 58 0 
N 92 4 0 
N 67 62 0 
N 67 29 0 
N 74 90 0 
N 11 21 0 
N 21 13 0 
N 67 56 0 
N 5 24 0 
N 12 81 0 
N 52 10 0 
N 31 69 0 
C 0 0 0 
C 10 0 0 
C 20 0 0 
C 30 0 0 
C 40 0 0 
C 50 0 0 
C 60 0 0 
C 70 0 0 
C 80 0 0 
C 90 0 0 
C 100 0 0 
C 0 10 0 
C 10 10 0 
C 20 10 0 
C 30 10 0 
C 40 10 0 
C 50 10 0 
C 60 10 0 
C 70 10 0 
C 80 10 0 
C 90 10 0 
C 100 10 0 
C 0 20 0 
C 10 20 0 
C 20 20 0 
C 30 20 0 
C 40 20 0 
C 50 20 0 
C 60 20 0 
C 70 20 0 
C 80 20 0 
C 90 20 0 
C 100 20 0 
C 0 30 0 
C 10 30 0 
C 20 30 0 
C 30 30 0 
C 40 30 0 
C 50 30 0 
C 60 30 0 
C 70 30 0 
C 80 30 0 
C 90 30 0 
C 100 30 0 
C 0 40 0 
C 10 40 0 
C 20 40 0 
C 30 40 0 
C 40 40 0 
C 50 40 0 
C 60 40 0 
C 70 40 0 
C 80 40 0 
C 90 40 0 
C 100 40 0 
C 0 50 0 
C 10 50 0 
C 20 50 0 
C 30 50 0 
C 40 50 0 
C 50 50 0 
C 60 50 0 
C 70 50 0 
C 80 50 0 
C 90 50 0 
C 100 50 0 
C 0 60 0 
C 10 60 0 
C 20 60 0 
C 30 60 0 
C 40 60 0 
C 50 60 0 
C 60 60 0 
C 70 60 0 
C 80 60 0 
C 90 60 0 
C 100 60 0 
C 0 70 0 
C 10 70 0 
C 20 70 0 
C 30 70 0 
C 40 70 0 
C 50 70 0 
C 60 70 0 
C 70 70 0 
C 80 70 0 
C 90 70 0 
C 100 70 0 
C 0 80 0 
C 10 80 0 
C 20 80 0 
C 30 80 0 
C 40 80 0 
C 50 80 0 
C 60 80 0 
C 70 80 0 
C 80 80 0 
C 90 80 0 
C 100 80 0 
C 0 90 0 
C 10 90 0 
C 20 90 0 
C 30 90 0 
C 40 90 0 
C 50 90 0 
C 60 90 0 
C 70 90 0 
C 80 90 0 
C 90 90 0 
C 100 90 0 
C 0 100 0 
C 10 100 0 
C 20 100 0 
C 30 100 0 
C 40 100 0 
C 50 100 0 
C 60 100 0 
C 70 100 0 
C 80 100 0 
C 90 100 0 
C 100 100 0 
O 66 0 0 
622
Atoms. Timestep: 28
N 87 10 0 
N 28 60 0 
N 24 76 0 
N 58 90 0 
N 27 19 0 
N 68 23 0 
N 75 70 0 
N 1 45 0 
N 5 46 0 
N 60 27 0 
N 84 66 0 
N 13 4 0 
N 67 29 0 
N 68 11 0 
N 92 88 0 
N 72 70 0 
N 62 80 0 
N 58 63 0 
N 25 25 0 
N 33 63 0 
N 9 86 0 
N 17 77 0 
N 4 1 0 
N 15 80 0 
N 89 24 0 
N 9 22 0 
N 85 75 0 
N 69 53 0 
N 71 95 0 
N 92 26 0 
N 84 3 0 
N 63 9 0 
N 16 16 0 
N 48 84 0 
N 64 73 0 
N 67 93 0 
N 15 84 0 
N 93 7 0 
N 89 71 0 
N 67 98 0 
N 81 98 0 
N 5 25 0 
N 72 18 0 
N 39 54 0 
N 12 90 0 
N 73 21 0 
N 68 17 0 
N 43 5 0 
N 30 69 0 
N 93 47 0 
N 24 20 0 
N 75 58 0 
N 91 73 0 
N 26 2 0 
N 67 3 0 
N 67 81 0 
N 98 3 0 
N 61 13 0 
N 77 5 0 
N 25 89 0 
N 9 40 0 
N 93 29 0 
N 30 58 0 
N 66 46 0 
N 66 24 0 
N 41 57 0 
N 68 70 0 
N 60 41 0 
N 87 69 0 
N 21 20 0 
N 26 16 0 
N 66 25 0 
N 28 39 0 
N 3 17 0 
N 14 20 0 
N 97 70 0 
N 18 72 0 
N 78 86 0 
N 64 67 0 
N 86 7 0 
N 6 22 0 
N 71 73 0 
N 0 69 0 
N 66 97 0 
N 9 20 0 
N 74 78 0 
N 66 5 0 
N 9 65 0 
N 71 66 0 
N 83 24 0 
N 38 16 0 
N 67 32 0 
N 35 16 0 
N 5 90 0 
N 6 42 0 
N 22 77 0 
N 54 81 0 
N 27 17 0 
N 59 85 0 
N 6 23 0 
N 32 57 0 
N 73 8 0 
N 73 45 0 
N 66 68 0 
N 73 73 0 
N 93 21 0 
N 75 96 0 
N 95 31 0 
N 8 28 0 
N 4 23 0 
N 42 98 0 
N 39 60 0 
N 5 53 0 
N 2 73 0 
N 72 54 0 
N 12 16 0 
N 85 49 0 
N 18 78 0 
N 33 15 0 
N 74 80 0 
N 15 81 0 
N 67 75 0 
N 88 94 0 
N 5 20 0 
N 92 70 0 
N 96 4 0 
N 67 6 0 
N 67 53 0 
N 21 64 0 
N 6 11 0 
N 32 62 0 
N 67 70 0 
N 7 21 0 
N 48 67 0 
N 66 93 0 
N 49 42 0 
N 98 1 0 
N 84 94 0 
N 64 92 0 
N 72 67 0 
N 79 50 0 
N 37 85 0 
N 21 73 0 
N 26 44 0 
N 35 49 0 
N 73 66 0 
N 19 78 0 
N 34 60 0 
N 80 2 0 
N 49 64 0 
N 36 53 0 
N 16 68 0 
N 5 71 0 
N 40 16 0 
N 69 88 0 
N 16 92 0 
N 1 42 0 
N 29 21 0 
N 68 76 0 
N 47 16 0 
N 68 56 0 
N 17 63 0 
N 12 18 0 
N 82 4 0 
N 6 73 0 
N 8 0 0 
N 18 14 0 
N 90 74 0 
N 6 78 0 
N 75 49 0 
N 4 31 0 
N 27 91 0 
N 6 31 0 
N 67 88 0 
N 7 14 0 
N 15 72 0 
N 30 54 0 
N 37 15 0 
N 92 32 0 
N 97 30 0 
N 83 11 0 
N 6 26 0 
N 71 76 0 
N 79 0 0 
N 64 11 0 
N 77 16 0 
N 79 85 0 
N 58 97 0 
N 65 93 0 
N 69 44 0 
N 97 39 0 
N 40 61 0 
N 93 73 0 
N 66 88 0 
N 98 29 0 
N 85 73 0 
N 15 27 0 
N 12 92 0 
N 62 71 0 
N 96 26 0 
N 20 73 0 
N 19 65 0 
N 0 72 0 
N 46 65 0 
N 4 71 0 
N 19 88 0 
N 11 2 0 
N 8 30 0 
N 82 20 0 
N 97 34 0 
N 36 63 0 
N 95 30 0 
N 67 80 0 
N 48 68 0 
N 18 6 0 
N 43 84 0 
N 47 70 0 
N 62 94 0 
N 73 15 0 
N 75 88 0 
N 88 20 0 
N 28 24 0 
N 17 68 0 
N 4 44 0 
N 49 71 0 
N 61 49 0 
N 9 90 0 
N 80 24 0 
N 13 27 0 
N 24 82 0 
N 3 14 0 
N 75 24 0 
N 53 84 0 
N 99 74 0 
N 60 9 0 
N 78 69 0 
N 51 67 0 
N 77 82 0 
N 75 25 0 
N 24 7 0 
N 80 63 0 
N 45 58 0 
N 5 72 0 
N 13 68 0 
N 97 40 0 
N 70 79 0 
N 73 5 0 
N 95 73 0 
N 12 19 0 
N 99 31 0 
N 46 90 0 
N 21 72 0 
N 5 85 0 
N 67 63 0 
N 20 83 0 
N 67 69 0 
N 91 21 0 
N 70 73 0 
N 91 24 0 
N 65 38 0 
N 46 92 0 
N 94 31 0 
N 82 1 0 
N 67 86 0 
N 68 30 0 
N 58 93 0 
N 66 1 0 
N 26 62 0 
N 52 84 0 
N 73 23 0 
N 66 36 0 
N 84 81 0 
N 0 75 0 
N 26 65 0 
N 28 56 0 
N 7 27 0 
N 8 18 0 
N 1 26 0 
N 19 17 0 
N 21 75 0 
N 67 74 0 
N 67 62 0 
N 85 76 0 
N 22 83 0 
N 4 65 0 
N 97 28 0 
N 98 71 0 
N 67 26 0 
N 22 36 0 
N 95 71 0 
N 79 32 0 
N 92 53 0 
N 76 23 0 
N 2 71 0 
N 72 75 0 
N 65 52 0 
N 30 19 0 
N 73 71 0 
N 67 55 0 
N 79 61 0 
N 16 20 0 
N 69 73 0 
N 6 25 0 
N 13 13 0 
N 76 63 0 
N 23 91 0 
N 17 66 0 
N 94 40 0 
N 6 17 0 
N 67 54 0 
N 21 6 0 
N 23 14 0 
N 25 62 0 
N 21 62 0 
N 10 7 0 
N 75 91 0 
N 49 81 0 
N 59 57 0 
N 53 86 0 
N 11 19 0 
N 16 15 0 
N 4 16 0 
N 83 29 0 
N 32 26 0 
N 89 43 0 
N 67 31 0 
N 60 22 0 
N 16 75 0 
N 17 69 0 
N 17 19 0 
N 5 26 0 
N 79 25 0 
N 94 44 0 
N 5 19 0 
N 51 80 0 
N 61 35 0 
N 98 87 0 
N 66 37 0 
N 72 53 0 
N 78 74 0 
N 60 72 0 
N 65 51 0 
N 86 96 0 
N 4 15 0 
N 45 86 0 
N 9 6 0 
N 26 50 0 
N 35 51 0 
N 67 56 0 
N 81 25 0 
N 0 25 0 
N 26 34 0 
N 62 62 0 
N 3 16 0 
N 3 26 0 
N 68 69 0 
N 9 14 0 
N 72 4 0 
N 34 69 0 
N 73 20 0 
N 28 75 0 
N 67 20 0 
N 81 88 0 
N 42 47 0 
N 92 7 0 
N 88 2 0 
N 62 12 0 
N 31 55 0 
N 68 50 0 
N 31 15 0 
N 68 84 0 
N 30 85 0 
N 65 5 0 
N 57 10 0 
N 31 80 0 
N 35 45 0 
N 79 7 0 
N 15 67 0 
N 10 28 0 
N 8 19 0 
N 91 36 0 
N 75 90 0 
N 95 1 0 
N 5 65 0 
N 28 82 0 
N 16 89 0 
N 58 53 0 
N 67 7 0 
N 28 63 0 
N 70 69 0 
N 4 47 0 
N 67 0 0 
N 64 28 0 
N 21 86 0 
N 25 37 0 
N 93 74 0 
N 33 5 0 
N 68 52 0 
N 33 54 0 
N 78 96 0 
N 52 91 0 
N 67 2 0 
N 7 23 0 
N 25 81 0 
N 41 93 0 
N 37 71 0 
N 20 15 0 
N 70 35 0 
N 4 0 0 
N 63 10 0 
N 7 77 0 
N 71 72 0 
N 54 72 0 
N 17 73 0 
N 7 15 0 
N 90 46 0 
N 26 68 0 
N 67 73 0 
N 29 18 0 
N 67 1 0 
N 70 21 0 
N 97 0 0 
N 60 89 0 
N 6 29 0 
N 67 71 0 
N 51 38 0 
N 89 3 0 
N 90 41 0 
N 67 16 0 
N 90 39 0 
N 37 30 0 
N 23 95 0 
N 17 90 0 
N 68 7 0 
N 83 3 0 
N 87 71 0 
N 29 25 0 
N 14 29 0 
N 96 78 0 
N 62 4 0 
N 84 26 0 
N 9 18 0 
N 22 87 0 
N 94 3 0 
N 54 85 0 
N 86 84 0 
N 78 85 0 
N 67 83 0 
N 79 22 0 
N 66 82 0 
N 18 64 0 
N 83 19 0 
N 66 59 0 
N 77 19 0 
N 3 67 0 
N 81 31 0 
N 21 68 0 
N 8 13 0 
N 62 26 0 
N 56 30 0 
N 21 83 0 
N 45 7 0 
N 22 90 0 
N 43 64 0 
N 76 20 0 
N 68 33 0 
N 34 86 0 
N 90 52 0 
N 44 78 0 
N 68 81 0 
N 23 22 0 
N 66 6 0 
N 25 30 0 
N 5 28 0 
N 72 7 0 
N 75 22 0 
N 57 56 0 
N 91 32 0 
N 93 35 0 
N 69 70 0 
N 26 83 0 
N 70 5 0 
N 58 10 0 
N 44 82 0 
N 66 27 0 
N 36 66 0 
N 54 7 0 
N 53 89 0 
N 57 59 0 
N 92 3 0 
N 66 62 0 
N 67 28 0 
N 74 89 0 
N 12 21 0 
N 21 12 0 
N 66 56 0 
N 5 23 0 
N 12 82 0 
N 53 10 0 
N 31 70 0 
C 0 0 0 
C 10 0 0 
C 20 0 0 
C 30 0 0 
C 40 0 0 
C 50 0 0 
C 60 0 0 
C 70 0 0 
C 80 0 0 
C 90 0 0 
C 100 0 0 
C 0 10 0 
C 10 10 0 
C 20 10 0 
C 30 10 0 
C 40 10 0 
C 50 10 0 
C 60 10 0 
C 70 10 0 
C 80 10 0 
C 90 10 0 
C 100 10 0 
C 0 20 0 
C 10 20 0 
C 20 20 0 
C 30 20 0 
C 40 20 0 
C 50 20 0 
C 60 20 0 
C 70 20 0 
C 80 20 0 
C 90 20 0 
C 100 20 0 
C 0 30 0 
C 10 30 0 
C 20 30 0 
C 30 30 0 
C 40 30 0 
C 50 30 0 
C 60 30 0 
C 70 30 0 
C 80 30 0 
C 90 30 0 
C 100 30 0 
C 0 40 0 
C 10 40 0 
C 20 40 0 
C 30 40 0 
C 40 40 0 
C 50 40 0 
C 60 40 0 
C 70 40 0 
C 80 40 0 
C 90 40 0 
C 100 40 0 
C 0 50 0 
C 10 50 0 
C 20 50 0 
C 30 50 0 
C 40 50 0 
C 50 50 0 
C 60 50 0 
C 70 50 0 
C 80 50 0 
C 90 50 0 
C 100 50 0 
C 0 60 0 
C 10 60 0 
C 20 60 0 
C 30 60 0 
C 40 60 0 
C 50 60 0 
C 60 60 0 
C 70 60 0 
C 80 60 0 
C 90 60 0 
C 100 60 0 
C 0 70 0 
C 10 70 0 
C 20 70 0 
C 30 70 0 
C 40 70 0 
C 50 70 0 
C 60 70 0 
C 70 70 0 
C 80 70 0 
C 90 70 0 
C 100 70 0 
C 0 80 0 
C 10 80 0 
C 20 80 0 
C 30 80 0 
C 40 80 0 
C 50 80 0 
C 60 80 0 
C 70 80 0 
C 80 80 0 
C 90 80 0 
C 100 80 0 
C 0 90 0 
C 10 90 0 
C 20 90 0 
C 30 90 0 
C 40 90 0 
C 50 90 0 
C 60 90 0 
C 70 90 0 
C 80 90 0 
C 90 90 0 
C 100 90 0 
C 0 100 0 
C 10 100 0 
C 20 100 0 
C 30 100 0 
C 40 100 0 
C 50 100 0 
C 60 100 0 
C 70 100 0 
C 80 100 0 
C 90 100 0 
C 100 100 0 
O 65 0 0 
622
Atoms. Timestep: 29
N 87 9 0 
N 27 60 0 
N 24 75 0 
N 58 89 0 
N 26 19 0 
N 67 23 0 
N 75 69 0 
N 2 45 0 
N 4 46 0 
N 61 27 0 
N 84 65 0 
N 14 4 0 
N 66 29 0 
N 68 10 0 
N 91 88 0 
N 72 69 0 
N 62 79 0 
N 58 62 0 
N 25 24 0 
N 33 64 0 
N 9 87 0 
N 17 76 0 
N 5 1 0 
N 15 81 0 
N 89 23 0 
N 8 22 0 
N 85 74 0 
N 68 53 0 
N 70 95 0 
N 93 26 0 
N 83 3 0 
N 63 8 0 
N 16 17 0 
N 48 83 0 
N 64 72 0 
N 66 93 0 
N 14 84 0 
N 93 6 0 
N 89 72 0 
N 67 97 0 
N 81 97 0 
N 5 26 0 
N 72 17 0 
N 39 53 0 
N 12 91 0 
N 72 21 0 
N 68 16 0 
N 43 4 0 
N 30 68 0 
N 94 47 0 
N 24 21 0 
N 74 58 0 
N 91 72 0 
N 26 1 0 
N 66 3 0 
N 67 80 0 
N 98 2 0 
N 62 13 0 
N 77 4 0 
N 25 90 0 
N 8 40 0 
N 94 29 0 
N 30 57 0 
N 65 46 0 
N 66 23 0 
N 42 57 0 
N 67 70 0 
N 61 41 0 
N 87 68 0 
N 22 20 0 
N 27 16 0 
N 65 25 0 
N 28 40 0 
N 3 16 0 
N 14 19 0 
N 97 69 0 
N 19 72 0 
N 77 86 0 
N 65 67 0 
N 85 7 0 
N 6 21 0 
N 71 72 0 
N 99 69 0 
N 65 97 0 
N 9 21 0 
N 73 78 0 
N 66 4 0 
N 9 66 0 
N 71 65 0 
N 83 23 0 
N 38 15 0 
N 66 32 0 
N 36 16 0 
N 5 89 0 
N 6 41 0 
N 22 76 0 
N 55 81 0 
N 26 17 0 
N 59 84 0 
N 5 23 0 
N 32 58 0 
N 72 8 0 
N 73 44 0 
N 66 67 0 
N 73 72 0 
N 92 21 0 
N 75 95 0 
N 95 32 0 
N 9 28 0 
N 4 24 0 
N 42 97 0 
N 39 59 0 
N 5 54 0 
N 2 72 0 
N 71 54 0 
N 13 16 0 
N 85 48 0 
N 18 79 0 
N 34 15 0 
N 73 80 0 
N 14 81 0 
N 67 74 0 
N 87 94 0 
N 6 20 0 
N 93 70 0 
N 95 4 0 
N 66 6 0 
N 66 53 0 
N 20 64 0 
N 6 10 0 
N 32 61 0 
N 66 70 0 
N 7 22 0 
N 49 67 0 
N 66 92 0 
N 48 42 0 
N 97 1 0 
N 84 93 0 
N 64 91 0 
N 72 66 0 
N 78 50 0 
N 38 85 0 
N 22 73 0 
N 26 45 0 
N 34 49 0 
N 73 65 0 
N 20 78 0 
N 34 59 0 
N 79 2 0 
N 48 64 0 
N 36 54 0 
N 17 68 0 
N 5 72 0 
N 41 16 0 
N 69 87 0 
N 17 92 0 
N 1 43 0 
N 29 20 0 
N 68 75 0 
N 48 16 0 
N 68 55 0 
N 17 64 0 
N 12 19 0 
N 81 4 0 
N 6 72 0 
N 9 0 0 
N 18 15 0 
N 90 73 0 
N 6 77 0 
N 75 48 0 
N 5 31 0 
N 27 90 0 
N 7 31 0 
N 67 87 0 
N 6 14 0 
N 15 73 0 
N 29 54 0 
N 37 14 0 
N 92 31 0 
N 98 30 0 
N 83 10 0 
N 6 27 0 
N 72 76 0 
N 78 0 0 
N 63 11 0 
N 77 15 0 
N 78 85 0 
N 58 96 0 
N 65 92 0 
N 68 44 0 
N 98 39 0 
N 40 62 0 
N 92 73 0 
N 66 87 0 
N 97 29 0 
N 84 73 0 
N 15 26 0 
N 11 92 0 
N 63 71 0 
N 96 27 0 
N 19 73 0 
N 20 65 0 
N 1 72 0 
N 45 65 0 
N 4 70 0 
N 18 88 0 
N 11 1 0 
N 9 30 0 
N 81 20 0 
N 97 33 0 
N 36 62 0 
N 96 30 0 
N 67 79 0 
N 49 68 0 
N 18 7 0 
N 43 83 0 
N 47 69 0 
N 62 93 0 
N 72 15 0 
N 75 87 0 
N 87 20 0 
N 28 25 0 
N 17 69 0 
N 5 44 0 
N 49 70 0 
N 61 50 0 
N 9 89 0 
N 80 23 0 
N 14 27 0 
N 23 82 0 
N 4 14 0 
N 74 24 0 
N 53 83 0 
N 98 74 0 
N 60 8 0 
N 77 69 0 
N 52 67 0 
N 77 81 0 
N 74 25 0 
N 24 6 0 
N 79 63 0 
N 44 58 0 
N 5 73 0 
N 13 69 0 
N 96 40 0 
N 69 79 0 
N 73 4 0 
N 94 73 0 
N 13 19 0 
N 0 31 0 
N 47 90 0 
N 22 72 0 
N 4 85 0 
N 67 62 0 
N 20 84 0 
N 66 69 0 
N 90 21 0 
N 69 73 0 
N 92 24 0 
N 66 38 0 
N 46 91 0 
N 94 30 0 
N 82 0 0 
N 66 86 0 
N 68 29 0 
N 58 92 0 
N 65 1 0 
N 25 62 0 
N 52 83 0 
N 72 23 0 
N 65 36 0 
N 83 81 0 
N 1 75 0 
N 26 66 0 
N 28 57 0 
N 7 28 0 
N 8 17 0 
N 2 26 0 
N 18 17 0 
N 21 74 0 
N 66 74 0 
N 66 62 0 
N 85 77 0 
N 22 82 0 
N 3 65 0 
N 97 27 0 
N 98 72 0 
N 67 25 0 
N 21 36 0 
N 95 70 0 
N 79 31 0 
N 92 54 0 
N 75 23 0 
N 2 70 0 
N 72 74 0 
N 65 51 0 
N 29 19 0 
N 73 70 0 
N 67 54 0 
N 79 62 0 
N 15 20 0 
N 69 72 0 
N 6 24 0 
N 14 13 0 
N 76 62 0 
N 24 91 0 
N 16 66 0 
N 93 40 0 
N 6 18 0 
N 66 54 0 
N 22 6 0 
N 23 13 0 
N 25 61 0 
N 22 62 0 
N 9 7 0 
N 75 90 0 
N 49 80 0 
N 59 56 0 
N 53 85 0 
N 11 20 0 
N 17 15 0 
N 4 17 0 
N 83 28 0 
N 33 26 0 
N 90 43 0 
N 66 31 0 
N 59 22 0 
N 15 75 0 
N 18 69 0 
N 18 19 0 
N 5 27 0 
N 79 24 0 
N 93 44 0 
N 4 19 0 
N 51 79 0 
N 62 35 0 
N 98 86 0 
N 65 37 0 
N 72 52 0 
N 78 73 0 
N 60 71 0 
N 65 50 0 
N 86 95 0 
N 3 15 0 
N 45 85 0 
N 10 6 0 
N 27 50 0 
N 36 51 0 
N 66 56 0 
N 81 24 0 
N 1 25 0 
N 25 34 0 
N 63 62 0 
N 2 16 0 
N 4 26 0 
N 68 68 0 
N 9 15 0 
N 72 3 0 
N 34 68 0 
N 72 20 0 
N 28 76 0 
N 67 19 0 
N 80 88 0 
N 41 47 0 
N 91 7 0 
N 88 1 0 
N 62 11 0 
N 32 55 0 
N 67 50 0 
N 31 14 0 
N 68 83 0 
N 30 84 0 
N 65 4 0 
N 58 10 0 
N 31 79 0 
N 35 46 0 
N 78 7 0 
N 14 67 0 
N 10 27 0 
N 8 20 0 
N 92 36 0 
N 74 90 0 
N 94 1 0 
N 5 66 0 
N 29 82 0 
N 16 90 0 
N 58 54 0 
N 66 7 0 
N 28 62 0 
N 70 68 0 
N 5 47 0 
N 66 0 0 
N 65 28 0 
N 21 85 0 
N 26 37 0 
N 94 74 0 
N 34 5 0 
N 69 52 0 
N 32 54 0 
N 77 96 0 
N 52 90 0 
N 66 2 0 
N 7 24 0 
N 25 80 0 
N 42 93 0 
N 36 71 0 
N 20 14 0 
N 70 34 0 
N 5 0 0 
N 64 10 0 
N 7 78 0 
N 71 71 0 
N 55 72 0 
N 16 73 0 
N 7 16 0 
N 89 46 0 
N 26 67 0 
N 67 72 0 
N 28 18 0 
N 67 1 0 
N 69 21 0 
N 96 0 0 
N 59 89 0 
N 6 30 0 
N 66 71 0 
N 51 37 0 
N 88 3 0 
N 89 41 0 
N 67 15 0 
N 89 39 0 
N 38 30 0 
N 23 94 0 
N 17 89 0 
N 68 6 0 
N 82 3 0 
N 88 71 0 
N 29 24 0 
N 15 29 0 
N 96 79 0 
N 63 4 0 
N 84 25 0 
N 10 18 0 
N 23 87 0 
N 93 3 0 
N 54 84 0 
N 85 84 0 
N 78 84 0 
N 67 82 0 
N 78 22 0 
N 65 82 0 
N 18 63 0 
N 82 19 0 
N 66 58 0 
N 77 20 0 
N 3 66 0 
N 81 30 0 
N 22 68 0 
N 9 13 0 
N 62 25 0 
N 56 29 0 
N 21 84 0 
N 46 7 0 
N 21 90 0 
N 44 64 0 
N 76 19 0 
N 69 33 0 
N 34 85 0 
N 90 53 0 
N 45 78 0 
N 68 80 0 
N 23 23 0 
N 65 6 0 
N 26 30 0 
N 5 29 0 
N 71 7 0 
N 74 22 0 
N 57 55 0 
N 90 32 0 
N 94 35 0 
N 69 69 0 
N 26 84 0 
N 70 4 0 
N 58 9 0 
N 44 81 0 
N 66 26 0 
N 37 66 0 
N 54 6 0 
N 53 88 0 
N 57 58 0 
N 92 2 0 
N 66 61 0 
N 67 27 0 
N 73 89 0 
N 12 20 0 
N 21 11 0 
N 66 55 0 
N 5 24 0 
N 12 83 0 
N 54 10 0 
N 31 71 0 
C 0 0 0 
C 10 0 0 
C 20 0 0 
C 30 0 0 
C 40 0 0 
C 50 0 0 
C 60 0 0 
C 70 0 0 
C 80 0 0 
C 90 0 0 
C 100 0 0 
C 0 10 0 
C 10 10 0 
C 20 10 0 
C 30 10 0 
C 40 10 0 
C 50 10 0 
C 60 10 0 
C 70 10 0 
C 80 10 0 
C 90 10 0 
C 100 10 0 
C 0 20 0 
C 10 20 0 
C 20 20 0 
C 30 20 0 
C 40 20 0 
C 50 20 0 
C 60 20 0 
C 70 20 0 
C 80 20 0 
C 90 20 0 
C 100 20 0 
C 0 30 0 
C 10 30 0 
C 20 30 0 
C 30 30 0 
C 40 30 0 
C 50 30 0 
C 60 30 0 
C 70 30 0 
C 80 30 0 
C 90 30 0 
C 100 30 0 
C 0 40 0 
C 10 40 0 
C 20 40 0 
C 30 40 0 
C 40 40 0 
C 50 40 0 
C 60 40 0 
C 70 40 0 
C 80 40 0 
C 90 40 0 
C 100 40 0 
C 0 50 0 
C 10 50 0 
C 20 50 0 
C 30 50 0 
C 40 50 0 
C 50 50 0 
C 60 50 0 
C 70 50 0 
C 80 50 0 
C 90 50 0 
C 100 50 0 
C 0 60 0 
C 10 60 0 
C 20 60 0 
C 30 60 0 
C 40 60 0 
C 50 60 0 
C 60 60 0 
C 70 60 0 
C 80 60 0 
C 90 60 0 
C 100 60 0 
C 0 70 0 
C 10 70 0 
C 20 70 0 
C 30 70 0 
C 40 70 0 
C 50 70 0 
C 60 70 0 
C 70 70 0 
C 80 70 0 
C 90 70 0 
C 100 70 0 
C 0 80 0 
C 10 80 0 
C 20 80 0 
C 30 80 0 
C 40 80 0 
C 50 80 0 
C 60 80 0 
C 70 80 0 
C 80 80 0 
C 90 80 0 
C 100 80 0 
C 0 90 0 
C 10 90 0 
C 20 90 0 
C 30 90 0 
C 40 90 0 
C 50 90 0 
C 60 90 0 
C 70 90 0 
C 80 90 0 
C 90 90 0 
C 100 90 0 
C 0 100 0 
C 10 100 0 
C 20 100 0 
C 30 100 0 
C 40 100 0 
C 50 100 0 
C 60 100 0 
C 70 100 0 
C 80 100 0 
C 90 100 0 
C 100 100 0 
O 65 99 0 
622
Atoms. Timestep: 30
N 86 9 0 
N 27 59 0 
N 24 74 0 
N 58 90 0 
N 26 18 0 
N 66 23 0 
N 74 69 0 
N 3 45 0 
N 4 45 0 
N 62 27 0 
N 84 64 0 
N 14 5 0 
N 66 30 0 
N 68 11 0 
N 91 89 0 
N 71 69 0 
N 62 80 0 
N 59 62 0 
N 24 24 0 
N 32 64 0 
N 9 86 0 
N 17 75 0 
N 5 0 0 
N 15 80 0 
N 89 24 0 
N 8 23 0 
N 85 75 0 
N 67 53 0 
N 69 95 0 
N 93 25 0 
N 83 4 0 
N 63 9 0 
N 15 17 0 
N 48 84 0 
N 65 72 0 
N 66 94 0 
N 14 83 0 
N 93 7 0 
N 89 73 0 
N 66 97 0 
N 82 97 0 
N 6 26 0 
N 71 17 0 
N 40 53 0 
N 12 90 0 
N 71 21 0 
N 68 17 0 
N 43 5 0 
N 30 69 0 
N 95 47 0 
N 24 22 0 
N 74 59 0 
N 92 72 0 
N 26 2 0 
N 65 3 0 
N 66 80 0 
N 98 3 0 
N 62 14 0 
N 77 5 0 
N 26 90 0 
N 7 40 0 
N 94 28 0 
N 29 57 0 
N 65 47 0 
N 65 23 0 
N 42 58 0 
N 67 71 0 
N 61 42 0 
N 88 68 0 
N 22 19 0 
N 27 15 0 
N 65 25 0 
N 28 39 0 
N 4 16 0 
N 14 18 0 
N 97 68 0 
N 19 73 0 
N 77 87 0 
N 65 68 0 
N 85 8 0 
N 7 21 0 
N 70 72 0 
N 99 68 0 
N 65 98 0 
N 9 20 0 
N 72 78 0 
N 66 5 0 
N 8 66 0 
N 70 65 0 
N 83 24 0 
N 38 16 0 
N 66 33 0 
N 37 16 0 
N 6 89 0 
N 7 41 0 
N 22 77 0 
N 56 81 0 
N 27 17 0 
N 59 85 0 
N 5 24 0 
N 32 59 0 
N 71 8 0 
N 72 44 0 
N 66 68 0 
N 72 72 0 
N 91 21 0 
N 75 96 0 
N 94 32 0 
N 9 27 0 
N 4 25 0 
N 43 97 0 
N 39 58 0 
N 6 54 0 
N 3 72 0 
N 72 54 0 
N 14 16 0 
N 86 48 0 
N 18 78 0 
N 33 15 0 
N 73 81 0 
N 14 82 0 
N 66 74 0 
N 86 94 0 
N 6 19 0 
N 93 71 0 
N 94 4 0 
N 65 6 0 
N 65 53 0 
N 19 64 0 
N 5 10 0 
N 32 60 0 
N 65 70 0 
N 7 23 0 
N 49 68 0 
N 65 92 0 
N 48 41 0 
N 96 1 0 
N 84 94 0 
N 64 92 0 
N 71 66 0 
N 79 50 0 
N 39 85 0 
N 22 74 0 
N 25 45 0 
N 33 49 0 
N 72 65 0 
N 20 79 0 
N 33 59 0 
N 79 3 0 
N 47 64 0 
N 36 55 0 
N 17 67 0 
N 6 72 0 
N 42 16 0 
N 68 87 0 
N 18 92 0 
N 0 43 0 
N 28 20 0 
N 67 75 0 
N 49 16 0 
N 67 55 0 
N 17 65 0 
N 12 18 0 
N 80 4 0 
N 6 73 0 
N 9 1 0 
N 17 15 0 
N 90 72 0 
N 6 78 0 
N 75 47 0 
N 5 30 0 
N 28 90 0 
N 7 32 0 
N 67 88 0 
N 7 14 0 
N 15 74 0 
N 29 55 0 
N 37 15 0 
N 91 31 0 
N 98 31 0 
N 83 11 0 
N 6 28 0 
N 72 77 0 
N 77 0 0 
N 63 12 0 
N 77 16 0 
N 78 86 0 
N 59 96 0 
N 65 93 0 
N 67 44 0 
N 97 39 0 
N 39 62 0 
N 91 73 0 
N 65 87 0 
N 97 30 0 
N 84 74 0 
N 16 26 0 
N 12 92 0 
N 63 72 0 
N 96 28 0 
N 20 73 0 
N 20 66 0 
N 1 73 0 
N 45 66 0 
N 4 69 0 
N 18 87 0 
N 11 2 0 
N 9 29 0 
N 81 21 0 
N 96 33 0 
N 36 63 0 
N 96 31 0 
N 66 79 0 
N 50 68 0 
N 18 8 0 
N 43 84 0 
N 47 70 0 
N 62 94 0 
N 71 15 0 
N 75 88 0 
N 86 20 0 
N 27 25 0 
N 17 70 0 
N 4 44 0 
N 48 70 0 
N 62 50 0 
N 9 90 0 
N 80 24 0 
N 14 28 0 
N 23 81 0 
N 5 14 0 
N 73 24 0 
N 54 83 0 
N 98 75 0 
N 59 8 0 
N 77 70 0 
N 52 68 0 
N 76 81 0 
N 73 25 0 
N 24 7 0 
N 79 64 0 
N 45 58 0 
N 4 73 0 
N 14 69 0 
N 96 39 0 
N 68 79 0 
N 73 5 0 
N 95 73 0 
N 13 18 0 
N 99 31 0 
N 47 91 0 
N 22 71 0 
N 4 84 0 
N 66 62 0 
N 19 84 0 
N 65 69 0 
N 90 22 0 
N 68 73 0 
N 92 25 0 
N 66 39 0 
N 46 92 0 
N 94 31 0 
N 81 0 0 
N 65 86 0 
N 68 30 0 
N 58 93 0 
N 65 1 0 
N 24 62 0 
N 52 84 0 
N 72 24 0 
N 65 37 0 
N 82 81 0 
N 1 76 0 
N 27 66 0 
N 27 57 0 
N 8 28 0 
N 7 17 0 
N 3 26 0 
N 17 17 0 
N 21 75 0 
N 66 75 0 
N 66 63 0 
N 84 77 0 
N 22 81 0 
N 3 64 0 
N 98 27 0 
N 98 71 0 
N 66 25 0 
N 21 37 0 
N 95 71 0 
N 78 31 0 
N 91 54 0 
N 75 24 0 
N 3 70 0 
N 71 74 0 
N 65 52 0 
N 28 19 0 
N 72 70 0 
N 66 54 0 
N 79 61 0 
N 14 20 0 
N 68 72 0 
N 6 25 0 
N 13 13 0 
N 76 63 0 
N 24 92 0 
N 16 67 0 
N 94 40 0 
N 5 18 0 
N 66 55 0 
N 22 7 0 
N 24 13 0 
N 24 61 0 
N 21 62 0 
N 8 7 0 
N 74 90 0 
N 49 81 0 
N 59 57 0 
N 53 86 0 
N 11 19 0 
N 17 14 0 
N 3 17 0 
N 83 29 0 
N 33 25 0 
N 90 42 0 
N 65 31 0 
N 59 23 0 
N 14 75 0 
N 18 68 0 
N 19 19 0 
N 5 27 0 
N 79 25 0 
N 93 45 0 
N 5 19 0 
N 52 79 0 
N 62 36 0 
N 97 86 0 
N 65 38 0 
N 73 52 0 
N 77 73 0 
N 60 72 0 
N 65 50 0 
N 86 96 0 
N 4 15 0 
N 46 85 0 
N 9 6 0 
N 27 49 0 
N 37 51 0 
N 65 56 0 
N 81 25 0 
N 2 25 0 
N 25 35 0 
N 63 63 0 
N 2 15 0 
N 4 27 0 
N 67 68 0 
N 9 14 0 
N 71 3 0 
N 34 69 0 
N 71 20 0 
N 27 76 0 
N 66 19 0 
N 79 88 0 
N 41 48 0 
N 90 7 0 
N 88 2 0 
N 62 12 0 
N 32 56 0 
N 68 50 0 
N 31 15 0 
N 68 84 0 
N 30 85 0 
N 65 5 0 
N 59 10 0 
N 31 78 0 
N 34 46 0 
N 77 7 0 
N 14 66 0 
N 11 27 0 
N 7 20 0 
N 92 37 0 
N 73 90 0 
N 93 1 0 
N 5 65 0 
N 29 83 0 
N 16 91 0 
N 58 53 0 
N 66 8 0 
N 28 61 0 
N 71 68 0 
N 5 46 0 
N 66 1 0 
N 65 29 0 
N 20 85 0 
N 27 37 0 
N 94 75 0 
N 34 6 0 
N 69 51 0 
N 32 53 0 
N 76 96 0 
N 53 90 0 
N 65 2 0 
N 7 25 0 
N 24 80 0 
N 42 94 0 
N 37 71 0 
N 19 14 0 
N 70 35 0 
N 6 0 0 
N 65 10 0 
N 8 78 0 
N 70 71 0 
N 56 72 0 
N 16 72 0 
N 6 16 0 
N 89 45 0 
N 26 68 0 
N 67 73 0 
N 29 18 0 
N 67 2 0 
N 68 21 0 
N 95 0 0 
N 59 90 0 
N 7 30 0 
N 66 72 0 
N 50 37 0 
N 88 4 0 
N 89 42 0 
N 67 16 0 
N 89 38 0 
N 37 30 0 
N 24 94 0 
N 17 88 0 
N 67 6 0 
N 81 3 0 
N 88 72 0 
N 28 24 0 
N 15 30 0 
N 96 78 0 
N 64 4 0 
N 84 26 0 
N 9 18 0 
N 23 88 0 
N 93 4 0 
N 54 85 0 
N 84 84 0 
N 77 84 0 
N 67 83 0 
N 77 22 0 
N 65 83 0 
N 17 63 0 
N 81 19 0 
N 66 59 0 
N 77 21 0 
N 2 66 0 
N 81 31 0 
N 22 69 0 
N 10 13 0 
N 62 26 0 
N 56 30 0 
N 21 83 0 
N 47 7 0 
N 21 91 0 
N 44 63 0 
N 76 20 0 
N 68 33 0 
N 35 85 0 
N 90 52 0 
N 46 78 0 
N 68 81 0 
N 23 22 0 
N 65 7 0 
N 25 30 0 
N 5 28 0 
N 70 7 0 
N 74 23 0 
N 58 55 0 
N 91 32 0 
N 94 34 0 
N 68 69 0 
N 27 84 0 
N 69 4 0 
N 59 9 0 
N 45 81 0 
N 65 26 0 
N 37 67 0 
N 55 6 0 
N 54 88 0 
N 57 59 0 
N 92 3 0 
N 65 61 0 
N 66 27 0 
N 72 89 0 
N 13 20 0 
N 21 12 0 
N 65 55 0 
N 5 25 0 
N 11 83 0 
N 55 10 0 
N 31 70 0 
C 0 0 0 
C 10 0 0 
C 20 0 0 
C 30 0 0 
C 40 0 0 
C 50 0 0 
C 60 0 0 
C 70 0 0 
C 80 0 0 
C 90 0 0 
C 100 0 0 
C 0 10 0 
C 10 10 0 
C 20 10 0 
C 30 10 0 
C 40 10 0 
C 50 10 0 
C 60 10 0 
C 70 10 0 
C 80 10 0 
C 90 10 0 
C 100 10 0 
C 0 20 0 
C 10 20 0 
C 20 20 0 
C 30 20 0 
C 40 20 0 
C 50 20 0 
C 60 20 0 
C 70 20 0 
C 80 20 0 
C 90 20 0 
C 100 20 0 
C 0 30 0 
C 10 30 0 
C 20 30 0 
C 30 30 0 
C 40 30 0 
C 50 30 0 
C 60 30 0 
C 70 30 0 
C 80 30 0 
C 90 30 0 
C 100 30 0 
C 0 40 0 
C 10 40 0 
C 20 40 0 
C 30 40 0 
C 40 40 0 
C 50 40 0 
C 60 40 0 
C 70 40 0 
C 80 40 0 
C 90 40 0 
C 100 40 0 
C 0 50 0 
C 10 50 0 
C 20 50 0 
C 30 50 0 
C 40 50 0 
C 50 50 0 
C 60 50 0 
C 70 50 0 
C 80 50 0 
C 90 50 0 
C 100 50 0 
C 0 60 0 
C 10 60 0 
C 20 60 0 
C 30 60 0 
C 40 60 0 
C 50 60 0 
C 60 60 0 
C 70 60 0 
C 80 60 0 
C 90 60 0 
C 100 60 0 
C 0 70 0 
C 10 70 0 
C 20 70 0 
C 30 70 0 
C 40 70 0 
C 50 70 0 
C 60 70 0 
C 70 70 0 
C 80 70 0 
C 90 70 0 
C 100 70 0 
C 0 80 0 
C 10 80 0 
C 20 80 0 
C 30 80 0 
C 40 80 0 
C 50 80 0 
C 60 80 0 
C 70 80 0 
C 80 80 0 
C 90 80 0 
C 100 80 0 
C 0 90 0 
C 10 90 0 
C 20 90 0 
C 30 90 0 
C 40 90 0 
C 50 90 0 
C 60 90 0 
C 70 90 0 
C 80 90 0 
C 90 90 0 
C 100 90 0 
C 0 100 0 
C 10 100 0 
C 20 100 0 
C 30 100 0 
C 40 100 0 
C 50 100 0 
C 60 100 0 
C 70 100 0 
C 80 100 0 
C 90 100 0 
C 100 100 0 
O 64 99 0 
622
Atoms. Timestep: 31
N 86 10 0 
N 27 60 0 
N 25 74 0 
N 58 91 0 
N 26 17 0 
N 65 23 0 
N 73 69 0 
N 2 45 0 
N 5 45 0 
N 63 27 0 
N 85 64 0 
N 14 4 0 
N 65 30 0 
N 67 11 0 
N 91 90 0 
N 70 69 0 
N 63 80 0 
N 60 62 0 
N 24 25 0 
N 31 64 0 
N 10 86 0 
N 17 76 0 
N 6 0 0 
N 16 80 0 
N 88 24 0 
N 8 24 0 
N 84 75 0 
N 67 54 0 
N 69 96 0 
N 93 26 0 
N 83 5 0 
N 64 9 0 
N 15 18 0 
N 48 85 0 
N 65 73 0 
N 66 95 0 
N 13 83 0 
N 92 7 0 
N 88 73 0 
N 66 98 0 
N 81 97 0 
N 6 27 0 
N 70 17 0 
N 39 53 0 
N 13 90 0 
N 70 21 0 
N 68 18 0 
N 44 5 0 
N 30 68 0 
N 96 47 0 
N 25 22 0 
N 74 60 0 
N 93 72 0 
N 26 3 0 
N 65 4 0 
N 66 81 0 
N 98 4 0 
N 62 15 0 
N 78 5 0 
N 27 90 0 
N 6 40 0 
N 94 29 0 
N 30 57 0 
N 64 47 0 
N 65 24 0 
N 42 57 0 
N 66 71 0 
N 60 42 0 
N 88 67 0 
N 22 20 0 
N 27 16 0 
N 64 25 0 
N 27 39 0 
N 3 16 0 
N 13 18 0 
N 98 68 0 
N 18 73 0 
N 76 87 0 
N 64 68 0 
N 85 9 0 
N 7 20 0 
N 70 73 0 
N 99 69 0 
N 64 98 0 
N 9 19 0 
N 72 79 0 
N 66 5 0 
N 9 66 0 
N 70 66 0 
N 82 24 0 
N 38 17 0 
N 66 34 0 
N 36 16 0 
N 6 90 0 
N 8 41 0 
N 22 78 0 
N 57 81 0 
N 27 18 0 
N 60 85 0 
N 5 25 0 
N 32 60 0 
N 71 9 0 
N 71 44 0 
N 66 69 0 
N 71 72 0 
N 90 21 0 
N 74 96 0 
N 95 32 0 
N 9 26 0 
N 4 26 0 
N 44 97 0 
N 39 57 0 
N 7 54 0 
N 2 72 0 
N 72 53 0 
N 14 17 0 
N 87 48 0 
N 18 79 0 
N 34 15 0 
N 73 82 0 
N 13 82 0 
N 66 75 0 
N 86 95 0 
N 6 18 0 
N 92 71 0 
N 94 5 0 
N 64 6 0 
N 65 54 0 
N 20 64 0 
N 5 9 0 
N 32 61 0 
N 64 70 0 
N 7 22 0 
N 50 68 0 
N 65 93 0 
N 47 41 0 
N 96 2 0 
N 84 95 0 
N 64 93 0 
N 71 67 0 
N 79 51 0 
N 39 86 0 
N 21 74 0 
N 24 45 0 
N 32 49 0 
N 72 66 0 
N 20 78 0 
N 33 60 0 
N 79 4 0 
N 47 63 0 
N 35 55 0 
N 16 67 0 
N 7 72 0 
N 42 17 0 
N 67 87 0 
N 18 93 0 
N 0 44 0 
N 28 19 0 
N 67 76 0 
N 50 16 0 
N 67 56 0 
N 18 65 0 
N 12 17 0 
N 80 5 0 
N 5 73 0 
N 10 1 0 
N 18 15 0 
N 91 72 0 
N 6 79 0 
N 75 48 0 
N 4 30 0 
N 29 90 0 
N 7 31 0 
N 67 89 0 
N 7 15 0 
N 16 74 0 
N 28 55 0 
N 38 15 0 
N 91 32 0 
N 98 32 0 
N 82 11 0 
N 7 28 0 
N 71 77 0 
N 77 1 0 
N 64 12 0 
N 76 16 0 
N 78 87 0 
N 60 96 0 
N 65 94 0 
N 66 44 0 
N 96 39 0 
N 40 62 0 
N 90 73 0 
N 65 88 0 
N 97 31 0 
N 83 74 0 
N 16 25 0 
N 12 93 0 
N 64 72 0 
N 96 27 0 
N 20 72 0 
N 19 66 0 
N 0 73 0 
N 44 66 0 
N 5 69 0 
N 19 87 0 
N 12 2 0 
N 9 28 0 
N 81 22 0 
N 95 33 0 
N 36 62 0 
N 96 32 0 
N 66 78 0 
N 50 69 0 
N 17 8 0 
N 44 84 0 
N 47 71 0 
N 62 95 0 
N 70 15 0 
N 75 89 0 
N 85 20 0 
N 26 25 0 
N 16 70 0 
N 3 44 0 
N 49 70 0 
N 63 50 0 
N 9 91 0 
N 79 24 0 
N 14 27 0 
N 22 81 0 
N 5 15 0 
N 73 25 0 
N 54 84 0 
N 98 74 0 
N 60 8 0 
N 76 70 0 
N 53 68 0 
N 75 81 0 
N 73 26 0 
N 25 7 0 
N 79 65 0 
N 44 58 0 
N 4 72 0 
N 13 69 0 
N 96 38 0 
N 68 80 0 
N 73 6 0 
N 94 73 0 
N 13 19 0 
N 0 31 0 
N 48 91 0 
N 22 70 0 
N 3 84 0 
N 66 63 0 
N 19 85 0 
N 64 69 0 
N 90 23 0 
N 67 73 0 
N 91 25 0 
N 66 40 0 
N 47 92 0 
N 95 31 0 
N 81 1 0 
N 64 86 0 
N 68 31 0 
N 58 94 0 
N 64 1 0 
N 24 61 0 
N 52 85 0 
N 72 25 0 
N 64 37 0 
N 81 81 0 
N 2 76 0 
N 27 67 0 
N 26 57 0 
N 8 27 0 
N 7 18 0 
N 3 25 0 
N 17 16 0 
N 20 75 0 
N 66 76 0 
N 66 64 0 
N 84 78 0 
N 21 81 0 
N 2 64 0 
N 99 27 0 
N 99 71 0 
N 66 26 0 
N 20 37 0 
N 96 71 0 
N 78 32 0 
N 91 55 0 
N 74 24 0 
N 4 70 0 
N 70 74 0 
N 64 52 0 
N 27 19 0 
N 71 70 0 
N 66 55 0 
N 79 62 0 
N 14 21 0 
N 67 72 0 
N 7 25 0 
N 13 12 0 
N 75 63 0 
N 25 92 0 
N 16 66 0 
N 94 39 0 
N 5 17 0 
N 65 55 0 
N 22 8 0 
N 25 13 0 
N 24 60 0 
N 21 61 0 
N 8 6 0 
N 73 90 0 
N 50 81 0 
N 59 58 0 
N 53 87 0 
N 11 20 0 
N 17 13 0 
N 3 18 0 
N 82 29 0 
N 34 25 0 
N 90 43 0 
N 65 32 0 
N 59 24 0 
N 14 74 0 
N 18 69 0 
N 20 19 0 
N 4 27 0 
N 79 26 0 
N 92 45 0 
N 4 19 0 
N 53 79 0 
N 62 37 0 
N 96 86 0 
N 65 39 0 
N 73 53 0 
N 76 73 0 
N 61 72 0 
N 65 51 0 
N 85 96 0 
N 3 15 0 
N 46 86 0 
N 9 5 0 
N 26 49 0 
N 38 51 0 
N 65 57 0 
N 80 25 0 
N 2 26 0 
N 25 34 0 
N 64 63 0 
N 1 15 0 
N 3 27 0 
N 67 69 0 
N 9 15 0 
N 71 4 0 
N 33 69 0 
N 71 20 0 
N 28 76 0 
N 65 19 0 
N 78 88 0 
N 41 47 0 
N 90 8 0 
N 88 3 0 
N 62 13 0 
N 31 56 0 
N 68 49 0 
N 31 14 0 
N 68 85 0 
N 31 85 0 
N 65 5 0 
N 59 9 0 
N 31 77 0 
N 33 46 0 
N 77 8 0 
N 13 66 0 
N 10 27 0 
N 6 20 0 
N 92 36 0 
N 72 90 0 
N 92 1 0 
N 5 64 0 
N 29 82 0 
N 16 92 0 
N 57 53 0 
N 66 9 0 
N 29 61 0 
N 70 68 0 
N 6 46 0 
N 66 2 0 
N 64 29 0 
N 21 85 0 
N 28 37 0 
N 94 76 0 
N 34 7 0 
N 70 51 0 
N 31 53 0 
N 76 97 0 
N 53 91 0 
N 64 2 0 
N 7 24 0 
N 25 80 0 
N 43 94 0 
N 38 71 0 
N 19 13 0 
N 70 36 0 
N 7 0 0 
N 64 10 0 
N 9 78 0 
N 69 71 0 
N 57 72 0 
N 16 71 0 
N 6 15 0 
N 90 45 0 
N 26 69 0 
N 67 74 0 
N 29 17 0 
N 67 3 0 
N 68 22 0 
N 94 0 0 
N 59 91 0 
N 8 30 0 
N 66 73 0 
N 49 37 0 
N 87 4 0 
N 89 43 0 
N 67 17 0 
N 88 38 0 
N 36 30 0 
N 24 95 0 
N 17 89 0 
N 66 6 0 
N 80 3 0 
N 88 71 0 
N 27 24 0 
N 14 30 0 
N 96 77 0 
N 64 5 0 
N 83 26 0 
N 8 18 0 
N 23 89 0 
N 93 5 0 
N 55 85 0 
N 84 85 0 
N 76 84 0 
N 67 84 0 
N 76 22 0 
N 64 83 0 
N 18 63 0 
N 80 19 0 
N 65 59 0 
N 77 21 0 
N 2 65 0 
N 81 32 0 
N 23 69 0 
N 10 12 0 
N 63 26 0 
N 57 30 0 
N 20 83 0 
N 47 8 0 
N 22 91 0 
N 44 64 0 
N 76 21 0 
N 67 33 0 
N 36 85 0 
N 89 52 0 
N 47 78 0 
N 67 81 0 
N 23 21 0 
N 64 7 0 
N 26 30 0 
N 5 29 0 
N 70 8 0 
N 73 23 0 
N 58 56 0 
N 90 32 0 
N 94 33 0 
N 68 70 0 
N 27 83 0 
N 69 5 0 
N 60 9 0 
N 45 82 0 
N 64 26 0 
N 36 67 0 
N 54 6 0 
N 55 88 0 
N 57 60 0 
N 92 4 0 
N 65 62 0 
N 66 28 0 
N 71 89 0 
N 13 21 0 
N 22 12 0 
N 64 55 0 
N 5 26 0 
N 12 83 0 
N 55 11 0 
N 32 70 0 
C 0 0 0 
C 10 0 0 
C 20 0 0 
C 30 0 0 
C 40 0 0 
C 50 0 0 
C 60 0 0 
C 70 0 0 
C 80 0 0 
C 90 0 0 
C 100 0 0 
C 0 10 0 
C 10 10 0 
C 20 10 0 
C 30 10 0 
C 40 10 0 
C 50 10 0 
C 60 10 0 
C 70 10 0 
C 80 10 0 
C 90 10 0 
C 100 10 0 
C 0 20 0 
C 10 20 0 
C 20 20 0 
C 30 20 0 
C 40 20 0 
C 50 20 0 
C 60 20 0 
C 70 20 0 
C 80 20 0 
C 90 20 0 
C 100 20 0 
C 0 30 0 
C 10 30 0 
C 20 30 0 
C 30 30 0 
C 40 30 0 
C 50 30 0 
C 60 30 0 
C 70 30 0 
C 80 30 0 
C 90 30 0 
C 100 30 0 
C 0 40 0 
C 10 40 0 
C 20 40 0 
C 30 40 0 
C 40 40 0 
C 50 40 0 
C 60 40 0 
C 70 40 0 
C 80 40 0 
C 90 40 0 
C 100 40 0 
C 0 50 0 
C 10 50 0 
C 20 50 0 
C 30 50 0 
C 40 50 0 
C 50 50 0 
C 60 50 0 
C 70 50 0 
C 80 50 0 
C 90 50 0 
C 100 50 0 
C 0 60 0 
C 10 60 0 
C 20 60 0 
C 30 60 0 
C 40 60 0 
C 50 60 0 
C 60 60 0 
C 70 60 0 
C 80 60 0 
C 90 60 0 
C 100 60 0 
C 0 70 0 
C 10 70 0 
C 20 70 0 
C 30 70 0 
C 40 70 0 
C 50 70 0 
C 60 70 0 
C 70 70 0 
C 80 70 0 
C 90 70 0 
C 100 70 0 
C 0 80 0 
C 10 80 0 
C 20 80 0 
C 30 80 0 
C 40 80 0 
C 50 80 0 
C 60 80 0 
C 70 80 0 
C 80 80 0 
C 90 80 0 
C 100 80 0 
C 0 90 0 
C 10 90 0 
C 20 90 0 
C 30 90 0 
C 40 90 0 
C 50 90 0 
C 60 90 0 
C 70 90 0 
C 80 90 0 
C 90 90 0 
C 100 90 0 
C 0 100 0 
C 10 100 0 
C 20 100 0 
C 30 100 0 
C 40 100 0 
C 50 100 0 
C 60 100 0 
C 70 100 0 
C 80 100 0 
C 90 100 0 
C 100 100 0 
O 64 0 0 
622
Atoms. Timestep: 32
N 86 9 0 
N 27 61 0 
N 24 74 0 
N 59 91 0 
N 25 17 0 
N 64 23 0 
N 73 68 0 
N 3 45 0 
N 5 46 0 
N 63 26 0 
N 86 64 0 
N 14 3 0 
N 66 30 0 
N 67 10 0 
N 91 89 0 
N 69 69 0 
N 64 80 0 
N 60 61 0 
N 23 25 0 
N 31 63 0 
N 9 86 0 
N 17 75 0 
N 7 0 0 
N 17 80 0 
N 87 24 0 
N 9 24 0 
N 84 74 0 
N 66 54 0 
N 69 95 0 
N 93 25 0 
N 83 4 0 
N 64 8 0 
N 15 17 0 
N 48 84 0 
N 64 73 0 
N 65 95 0 
N 13 82 0 
N 92 6 0 
N 87 73 0 
N 66 97 0 
N 81 96 0 
N 5 27 0 
N 69 17 0 
N 39 54 0 
N 14 90 0 
N 69 21 0 
N 68 17 0 
N 44 4 0 
N 31 68 0 
N 96 46 0 
N 24 22 0 
N 74 59 0 
N 93 71 0 
N 25 3 0 
N 65 3 0 
N 66 80 0 
N 97 4 0 
N 62 14 0 
N 77 5 0 
N 27 89 0 
N 5 40 0 
N 94 28 0 
N 30 56 0 
N 64 46 0 
N 65 24 0 
N 41 57 0 
N 66 70 0 
N 61 42 0 
N 89 67 0 
N 23 20 0 
N 28 16 0 
N 64 24 0 
N 27 38 0 
N 4 16 0 
N 14 18 0 
N 98 69 0 
N 19 73 0 
N 76 86 0 
N 64 67 0 
N 85 8 0 
N 8 20 0 
N 69 73 0 
N 99 68 0 
N 64 97 0 
N 10 19 0 
N 72 78 0 
N 66 4 0 
N 10 66 0 
N 69 66 0 
N 81 24 0 
N 38 16 0 
N 65 34 0 
N 37 16 0 
N 6 91 0 
N 8 42 0 
N 22 77 0 
N 58 81 0 
N 27 19 0 
N 60 84 0 
N 6 25 0 
N 32 59 0 
N 71 8 0 
N 71 43 0 
N 65 69 0 
N 70 72 0 
N 89 21 0 
N 74 95 0 
N 95 31 0 
N 9 27 0 
N 5 26 0 
N 45 97 0 
N 39 58 0 
N 6 54 0 
N 2 73 0 
N 73 53 0 
N 14 16 0 
N 86 48 0 
N 18 80 0 
N 35 15 0 
N 73 81 0 
N 14 82 0 
N 65 75 0 
N 86 94 0 
N 7 18 0 
N 92 70 0 
N 93 5 0 
N 64 6 0 
N 65 53 0 
N 19 64 0 
N 5 8 0 
N 31 61 0 
N 64 70 0 
N 7 21 0 
N 51 68 0 
N 65 92 0 
N 46 41 0 
N 96 1 0 
N 84 94 0 
N 63 93 0 
N 70 67 0 
N 79 50 0 
N 38 86 0 
N 21 75 0 
N 23 45 0 
N 32 48 0 
N 71 66 0 
N 20 79 0 
N 33 61 0 
N 78 4 0 
N 47 62 0 
N 34 55 0 
N 16 66 0 
N 7 71 0 
N 42 16 0 
N 66 87 0 
N 18 94 0 
N 0 45 0 
N 29 19 0 
N 67 75 0 
N 51 16 0 
N 66 56 0 
N 17 65 0 
N 13 17 0 
N 80 4 0 
N 5 72 0 
N 11 1 0 
N 17 15 0 
N 91 73 0 
N 7 79 0 
N 74 48 0 
N 4 31 0 
N 29 91 0 
N 7 32 0 
N 67 88 0 
N 7 16 0 
N 16 73 0 
N 28 54 0 
N 38 14 0 
N 91 33 0 
N 98 33 0 
N 81 11 0 
N 6 28 0 
N 70 77 0 
N 76 1 0 
N 64 11 0 
N 75 16 0 
N 77 87 0 
N 59 96 0 
N 64 94 0 
N 65 44 0 
N 96 38 0 
N 39 62 0 
N 90 74 0 
N 65 87 0 
N 96 31 0 
N 83 73 0 
N 15 25 0 
N 12 92 0 
N 64 71 0 
N 96 28 0 
N 20 73 0 
N 19 65 0 
N 0 72 0 
N 44 67 0 
N 5 70 0 
N 20 87 0 
N 12 1 0 
N 9 29 0 
N 81 21 0 
N 96 33 0 
N 36 63 0 
N 97 32 0 
N 66 77 0 
N 51 69 0 
N 17 9 0 
N 45 84 0 
N 46 71 0 
N 63 95 0 
N 69 15 0 
N 76 89 0 
N 85 19 0 
N 26 26 0 
N 17 70 0 
N 3 43 0 
N 49 69 0 
N 63 49 0 
N 8 91 0 
N 79 23 0 
N 15 27 0 
N 21 81 0 
N 6 15 0 
N 73 24 0 
N 53 84 0 
N 98 75 0 
N 61 8 0 
N 75 70 0 
N 53 67 0 
N 74 81 0 
N 72 26 0 
N 25 6 0 
N 78 65 0 
N 44 57 0 
N 4 71 0 
N 12 69 0 
N 96 37 0 
N 68 79 0 
N 73 5 0 
N 94 72 0 
N 12 19 0 
N 1 31 0 
N 49 91 0 
N 22 71 0 
N 3 85 0 
N 65 63 0 
N 18 85 0 
N 64 69 0 
N 89 23 0 
N 66 73 0 
N 91 24 0 
N 65 40 0 
N 47 91 0 
N 94 31 0 
N 80 1 0 
N 64 85 0 
N 67 31 0 
N 59 94 0 
N 65 1 0 
N 25 61 0 
N 53 85 0 
N 72 24 0 
N 64 36 0 
N 81 80 0 
N 2 75 0 
N 27 66 0 
N 27 57 0 
N 7 27 0 
N 7 17 0 
N 4 25 0 
N 17 17 0 
N 19 75 0 
N 65 76 0 
N 65 64 0 
N 83 78 0 
N 21 82 0 
N 2 65 0 
N 0 27 0 
N 0 71 0 
N 66 25 0 
N 21 37 0 
N 96 72 0 
N 77 32 0 
N 91 56 0 
N 74 23 0 
N 4 69 0 
N 69 74 0 
N 64 52 0 
N 26 19 0 
N 71 69 0 
N 65 55 0 
N 79 61 0 
N 15 21 0 
N 67 71 0 
N 7 24 0 
N 13 11 0 
N 74 63 0 
N 25 91 0 
N 15 66 0 
N 94 38 0 
N 4 17 0 
N 64 55 0 
N 23 8 0 
N 24 13 0 
N 23 60 0 
N 21 60 0 
N 9 6 0 
N 72 90 0 
N 51 81 0 
N 60 58 0 
N 54 87 0 
N 11 19 0 
N 16 13 0 
N 3 17 0 
N 81 29 0 
N 35 25 0 
N 91 43 0 
N 65 31 0 
N 60 24 0 
N 13 74 0 
N 17 69 0 
N 19 19 0 
N 4 28 0 
N 78 26 0 
N 92 44 0 
N 5 19 0 
N 53 78 0 
N 63 37 0 
N 95 86 0 
N 65 38 0 
N 74 53 0 
N 76 72 0 
N 61 71 0 
N 64 51 0 
N 85 95 0 
N 3 14 0 
N 46 85 0 
N 9 4 0 
N 25 49 0 
N 38 50 0 
N 64 57 0 
N 79 25 0 
N 1 26 0 
N 26 34 0 
N 64 62 0 
N 0 15 0 
N 3 26 0 
N 67 68 0 
N 9 16 0 
N 71 3 0 
N 34 69 0 
N 71 19 0 
N 28 75 0 
N 65 18 0 
N 77 88 0 
N 41 48 0 
N 90 7 0 
N 88 2 0 
N 63 13 0 
N 32 56 0 
N 69 49 0 
N 32 14 0 
N 68 84 0 
N 32 85 0 
N 64 5 0 
N 59 8 0 
N 30 77 0 
N 33 45 0 
N 77 7 0 
N 12 66 0 
N 10 28 0 
N 5 20 0 
N 91 36 0 
N 72 89 0 
N 92 0 0 
N 4 64 0 
N 29 81 0 
N 17 92 0 
N 57 54 0 
N 65 9 0 
N 28 61 0 
N 69 68 0 
N 7 46 0 
N 67 2 0 
N 64 30 0 
N 20 85 0 
N 29 37 0 
N 95 76 0 
N 35 7 0 
N 70 52 0 
N 31 54 0 
N 75 97 0 
N 53 90 0 
N 64 2 0 
N 7 23 0 
N 26 80 0 
N 43 93 0 
N 37 71 0 
N 19 12 0 
N 70 35 0 
N 8 0 0 
N 64 10 0 
N 9 79 0 
N 69 72 0 
N 57 71 0 
N 16 72 0 
N 6 16 0 
N 90 46 0 
N 25 69 0 
N 66 74 0 
N 29 16 0 
N 66 3 0 
N 68 21 0 
N 93 0 0 
N 59 90 0 
N 7 30 0 
N 66 72 0 
N 49 36 0 
N 86 4 0 
N 89 44 0 
N 67 16 0 
N 89 38 0 
N 36 31 0 
N 25 95 0 
N 17 88 0 
N 65 6 0 
N 79 3 0 
N 89 71 0 
N 27 25 0 
N 14 29 0 
N 96 78 0 
N 64 4 0 
N 82 26 0 
N 8 19 0 
N 24 89 0 
N 93 4 0 
N 56 85 0 
N 83 85 0 
N 76 83 0 
N 66 84 0 
N 77 22 0 
N 64 82 0 
N 19 63 0 
N 79 19 0 
N 64 59 0 
N 77 20 0 
N 3 65 0 
N 80 32 0 
N 23 68 0 
N 10 13 0 
N 63 25 0 
N 58 30 0 
N 21 83 0 
N 47 7 0 
N 22 92 0 
N 44 63 0 
N 76 20 0 
N 66 33 0 
N 36 84 0 
N 88 52 0 
N 48 78 0 
N 67 80 0 
N 23 22 0 
N 65 7 0 
N 25 30 0 
N 4 29 0 
N 69 8 0 
N 72 23 0 
N 59 56 0 
N 90 31 0 
N 93 33 0 
N 67 70 0 
N 28 83 0 
N 68 5 0 
N 61 9 0 
N 45 81 0 
N 64 26 0 
N 37 67 0 
N 54 5 0 
N 55 87 0 
N 58 60 0 
N 92 3 0 
N 66 62 0 
N 66 27 0 
N 70 89 0 
N 12 21 0 
N 23 12 0 
N 63 55 0 
N 6 26 0 
N 12 82 0 
N 55 10 0 
N 32 71 0 
C 0 0 0 
C 10 0 0 
C 20 0 0 
C 30 0 0 
C 40 0 0 
C 50 0 0 
C 60 0 0 
C 70 0 0 
C 80 0 0 
C 90 0 0 
C 100 0 0 
C 0 10 0 
C 10 10 0 
C 20 10 0 
C 30 10 0 
C 40 10 0 
C 50 10 0 
C 60 10 0 
C 70 10 0 
C 80 10 0 
C 90 10 0 
C 100 10 0 
C 0 20 0 
C 10 20 0 
C 20 20 0 
C 30 20 0 
C 40 20 0 
C 50 20 0 
C 60 20 0 
C 70 20 0 
C 80 20 0 
C 90 20 0 
C 100 20 0 
C 0 30 0 
C 10 30 0 
C 20 30 0 
C 30 30 0 
C 40 30 0 
C 50 30 0 
C 60 30 0 
C 70 30 0 
C 80 30 0 
C 90 30 0 
C 100 30 0 
C 0 40 0 
C 10 40 0 
C 20 40 0 
C 30 40 0 
C 40 40 0 
C 50 40 0 
C 60 40 0 
C 70 40 0 
C 80 40 0 
C 90 40 0 
C 100 40 0 
C 0 50 0 
C 10 50 0 
C 20 50 0 
C 30 50 0 
C 40 50 0 
C 50 50 0 
C 60 50 0 
C 70 50 0 
C 80 50 0 
C 90 50 0 
C 100 50 0 
C 0 60 0 
C 10 60 0 
C 20 60 0 
C 30 60 0 
C 40 60 0 
C 50 60 0 
C 60 60 0 
C 70 60 0 
C 80 60 0 
C 90 60 0 
C 100 60 0 
C 0 70 0 
C 10 70 0 
C 20 70 0 
C 30 70 0 
C 40 70 0 
C 50 70 0 
C 60 70 0 
C 70 70 0 
C 80 70 0 
C 90 70 0 
C 100 70 0 
C 0 80 0 
C 10 80 0 
C 20 80 0 
C 30 80 0 
C 40 80 0 
C 50 80 0 
C 60 80 0 
C 70 80 0 
C 80 80 0 
C 90 80 0 
C 100 80 0 
C 0 90 0 
C 10 90 0 
C 20 90 0 
C 30 90 0 
C 40 90 0 
C 50 90 0 
C 60 90 0 
C 70 90 0 
C 80 90 0 
C 90 90 0 
C 100 90 0 
C 0 100 0 
C 10 100 0 
C 20 100 0 
C 30 100 0 
C 40 100 0 
C 50 100 0 
C 60 100 0 
C 70 100 0 
C 80 100 0 
C 90 100 0 
C 100 100 0 
O 63 0 0 
622
Atoms. Timestep: 33
N 85 9 0 
N 27 62 0 
N 24 73 0 
N 59 90 0 
N 26 17 0 
N 63 23 0 
N 73 67 0 
N 2 45 0 
N 5 45 0 
N 63 25 0 
N 86 65 0 
N 13 3 0 
N 66 29 0 
N 66 10 0 
N 91 88 0 
N 68 69 0 
N 63 80 0 
N 61 61 0 
N 24 25 0 
N 31 64 0 
N 8 86 0 
N 17 74 0 
N 8 0 0 
N 16 80 0 
N 87 23 0 
N 10 24 0 
N 84 73 0 
N 66 53 0 
N 68 95 0 
N 93 24 0 
N 83 3 0 
N 63 8 0 
N 16 17 0 
N 49 84 0 
N 64 72 0 
N 64 95 0 
N 12 82 0 
N 91 6 0 
N 88 73 0 
N 65 97 0 
N 80 96 0 
N 4 27 0 
N 69 16 0 
N 40 54 0 
N 14 89 0 
N 68 21 0 
N 67 17 0 
N 45 4 0 
N 30 68 0 
N 97 46 0 
N 24 21 0 
N 75 59 0 
N 92 71 0 
N 25 2 0 
N 66 3 0 
N 65 80 0 
N 96 4 0 
N 63 14 0 
N 76 5 0 
N 28 89 0 
N 4 40 0 
N 94 27 0 
N 31 56 0 
N 63 46 0 
N 65 23 0 
N 42 57 0 
N 66 69 0 
N 62 42 0 
N 89 66 0 
N 23 19 0 
N 27 16 0 
N 64 24 0 
N 27 39 0 
N 4 15 0 
N 14 19 0 
N 97 69 0 
N 18 73 0 
N 75 86 0 
N 63 67 0 
N 85 7 0 
N 7 20 0 
N 68 73 0 
N 0 68 0 
N 63 97 0 
N 10 18 0 
N 72 77 0 
N 65 4 0 
N 10 65 0 
N 69 65 0 
N 80 24 0 
N 38 15 0 
N 64 34 0 
N 37 15 0 
N 7 91 0 
N 7 42 0 
N 21 77 0 
N 58 80 0 
N 27 20 0 
N 60 83 0 
N 7 25 0 
N 31 59 0 
N 71 7 0 
N 70 43 0 
N 65 68 0 
N 69 72 0 
N 88 21 0 
N 74 94 0 
N 95 30 0 
N 10 27 0 
N 6 26 0 
N 45 96 0 
N 40 58 0 
N 6 53 0 
N 1 73 0 
N 74 53 0 
N 13 16 0 
N 86 47 0 
N 19 80 0 
N 36 15 0 
N 72 81 0 
N 14 81 0 
N 64 75 0 
N 86 93 0 
N 7 19 0 
N 92 69 0 
N 92 5 0 
N 65 6 0 
N 65 52 0 
N 19 65 0 
N 5 7 0 
N 32 61 0 
N 64 69 0 
N 8 21 0 
N 51 67 0 
N 64 92 0 
N 46 40 0 
N 96 0 0 
N 84 93 0 
N 63 92 0 
N 70 67 0 
N 79 51 0 
N 39 86 0 
N 21 76 0 
N 23 44 0 
N 32 49 0 
N 70 66 0 
N 21 79 0 
N 33 62 0 
N 77 4 0 
N 47 61 0 
N 33 55 0 
N 16 67 0 
N 6 71 0 
N 43 16 0 
N 66 86 0 
N 19 94 0 
N 0 46 0 
N 29 18 0 
N 67 74 0 
N 52 16 0 
N 65 56 0 
N 17 64 0 
N 13 18 0 
N 80 3 0 
N 4 72 0 
N 11 0 0 
N 16 15 0 
N 91 74 0 
N 7 80 0 
N 73 48 0 
N 4 30 0 
N 30 91 0 
N 7 31 0 
N 66 88 0 
N 6 16 0 
N 16 74 0 
N 28 55 0 
N 38 13 0 
N 91 34 0 
N 98 34 0 
N 80 11 0 
N 7 28 0 
N 70 76 0 
N 75 1 0 
N 64 10 0 
N 75 15 0 
N 77 86 0 
N 59 95 0 
N 64 93 0 
N 64 44 0 
N 96 39 0 
N 39 63 0 
N 90 73 0 
N 64 87 0 
N 96 32 0 
N 82 73 0 
N 15 24 0 
N 12 93 0 
N 63 71 0 
N 97 28 0 
N 20 74 0 
N 20 65 0 
N 99 72 0 
N 43 67 0 
N 5 71 0 
N 21 87 0 
N 12 0 0 
N 9 30 0 
N 81 20 0 
N 97 33 0 
N 35 63 0 
N 97 31 0 
N 66 76 0 
N 52 69 0 
N 18 9 0 
N 46 84 0 
N 46 70 0 
N 63 94 0 
N 69 14 0 
N 75 89 0 
N 85 18 0 
N 27 26 0 
N 16 70 0 
N 4 43 0 
N 50 69 0 
N 63 48 0 
N 8 90 0 
N 79 22 0 
N 15 26 0 
N 22 81 0 
N 6 14 0 
N 72 24 0 
N 52 84 0 
N 99 75 0 
N 61 7 0 
N 74 70 0 
N 54 67 0 
N 74 80 0 
N 71 26 0 
N 25 5 0 
N 78 64 0 
N 45 57 0 
N 3 71 0 
N 12 70 0 
N 97 37 0 
N 68 78 0 
N 73 4 0 
N 93 72 0 
N 12 18 0 
N 2 31 0 
N 50 91 0 
N 22 70 0 
N 2 85 0 
N 64 63 0 
N 17 85 0 
N 64 68 0 
N 88 23 0 
N 65 73 0 
N 91 25 0 
N 64 40 0 
N 47 90 0 
N 94 30 0 
N 79 1 0 
N 63 85 0 
N 66 31 0 
N 59 93 0 
N 65 0 0 
N 24 61 0 
N 54 85 0 
N 71 24 0 
N 64 35 0 
N 81 79 0 
N 2 74 0 
N 26 66 0 
N 27 56 0 
N 7 26 0 
N 8 17 0 
N 5 25 0 
N 17 16 0 
N 19 76 0 
N 64 76 0 
N 64 64 0 
N 83 77 0 
N 21 83 0 
N 3 65 0 
N 1 27 0 
N 1 71 0 
N 66 24 0 
N 21 38 0 
N 97 72 0 
N 77 31 0 
N 90 56 0 
N 74 22 0 
N 4 70 0 
N 68 74 0 
N 64 51 0 
N 26 18 0 
N 70 69 0 
N 64 55 0 
N 80 61 0 
N 16 21 0 
N 67 70 0 
N 8 24 0 
N 14 11 0 
N 74 62 0 
N 26 91 0 
N 15 67 0 
N 94 39 0 
N 4 18 0 
N 63 55 0 
N 24 8 0 
N 25 13 0 
N 24 60 0 
N 21 61 0 
N 10 6 0 
N 71 90 0 
N 52 81 0 
N 60 57 0 
N 54 86 0 
N 11 18 0 
N 16 12 0 
N 2 17 0 
N 81 28 0 
N 35 24 0 
N 91 44 0 
N 65 30 0 
N 61 24 0 
N 13 73 0 
N 17 68 0 
N 19 18 0 
N 4 29 0 
N 79 26 0 
N 92 45 0 
N 4 19 0 
N 53 77 0 
N 63 36 0 
N 94 86 0 
N 65 37 0 
N 74 54 0 
N 75 72 0 
N 62 71 0 
N 64 50 0 
N 85 94 0 
N 3 13 0 
N 47 85 0 
N 9 3 0 
N 26 49 0 
N 38 51 0 
N 64 56 0 
N 79 24 0 
N 1 25 0 
N 26 33 0 
N 64 61 0 
N 0 14 0 
N 2 26 0 
N 66 68 0 
N 9 15 0 
N 71 2 0 
N 33 69 0 
N 71 18 0 
N 27 75 0 
N 64 18 0 
N 76 88 0 
N 41 47 0 
N 89 7 0 
N 88 1 0 
N 63 12 0 
N 32 57 0 
N 68 49 0 
N 33 14 0 
N 67 84 0 
N 33 85 0 
N 64 4 0 
N 60 8 0 
N 29 77 0 
N 33 44 0 
N 77 6 0 
N 13 66 0 
N 10 29 0 
N 6 20 0 
N 90 36 0 
N 72 88 0 
N 91 0 0 
N 5 64 0 
N 29 82 0 
N 16 92 0 
N 58 54 0 
N 65 8 0 
N 28 62 0 
N 69 67 0 
N 6 46 0 
N 67 1 0 
N 64 29 0 
N 20 86 0 
N 29 38 0 
N 95 75 0 
N 35 6 0 
N 69 52 0 
N 32 54 0 
N 75 96 0 
N 53 89 0 
N 64 1 0 
N 8 23 0 
N 25 80 0 
N 43 92 0 
N 37 70 0 
N 20 12 0 
N 70 34 0 
N 9 0 0 
N 64 9 0 
N 9 78 0 
N 69 71 0 
N 57 70 0 
N 15 72 0 
N 5 16 0 
N 90 47 0 
N 25 68 0 
N 65 74 0 
N 29 15 0 
N 67 3 0 
N 67 21 0 
N 93 0 0 
N 59 89 0 
N 8 30 0 
N 66 71 0 
N 49 35 0 
N 87 4 0 
N 90 44 0 
N 67 15 0 
N 89 37 0 
N 37 31 0 
N 26 95 0 
N 18 88 0 
N 65 5 0 
N 79 4 0 
N 90 71 0 
N 28 25 0 
N 15 29 0 
N 97 78 0 
N 64 3 0 
N 81 26 0 
N 9 19 0 
N 25 89 0 
N 92 4 0 
N 56 84 0 
N 83 84 0 
N 75 83 0 
N 65 84 0 
N 76 22 0 
N 63 82 0 
N 20 63 0 
N 79 18 0 
N 65 59 0 
N 77 19 0 
N 3 66 0 
N 80 31 0 
N 24 68 0 
N 10 14 0 
N 63 24 0 
N 58 29 0 
N 22 83 0 
N 47 6 0 
N 23 92 0 
N 45 63 0 
N 75 20 0 
N 65 33 0 
N 37 84 0 
N 88 53 0 
N 48 77 0 
N 67 79 0 
N 22 22 0 
N 64 7 0 
N 25 29 0 
N 5 29 0 
N 69 7 0 
N 71 23 0 
N 59 55 0 
N 91 31 0 
N 92 33 0 
N 67 69 0 
N 28 84 0 
N 67 5 0 
N 62 9 0 
N 45 80 0 
N 64 25 0 
N 36 67 0 
N 55 5 0 
N 56 87 0 
N 59 60 0 
N 91 3 0 
N 66 61 0 
N 66 26 0 
N 69 89 0 
N 12 20 0 
N 24 12 0 
N 63 54 0 
N 6 27 0 
N 11 82 0 
N 56 10 0 
N 32 70 0 
C 0 0 0 
C 10 0 0 
C 20 0 0 
C 30 0 0 
C 40 0 0 
C 50 0 0 
C 60 0 0 
C 70 0 0 
C 80 0 0 
C 90 0 0 
C 100 0 0 
C 0 10 0 
C 10 10 0 
C 20 10 0 
C 30 10 0 
C 40 10 0 
C 50 10 0 
C 60 10 0 
C 70 10 0 
C 80 10 0 
C 90 10 0 
C 100 10 0 
C 0 20 0 
C 10 20 0 
C 20 20 0 
C 30 20 0 
C 40 20 0 
C 50 20 0 
C 60 20 0 
C 70 20 0 
C 80 20 0 
C 90 20 0 
C 100 20 0 
C 0 30 0 
C 10 30 0 
C 20 30 0 
C 30 30 0 
C 40 30 0 
C 50 30 0 
C 60 30 0 
C 70 30 0 
C 80 30 0 
C 90 30 0 
C 100 30 0 
C 0 40 0 
C 10 40 0 
C 20 40 0 
C 30 40 0 
C 40 40 0 
C 50 40 0 
C 60 40 0 
C 70 40 0 
C 80 40 0 
C 90 40 0 
C 100 40 0 
C 0 50 0 
C 10 50 0 
C 20 50 0 
C 30 50 0 
C 40 50 0 
C 50 50 0 
C 60 50 0 
C 70 50 0 
C 80 50 0 
C 90 50 0 
C 100 50 0 
C 0 60 0 
C 10 60 0 
C 20 60 0 
C 30 60 0 
C 40 60 0 
C 50 60 0 
C 60 60 0 
C 70 60 0 
C 80 60 0 
C 90 60 0 
C 100 60 0 
C 0 70 0 
C 10 70 0 
C 20 70 0 
C 30 70 0 
C 40 70 0 
C 50 70 0 
C 60 70 0 
C 70 70 0 
C 80 70 0 
C 90 70 0 
C 100 70 0 
C 0 80 0 
C 10 80 0 
C 20 80 0 
C 30 80 0 
C 40 80 0 
C 50 80 0 
C 60 80 0 
C 70 80 0 
C 80 80 0 
C 90 80 0 
C 100 80 0 
C 0 90 0 
C 10 90 0 
C 20 90 0 
C 30 90 0 
C 40 90 0 
C 50 90 0 
C 60 90 0 
C 70 90 0 
C 80 90 0 
C 90 90 0 
C 100 90 0 
C 0 100 0 
C 10 100 0 
C 20 100 0 
C 30 100 0 
C 40 100 0 
C 50 100 0 
C 60 100 0 
C 70 100 0 
C 80 100 0 
C 90 100 0 
C 100 100 0 
O 62 0 0 
622
Atoms. Timestep: 34
N 85 8 0 
N 26 62 0 
N 23 73 0 
N 59 89 0 
N 26 16 0 
N 62 23 0 
N 72 67 0 
N 2 44 0 
N 5 44 0 
N 62 25 0 
N 87 65 0 
N 14 3 0 
N 66 28 0 
N 65 10 0 
N 92 88 0 
N 68 68 0 
N 62 80 0 
N 61 60 0 
N 25 25 0 
N 31 63 0 
N 8 85 0 
N 17 73 0 
N 8 0 0 
N 16 81 0 
N 86 23 0 
N 10 25 0 
N 84 72 0 
N 66 52 0 
N 67 95 0 
N 93 23 0 
N 82 3 0 
N 63 8 0 
N 17 17 0 
N 50 84 0 
N 63 72 0 
N 63 95 0 
N 13 82 0 
N 90 6 0 
N 87 73 0 
N 64 97 0 
N 79 96 0 
N 4 28 0 
N 68 16 0 
N 40 55 0 
N 15 89 0 
N 67 21 0 
N 66 17 0 
N 46 4 0 
N 30 69 0 
N 98 46 0 
N 23 21 0 
N 75 58 0 
N 93 71 0 
N 25 1 0 
N 66 2 0 
N 65 79 0 
N 95 4 0 
N 62 14 0 
N 75 5 0 
N 29 89 0 
N 4 39 0 
N 94 26 0 
N 30 56 0 
N 62 46 0 
N 64 23 0 
N 41 57 0 
N 66 68 0 
N 62 41 0 
N 89 67 0 
N 23 18 0 
N 27 15 0 
N 63 24 0 
N 28 39 0 
N 4 14 0 
N 15 19 0 
N 97 68 0 
N 18 72 0 
N 75 85 0 
N 63 66 0 
N 85 6 0 
N 7 21 0 
N 68 72 0 
N 0 67 0 
N 62 97 0 
N 11 18 0 
N 71 77 0 
N 65 3 0 
N 11 65 0 
N 69 64 0 
N 80 23 0 
N 38 14 0 
N 63 34 0 
N 37 14 0 
N 7 90 0 
N 8 42 0 
N 22 77 0 
N 58 79 0 
N 27 21 0 
N 61 83 0 
N 8 25 0 
N 31 60 0 
N 70 7 0 
N 69 43 0 
N 64 68 0 
N 69 71 0 
N 87 21 0 
N 73 94 0 
N 94 30 0 
N 10 28 0 
N 7 26 0 
N 46 96 0 
N 39 58 0 
N 5 53 0 
N 2 73 0 
N 73 53 0 
N 13 15 0 
N 85 47 0 
N 18 80 0 
N 36 14 0 
N 72 80 0 
N 14 82 0 
N 63 75 0 
N 86 92 0 
N 7 18 0 
N 92 70 0 
N 91 5 0 
N 64 6 0 
N 65 51 0 
N 18 65 0 
N 5 6 0 
N 32 62 0 
N 63 69 0 
N 8 20 0 
N 51 66 0 
N 63 92 0 
N 46 39 0 
N 95 0 0 
N 83 93 0 
N 63 91 0 
N 70 66 0 
N 80 51 0 
N 40 86 0 
N 22 76 0 
N 23 45 0 
N 33 49 0 
N 70 65 0 
N 22 79 0 
N 34 62 0 
N 77 3 0 
N 47 62 0 
N 32 55 0 
N 16 66 0 
N 5 71 0 
N 43 15 0 
N 65 86 0 
N 19 93 0 
N 0 47 0 
N 29 19 0 
N 67 73 0 
N 52 15 0 
N 65 57 0 
N 16 64 0 
N 14 18 0 
N 79 3 0 
N 5 72 0 
N 12 0 0 
N 15 15 0 
N 92 74 0 
N 7 79 0 
N 72 48 0 
N 3 30 0 
N 31 91 0 
N 7 30 0 
N 66 87 0 
N 7 16 0 
N 16 73 0 
N 28 56 0 
N 38 12 0 
N 90 34 0 
N 98 33 0 
N 79 11 0 
N 7 29 0 
N 70 75 0 
N 75 0 0 
N 64 9 0 
N 75 14 0 
N 76 86 0 
N 59 94 0 
N 64 94 0 
N 64 43 0 
N 97 39 0 
N 40 63 0 
N 89 73 0 
N 63 87 0 
N 95 32 0 
N 81 73 0 
N 15 23 0 
N 12 94 0 
N 63 70 0 
N 96 28 0 
N 20 73 0 
N 21 65 0 
N 99 71 0 
N 42 67 0 
N 5 70 0 
N 20 87 0 
N 13 0 0 
N 9 31 0 
N 81 19 0 
N 96 33 0 
N 36 63 0 
N 97 32 0 
N 66 77 0 
N 52 68 0 
N 18 8 0 
N 46 83 0 
N 47 70 0 
N 62 94 0 
N 68 14 0 
N 75 88 0 
N 85 17 0 
N 27 27 0 
N 16 69 0 
N 3 43 0 
N 51 69 0 
N 63 47 0 
N 8 91 0 
N 79 21 0 
N 14 26 0 
N 23 81 0 
N 5 14 0 
N 71 24 0 
N 53 84 0 
N 0 75 0 
N 61 6 0 
N 74 69 0 
N 54 66 0 
N 74 79 0 
N 70 26 0 
N 25 4 0 
N 78 63 0 
N 45 56 0 
N 2 71 0 
N 11 70 0 
N 97 38 0 
N 68 77 0 
N 72 4 0 
N 92 72 0 
N 12 17 0 
N 2 32 0 
N 51 91 0 
N 21 70 0 
N 3 85 0 
N 63 63 0 
N 16 85 0 
N 64 67 0 
N 88 22 0 
N 64 73 0 
N 92 25 0 
N 64 39 0 
N 47 89 0 
N 94 29 0 
N 78 1 0 
N 62 85 0 
N 65 31 0 
N 60 93 0 
N 65 0 0 
N 23 61 0 
N 55 85 0 
N 70 24 0 
N 64 35 0 
N 80 79 0 
N 2 75 0 
N 27 66 0 
N 27 57 0 
N 7 27 0 
N 7 17 0 
N 5 26 0 
N 17 15 0 
N 20 76 0 
N 63 76 0 
N 63 64 0 
N 82 77 0 
N 22 83 0 
N 3 66 0 
N 1 28 0 
N 1 72 0 
N 65 24 0 
N 21 37 0 
N 98 72 0 
N 77 30 0 
N 91 56 0 
N 74 21 0 
N 4 71 0 
N 68 74 0 
N 64 50 0 
N 25 18 0 
N 69 69 0 
N 64 54 0 
N 81 61 0 
N 16 20 0 
N 67 69 0 
N 8 23 0 
N 14 10 0 
N 74 61 0 
N 27 91 0 
N 14 67 0 
N 94 38 0 
N 4 19 0 
N 63 54 0 
N 25 8 0 
N 24 13 0 
N 24 59 0 
N 20 61 0 
N 10 5 0 
N 71 89 0 
N 53 81 0 
N 60 56 0 
N 55 86 0 
N 11 19 0 
N 17 12 0 
N 2 16 0 
N 80 28 0 
N 36 24 0 
N 91 43 0 
N 64 30 0 
N 61 23 0 
N 13 74 0 
N 16 68 0 
N 18 18 0 
N 5 29 0 
N 78 26 0 
N 92 46 0 
N 4 20 0 
N 53 76 0 
N 63 35 0 
N 93 86 0 
N 65 36 0 
N 75 54 0 
N 74 72 0 
N 62 70 0 
N 64 49 0 
N 85 93 0 
N 4 13 0 
N 48 85 0 
N 9 2 0 
N 25 49 0 
N 38 52 0 
N 63 56 0 
N 78 24 0 
N 0 25 0 
N 26 34 0 
N 63 61 0 
N 99 14 0 
N 1 26 0 
N 66 67 0 
N 10 15 0 
N 70 2 0 
N 32 69 0 
N 70 18 0 
N 28 75 0 
N 65 18 0 
N 76 87 0 
N 42 47 0 
N 88 7 0 
N 87 1 0 
N 63 11 0 
N 33 57 0 
N 69 49 0 
N 34 14 0 
N 67 83 0 
N 34 85 0 
N 64 3 0 
N 60 7 0 
N 29 78 0 
N 33 43 0 
N 77 5 0 
N 13 65 0 
N 9 29 0 
N 6 19 0 
N 90 35 0 
N 72 87 0 
N 91 0 0 
N 5 63 0 
N 28 82 0 
N 15 92 0 
N 58 53 0 
N 65 7 0 
N 28 63 0 
N 68 67 0 
N 6 45 0 
N 66 1 0 
N 63 29 0 
N 21 86 0 
N 28 38 0 
N 95 76 0 
N 36 6 0 
N 68 52 0 
N 32 53 0 
N 74 96 0 
N 54 89 0 
N 64 0 0 
N 9 23 0 
N 26 80 0 
N 43 91 0 
N 37 71 0 
N 20 11 0 
N 70 35 0 
N 9 0 0 
N 64 8 0 
N 10 78 0 
N 68 71 0 
N 58 70 0 
N 16 72 0 
N 5 15 0 
N 91 47 0 
N 25 69 0 
N 64 74 0 
N 30 15 0 
N 67 2 0 
N 67 20 0 
N 92 0 0 
N 60 89 0 
N 8 31 0 
N 66 70 0 
N 49 34 0 
N 86 4 0 
N 89 44 0 
N 66 15 0 
N 90 37 0 
N 37 30 0 
N 26 94 0 
N 19 88 0 
N 64 5 0 
N 78 4 0 
N 90 72 0 
N 29 25 0 
N 15 28 0 
N 98 78 0 
N 63 3 0 
N 80 26 0 
N 10 19 0 
N 25 88 0 
N 92 3 0 
N 57 84 0 
N 82 84 0 
N 75 82 0 
N 65 83 0 
N 75 22 0 
N 62 82 0 
N 20 62 0 
N 79 17 0 
N 64 59 0 
N 76 19 0 
N 2 66 0 
N 79 31 0 
N 23 68 0 
N 10 13 0 
N 62 24 0 
N 59 29 0 
N 22 82 0 
N 47 5 0 
N 24 92 0 
N 45 64 0 
N 75 19 0 
N 64 33 0 
N 38 84 0 
N 87 53 0 
N 48 76 0 
N 67 78 0 
N 22 21 0 
N 63 7 0 
N 24 29 0 
N 5 30 0 
N 68 7 0 
N 70 23 0 
N 58 55 0 
N 90 31 0 
N 92 32 0 
N 67 68 0 
N 28 83 0 
N 66 5 0 
N 62 8 0 
N 45 79 0 
N 64 25 0 
N 36 66 0 
N 56 5 0 
N 57 87 0 
N 59 59 0 
N 90 3 0 
N 66 60 0 
N 65 26 0 
N 68 89 0 
N 11 20 0 
N 24 11 0 
N 62 54 0 
N 5 27 0 
N 11 83 0 
N 56 11 0 
N 33 70 0 
C 0 0 0 
C 10 0 0 
C 20 0 0 
C 30 0 0 
C 40 0 0 
C 50 0 0 
C 60 0 0 
C 70 0 0 
C 80 0 0 
C 90 0 0 
C 100 0 0 
C 0 10 0 
C 10 10 0 
C 20 10 0 
C 30 10 0 
C 40 10 0 
C 50 10 0 
C 60 10 0 
C 70 10 0 
C 80 10 0 
C 90 10 0 
C 100 10 0 
C 0 20 0 
C 10 20 0 
C 20 20 0 
C 30 20 0 
C 40 20 0 
C 50 20 0 
C 60 20 0 
C 70 20 0 
C 80 20 0 
C 90 20 0 
C 100 20 0 
C 0 30 0 
C 10 30 0 
C 20 30 0 
C 30 30 0 
C 40 30 0 
C 50 30 0 
C 60 30 0 
C 70 30 0 
C 80 30 0 
C 90 30 0 
C 100 30 0 
C 0 40 0 
C 10 40 0 
C 20 40 0 
C 30 40 0 
C 40 40 0 
C 50 40 0 
C 60 40 0 
C 70 40 0 
C 80 40 0 
C 90 40 0 
C 100 40 0 
C 0 50 0 
C 10 50 0 
C 20 50 0 
C 30 50 0 
C 40 50 0 
C 50 50 0 
C 60 50 0 
C 70 50 0 
C 80 50 0 
C 90 50 0 
C 100 50 0 
C 0 60 0 
C 10 60 0 
C 20 60 0 
C 30 60 0 
C 40 60 0 
C 50 60 0 
C 60 60 0 
C 70 60 0 
C 80 60 0 
C 90 60 0 
C 100 60 0 
C 0 70 0 
C 10 70 0 
C 20 70 0 
C 30 70 0 
C 40 70 0 
C 50 70 0 
C 60 70 0 
C 70 70 0 
C 80 70 0 
C 90 70 0 
C 100 70 0 
C 0 80 0 
C 10 80 0 
C 20 80 0 
C 30 80 0 
C 40 80 0 
C 50 80 0 
C 60 80 0 
C 70 80 0 
C 80 80 0 
C 90 80 0 
C 100 80 0 
C 0 90 0 
C 10 90 0 
C 20 90 0 
C 30 90 0 
C 40 90 0 
C 50 90 0 
C 60 90 0 
C 70 90 0 
C 80 90 0 
C 90 90 0 
C 100 90 0 
C 0 100 0 
C 10 100 0 
C 20 100 0 
C 30 100 0 
C 40 100 0 
C 50 100 0 
C 60 100 0 
C 70 100 0 
C 80 100 0 
C 90 100 0 
C 100 100 0 
O 61 0 0 
622
Atoms. Timestep: 35
N 84 8 0 
N 27 62 0 
N 22 73 0 
N 59 88 0 
N 27 16 0 
N 62 22 0 
N 72 66 0 
N 2 43 0 
N 5 43 0 
N 61 25 0 
N 87 64 0 
N 15 3 0 
N 66 27 0 
N 65 9 0 
N 92 87 0 
N 68 67 0 
N 61 80 0 
N 61 59 0 
N 25 24 0 
N 32 63 0 
N 8 84 0 
N 17 72 0 
N 8 0 0 
N 16 82 0 
N 85 23 0 
N 10 24 0 
N 83 72 0 
N 65 52 0 
N 67 94 0 
N 92 23 0 
N 81 3 0 
N 63 7 0 
N 18 17 0 
N 50 83 0 
N 62 72 0 
N 62 95 0 
N 12 82 0 
N 89 6 0 
N 86 73 0 
N 63 97 0 
N 78 96 0 
N 5 28 0 
N 68 17 0 
N 40 56 0 
N 14 89 0 
N 66 21 0 
N 66 16 0 
N 45 4 0 
N 29 69 0 
N 98 47 0 
N 22 21 0 
N 74 58 0 
N 94 71 0 
N 26 1 0 
N 66 1 0 
N 65 78 0 
N 94 4 0 
N 61 14 0 
N 74 5 0 
N 29 88 0 
N 3 39 0 
N 95 26 0 
N 31 56 0 
N 62 45 0 
N 64 22 0 
N 41 56 0 
N 65 68 0 
N 61 41 0 
N 88 67 0 
N 23 17 0 
N 28 15 0 
N 63 23 0 
N 29 39 0 
N 3 14 0 
N 15 18 0 
N 97 67 0 
N 19 72 0 
N 75 84 0 
N 62 66 0 
N 85 5 0 
N 6 21 0 
N 67 72 0 
N 0 68 0 
N 61 97 0 
N 11 17 0 
N 70 77 0 
N 65 2 0 
N 10 65 0 
N 69 63 0 
N 80 22 0 
N 39 14 0 
N 63 33 0 
N 37 13 0 
N 8 90 0 
N 8 41 0 
N 21 77 0 
N 59 79 0 
N 27 22 0 
N 61 82 0 
N 8 26 0 
N 32 60 0 
N 69 7 0 
N 70 43 0 
N 63 68 0 
N 68 71 0 
N 86 21 0 
N 73 93 0 
N 94 31 0 
N 10 29 0 
N 7 25 0 
N 47 96 0 
N 39 57 0 
N 6 53 0 
N 3 73 0 
N 72 53 0 
N 13 14 0 
N 86 47 0 
N 17 80 0 
N 36 13 0 
N 71 80 0 
N 14 83 0 
N 62 75 0 
N 86 91 0 
N 8 18 0 
N 93 70 0 
N 90 5 0 
N 64 5 0 
N 66 51 0 
N 18 66 0 
N 6 6 0 
N 31 62 0 
N 62 69 0 
N 8 19 0 
N 51 65 0 
N 62 92 0 
N 46 40 0 
N 94 0 0 
N 83 92 0 
N 63 90 0 
N 70 65 0 
N 79 51 0 
N 41 86 0 
N 22 75 0 
N 24 45 0 
N 32 49 0 
N 69 65 0 
N 23 79 0 
N 35 62 0 
N 76 3 0 
N 47 63 0 
N 31 55 0 
N 16 67 0 
N 5 70 0 
N 44 15 0 
N 65 85 0 
N 19 92 0 
N 0 46 0 
N 29 20 0 
N 66 73 0 
N 52 14 0 
N 65 56 0 
N 16 63 0 
N 13 18 0 
N 79 2 0 
N 6 72 0 
N 13 0 0 
N 15 16 0 
N 92 73 0 
N 7 80 0 
N 73 48 0 
N 2 30 0 
N 31 90 0 
N 6 30 0 
N 65 87 0 
N 6 16 0 
N 16 72 0 
N 29 56 0 
N 38 11 0 
N 89 34 0 
N 99 33 0 
N 79 10 0 
N 6 29 0 
N 70 74 0 
N 74 0 0 
N 63 9 0 
N 75 13 0 
N 76 85 0 
N 60 94 0 
N 64 93 0 
N 63 43 0 
N 98 39 0 
N 41 63 0 
N 89 74 0 
N 62 87 0 
N 96 32 0 
N 81 72 0 
N 16 23 0 
N 13 94 0 
N 62 70 0 
N 96 29 0 
N 21 73 0 
N 20 65 0 
N 99 70 0 
N 43 67 0 
N 5 69 0 
N 21 87 0 
N 14 0 0 
N 10 31 0 
N 80 19 0 
N 95 33 0 
N 36 62 0 
N 98 32 0 
N 66 76 0 
N 53 68 0 
N 18 7 0 
N 47 83 0 
N 47 69 0 
N 62 93 0 
N 68 13 0 
N 74 88 0 
N 84 17 0 
N 28 27 0 
N 15 69 0 
N 3 42 0 
N 51 68 0 
N 63 46 0 
N 9 91 0 
N 79 20 0 
N 15 26 0 
N 22 81 0 
N 5 15 0 
N 70 24 0 
N 53 83 0 
N 0 76 0 
N 61 5 0 
N 74 68 0 
N 55 66 0 
N 73 79 0 
N 69 26 0 
N 26 4 0 
N 78 62 0 
N 45 55 0 
N 1 71 0 
N 12 70 0 
N 97 37 0 
N 68 76 0 
N 72 3 0 
N 92 71 0 
N 13 17 0 
N 1 32 0 
N 51 90 0 
N 21 71 0 
N 2 85 0 
N 62 63 0 
N 16 84 0 
N 64 66 0 
N 88 21 0 
N 63 73 0 
N 92 26 0 
N 64 38 0 
N 48 89 0 
N 94 28 0 
N 78 0 0 
N 63 85 0 
N 64 31 0 
N 60 92 0 
N 65 1 0 
N 23 62 0 
N 56 85 0 
N 69 24 0 
N 64 34 0 
N 80 78 0 
N 1 75 0 
N 28 66 0 
N 27 58 0 
N 7 28 0 
N 8 17 0 
N 4 26 0 
N 17 14 0 
N 21 76 0 
N 62 76 0 
N 63 65 0 
N 82 76 0 
N 21 83 0 
N 4 66 0 
N 0 28 0 
N 2 72 0 
N 65 23 0 
N 20 37 0 
N 98 73 0 
N 77 29 0 
N 91 57 0 
N 74 20 0 
N 3 71 0 
N 67 74 0 
N 64 49 0 
N 24 18 0 
N 68 69 0 
N 64 53 0 
N 81 62 0 
N 15 20 0 
N 67 68 0 
N 7 23 0 
N 15 10 0 
N 74 62 0 
N 28 91 0 
N 14 66 0 
N 93 38 0 
N 4 18 0 
N 62 54 0 
N 26 8 0 
N 25 13 0 
N 24 58 0 
N 20 62 0 
N 10 4 0 
N 71 88 0 
N 53 80 0 
N 61 56 0 
N 56 86 0 
N 12 19 0 
N 18 12 0 
N 2 17 0 
N 80 27 0 
N 37 24 0 
N 92 43 0 
N 63 30 0 
N 61 22 0 
N 12 74 0 
N 15 68 0 
N 18 19 0 
N 4 29 0 
N 77 26 0 
N 91 46 0 
N 4 21 0 
N 53 75 0 
N 62 35 0 
N 92 86 0 
N 64 36 0 
N 76 54 0 
N 74 71 0 
N 61 70 0 
N 65 49 0 
N 85 92 0 
N 5 13 0 
N 48 84 0 
N 9 1 0 
N 25 50 0 
N 37 52 0 
N 62 56 0 
N 78 23 0 
N 1 25 0 
N 25 34 0 
N 63 60 0 
N 99 15 0 
N 0 26 0 
N 66 66 0 
N 10 14 0 
N 69 2 0 
N 31 69 0 
N 69 18 0 
N 27 75 0 
N 65 17 0 
N 75 87 0 
N 42 48 0 
N 87 7 0 
N 86 1 0 
N 62 11 0 
N 33 56 0 
N 69 48 0 
N 34 13 0 
N 66 83 0 
N 34 84 0 
N 64 2 0 
N 60 6 0 
N 30 78 0 
N 32 43 0 
N 76 5 0 
N 13 66 0 
N 8 29 0 
N 7 19 0 
N 91 35 0 
N 72 86 0 
N 91 0 0 
N 5 64 0 
N 29 82 0 
N 16 92 0 
N 59 53 0 
N 65 6 0 
N 28 64 0 
N 68 66 0 
N 6 44 0 
N 66 0 0 
N 62 29 0 
N 20 86 0 
N 28 37 0 
N 96 76 0 
N 36 5 0 
N 68 51 0 
N 32 54 0 
N 74 95 0 
N 54 88 0 
N 63 0 0 
N 9 24 0 
N 25 80 0 
N 43 90 0 
N 38 71 0 
N 19 11 0 
N 69 35 0 
N 9 0 0 
N 64 7 0 
N 11 78 0 
N 68 70 0 
N 59 70 0 
N 15 72 0 
N 6 15 0 
N 91 48 0 
N 25 68 0 
N 63 74 0 
N 30 14 0 
N 67 1 0 
N 66 20 0 
N 92 0 0 
N 60 88 0 
N 8 30 0 
N 65 70 0 
N 50 34 0 
N 86 3 0 
N 88 44 0 
N 65 15 0 
N 90 36 0 
N 38 30 0 
N 26 93 0 
N 19 87 0 
N 63 5 0 
N 78 3 0 
N 89 72 0 
N 29 24 0 
N 15 29 0 
N 99 78 0 
N 62 3 0 
N 79 26 0 
N 10 18 0 
N 26 88 0 
N 92 2 0 
N 56 84 0 
N 82 83 0 
N 74 82 0 
N 64 83 0 
N 74 22 0 
N 62 81 0 
N 20 63 0 
N 78 17 0 
N 63 59 0 
N 75 19 0 
N 1 66 0 
N 78 31 0 
N 23 69 0 
N 10 12 0 
N 61 24 0 
N 59 28 0 
N 21 82 0 
N 47 4 0 
N 24 91 0 
N 44 64 0 
N 74 19 0 
N 64 32 0 
N 38 83 0 
N 87 54 0 
N 48 77 0 
N 67 77 0 
N 22 22 0 
N 63 6 0 
N 23 29 0 
N 5 31 0 
N 67 7 0 
N 70 22 0 
N 58 54 0 
N 91 31 0 
N 92 31 0 
N 67 67 0 
N 29 83 0 
N 65 5 0 
N 62 7 0 
N 46 79 0 
N 63 25 0 
N 35 66 0 
N 56 4 0 
N 57 86 0 
N 59 58 0 
N 90 2 0 
N 66 59 0 
N 64 26 0 
N 67 89 0 
N 11 21 0 
N 25 11 0 
N 61 54 0 
N 4 27 0 
N 11 84 0 
N 57 11 0 
N 33 69 0 
C 0 0 0 
C 10 0 0 
C 20 0 0 
C 30 0 0 
C 40 0 0 
C 50 0 0 
C 60 0 0 
C 70 0 0 
C 80 0 0 
C 90 0 0 
C 100 0 0 
C 0 10 0 
C 10 10 0 
C 20 10 0 
C 30 10 0 
C 40 10 0 
C 50 10 0 
C 60 10 0 
C 70 10 0 
C 80 10 0 
C 90 10 0 
C 100 10 0 
C 0 20 0 
C 10 20 0 
C 20 20 0 
C 30 20 0 
C 40 20 0 
C 50 20 0 
C 60 20 0 
C 70 20 0 
C 80 20 0 
C 90 20 0 
C 100 20 0 
C 0 30 0 
C 10 30 0 
C 20 30 0 
C 30 30 0 
C 40 30 0 
C 50 30 0 
C 60 30 0 
C 70 30 0 
C 80 30 0 
C 90 30 0 
C 100 30 0 
C 0 40 0 
C 10 40 0 
C 20 40 0 
C 30 40 0 
C 40 40 0 
C 50 40 0 
C 60 40 0 
C 70 40 0 
C 80 40 0 
C 90 40 0 
C 100 40 0 
C 0 50 0 
C 10 50 0 
C 20 50 0 
C 30 50 0 
C 40 50 0 
C 50 50 0 
C 60 50 0 
C 70 50 0 
C 80 50 0 
C 90 50 0 
C 100 50 0 
C 0 60 0 
C 10 60 0 
C 20 60 0 
C 30 60 0 
C 40 60 0 
C 50 60 0 
C 60 60 0 
C 70 60 0 
C 80 60 0 
C 90 60 0 
C 100 60 0 
C 0 70 0 
C 10 70 0 
C 20 70 0 
C 30 70 0 
C 40 70 0 
C 50 70 0 
C 60 70 0 
C 70 70 0 
C 80 70 0 
C 90 70 0 
C 100 70 0 
C 0 80 0 
C 10 80 0 
C 20 80 0 
C 30 80 0 
C 40 80 0 
C 50 80 0 
C 60 80 0 
C 70 80 0 
C 80 80 0 
C 90 80 0 
C 100 80 0 
C 0 90 0 
C 10 90 0 
C 20 90 0 
C 30 90 0 
C 40 90 0 
C 50 90 0 
C 60 90 0 
C 70 90 0 
C 80 90 0 
C 90 90 0 
C 100 90 0 
C 0 100 0 
C 10 100 0 
C 20 100 0 
C 30 100 0 
C 40 100 0 
C 50 100 0 
C 60 100 0 
C 70 100 0 
C 80 100 0 
C 90 100 0 
C 100 100 0 
O 61 99 0 
622
Atoms. Timestep: 36
N 84 9 0 
N 26 62 0 
N 22 74 0 
N 60 88 0 
N 27 17 0 
N 61 22 0 
N 72 67 0 
N 3 43 0 
N 6 43 0 
N 61 26 0 
N 87 65 0 
N 16 3 0 
N 65 27 0 
N 64 9 0 
N 91 87 0 
N 67 67 0 
N 61 80 0 
N 61 60 0 
N 24 24 0 
N 33 63 0 
N 7 84 0 
N 17 73 0 
N 8 1 0 
N 15 82 0 
N 84 23 0 
N 10 23 0 
N 82 72 0 
N 64 52 0 
N 67 95 0 
N 92 22 0 
N 80 3 0 
N 62 7 0 
N 17 17 0 
N 50 84 0 
N 62 73 0 
N 61 95 0 
N 12 83 0 
N 89 7 0 
N 85 73 0 
N 63 98 0 
N 78 97 0 
N 6 28 0 
N 67 17 0 
N 39 56 0 
N 14 88 0 
N 65 21 0 
N 66 17 0 
N 45 5 0 
N 29 68 0 
N 97 47 0 
N 22 20 0 
N 73 58 0 
N 93 71 0 
N 27 1 0 
N 65 1 0 
N 64 78 0 
N 93 4 0 
N 61 15 0 
N 74 6 0 
N 29 89 0 
N 3 38 0 
N 95 25 0 
N 32 56 0 
N 61 45 0 
N 63 22 0 
N 42 56 0 
N 65 69 0 
N 61 42 0 
N 88 68 0 
N 23 16 0 
N 29 15 0 
N 62 23 0 
N 30 39 0 
N 3 13 0 
N 16 18 0 
N 96 67 0 
N 18 72 0 
N 75 85 0 
N 62 67 0 
N 84 5 0 
N 7 21 0 
N 67 73 0 
N 1 68 0 
N 61 98 0 
N 11 18 0 
N 69 77 0 
N 64 2 0 
N 10 64 0 
N 68 63 0 
N 80 23 0 
N 39 15 0 
N 62 33 0 
N 38 13 0 
N 8 89 0 
N 8 40 0 
N 21 76 0 
N 59 80 0 
N 26 22 0 
N 61 83 0 
N 8 27 0 
N 32 59 0 
N 68 7 0 
N 71 43 0 
N 62 68 0 
N 67 71 0 
N 85 21 0 
N 72 93 0 
N 93 31 0 
N 10 28 0 
N 8 25 0 
N 47 97 0 
N 40 57 0 
N 6 54 0 
N 2 73 0 
N 72 52 0 
N 13 15 0 
N 86 48 0 
N 17 79 0 
N 36 14 0 
N 71 81 0 
N 15 83 0 
N 62 76 0 
N 85 91 0 
N 8 19 0 
N 92 70 0 
N 90 6 0 
N 63 5 0 
N 66 52 0 
N 17 66 0 
N 5 6 0 
N 31 61 0 
N 62 70 0 
N 8 20 0 
N 51 66 0 
N 62 93 0 
N 46 41 0 
N 93 0 0 
N 82 92 0 
N 62 90 0 
N 70 66 0 
N 79 50 0 
N 41 87 0 
N 23 75 0 
N 24 46 0 
N 33 49 0 
N 68 65 0 
N 23 80 0 
N 35 61 0 
N 76 4 0 
N 47 64 0 
N 30 55 0 
N 16 68 0 
N 5 69 0 
N 45 15 0 
N 65 86 0 
N 20 92 0 
N 1 46 0 
N 28 20 0 
N 65 73 0 
N 52 15 0 
N 65 57 0 
N 16 64 0 
N 14 18 0 
N 79 3 0 
N 5 72 0 
N 13 1 0 
N 15 15 0 
N 92 74 0 
N 7 81 0 
N 72 48 0 
N 2 31 0 
N 31 91 0 
N 6 31 0 
N 64 87 0 
N 6 15 0 
N 16 73 0 
N 29 57 0 
N 39 11 0 
N 88 34 0 
N 99 34 0 
N 78 10 0 
N 5 29 0 
N 70 75 0 
N 74 1 0 
N 63 10 0 
N 75 14 0 
N 76 86 0 
N 61 94 0 
N 63 93 0 
N 62 43 0 
N 98 40 0 
N 40 63 0 
N 89 73 0 
N 61 87 0 
N 95 32 0 
N 80 72 0 
N 16 24 0 
N 13 93 0 
N 61 70 0 
N 95 29 0 
N 20 73 0 
N 20 64 0 
N 99 71 0 
N 43 68 0 
N 4 69 0 
N 22 87 0 
N 14 1 0 
N 9 31 0 
N 79 19 0 
N 96 33 0 
N 36 63 0 
N 99 32 0 
N 65 76 0 
N 53 69 0 
N 19 7 0 
N 47 84 0 
N 48 69 0 
N 62 94 0 
N 68 14 0 
N 73 88 0 
N 84 18 0 
N 29 27 0 
N 16 69 0 
N 2 42 0 
N 51 69 0 
N 62 46 0 
N 9 92 0 
N 79 21 0 
N 16 26 0 
N 21 81 0 
N 5 16 0 
N 69 24 0 
N 53 84 0 
N 99 76 0 
N 61 6 0 
N 74 69 0 
N 56 66 0 
N 73 80 0 
N 69 27 0 
N 26 5 0 
N 78 63 0 
N 44 55 0 
N 2 71 0 
N 12 71 0 
N 96 37 0 
N 67 76 0 
N 71 3 0 
N 91 71 0 
N 13 16 0 
N 2 32 0 
N 52 90 0 
N 21 70 0 
N 2 84 0 
N 62 64 0 
N 17 84 0 
N 64 67 0 
N 87 21 0 
N 63 74 0 
N 93 26 0 
N 63 38 0 
N 49 89 0 
N 94 27 0 
N 78 1 0 
N 63 86 0 
N 64 32 0 
N 61 92 0 
N 64 1 0 
N 22 62 0 
N 56 86 0 
N 68 24 0 
N 64 35 0 
N 80 79 0 
N 1 76 0 
N 29 66 0 
N 27 59 0 
N 7 27 0 
N 7 17 0 
N 4 27 0 
N 17 13 0 
N 20 76 0 
N 61 76 0 
N 63 66 0 
N 82 77 0 
N 21 84 0 
N 3 66 0 
N 1 28 0 
N 1 72 0 
N 65 24 0 
N 20 36 0 
N 99 73 0 
N 76 29 0 
N 90 57 0 
N 73 20 0 
N 3 72 0 
N 66 74 0 
N 63 49 0 
N 23 18 0 
N 68 70 0 
N 63 53 0 
N 81 63 0 
N 15 21 0 
N 66 68 0 
N 8 23 0 
N 15 11 0 
N 73 62 0 
N 29 91 0 
N 14 65 0 
N 93 39 0 
N 5 18 0 
N 62 55 0 
N 27 8 0 
N 26 13 0 
N 24 59 0 
N 21 62 0 
N 10 3 0 
N 70 88 0 
N 54 80 0 
N 61 57 0 
N 57 86 0 
N 12 18 0 
N 18 11 0 
N 3 17 0 
N 79 27 0 
N 38 24 0 
N 93 43 0 
N 63 31 0 
N 61 23 0 
N 12 75 0 
N 14 68 0 
N 17 19 0 
N 3 29 0 
N 77 27 0 
N 92 46 0 
N 5 21 0 
N 53 76 0 
N 62 36 0 
N 91 86 0 
N 63 36 0 
N 75 54 0 
N 73 71 0 
N 61 71 0 
N 65 48 0 
N 84 92 0 
N 4 13 0 
N 48 85 0 
N 10 1 0 
N 25 49 0 
N 37 51 0 
N 62 57 0 
N 78 24 0 
N 0 25 0 
N 24 34 0 
N 63 61 0 
N 99 16 0 
N 0 27 0 
N 65 66 0 
N 10 15 0 
N 69 3 0 
N 31 70 0 
N 69 19 0 
N 27 74 0 
N 65 18 0 
N 75 88 0 
N 41 48 0 
N 86 7 0 
N 85 1 0 
N 61 11 0 
N 33 57 0 
N 69 49 0 
N 35 13 0 
N 66 84 0 
N 33 84 0 
N 63 2 0 
N 60 7 0 
N 30 79 0 
N 33 43 0 
N 75 5 0 
N 12 66 0 
N 9 29 0 
N 7 18 0 
N 92 35 0 
N 71 86 0 
N 91 1 0 
N 5 63 0 
N 30 82 0 
N 15 92 0 
N 60 53 0 
N 64 6 0 
N 28 65 0 
N 67 66 0 
N 6 45 0 
N 65 0 0 
N 62 30 0 
N 20 87 0 
N 28 38 0 
N 96 75 0 
N 37 5 0 
N 68 52 0 
N 33 54 0 
N 73 95 0 
N 55 88 0 
N 62 0 0 
N 9 23 0 
N 25 81 0 
N 43 91 0 
N 37 71 0 
N 19 12 0 
N 68 35 0 
N 9 0 0 
N 64 8 0 
N 12 78 0 
N 67 70 0 
N 59 71 0 
N 14 72 0 
N 7 15 0 
N 91 47 0 
N 26 68 0 
N 63 75 0 
N 30 15 0 
N 67 2 0 
N 65 20 0 
N 92 1 0 
N 60 89 0 
N 7 30 0 
N 64 70 0 
N 50 35 0 
N 86 4 0 
N 87 44 0 
N 65 16 0 
N 90 37 0 
N 38 29 0 
N 27 93 0 
N 19 88 0 
N 62 5 0 
N 77 3 0 
N 88 72 0 
N 28 24 0 
N 15 30 0 
N 98 78 0 
N 62 4 0 
N 78 26 0 
N 10 17 0 
N 26 89 0 
N 91 2 0 
N 57 84 0 
N 82 84 0 
N 74 83 0 
N 63 83 0 
N 73 22 0 
N 61 81 0 
N 21 63 0 
N 77 17 0 
N 62 59 0 
N 74 19 0 
N 0 66 0 
N 77 31 0 
N 23 68 0 
N 10 13 0 
N 61 24 0 
N 60 28 0 
N 20 82 0 
N 47 5 0 
N 24 92 0 
N 44 65 0 
N 73 19 0 
N 63 32 0 
N 39 83 0 
N 86 54 0 
N 48 78 0 
N 67 78 0 
N 23 22 0 
N 62 6 0 
N 23 28 0 
N 5 30 0 
N 67 8 0 
N 70 23 0 
N 59 54 0 
N 91 32 0 
N 92 30 0 
N 66 67 0 
N 29 84 0 
N 65 5 0 
N 61 7 0 
N 47 79 0 
N 62 25 0 
N 35 67 0 
N 56 5 0 
N 58 86 0 
N 59 59 0 
N 89 2 0 
N 65 59 0 
N 63 26 0 
N 67 90 0 
N 10 21 0 
N 26 11 0 
N 61 55 0 
N 5 27 0 
N 12 84 0 
N 58 11 0 
N 34 69 0 
C 0 0 0 
C 10 0 0 
C 20 0 0 
C 30 0 0 
C 40 0 0 
C 50 0 0 
C 60 0 0 
C 70 0 0 
C 80 0 0 
C 90 0 0 
C 100 0 0 
C 0 10 0 
C 10 10 0 
C 20 10 0 
C 30 10 0 
C 40 10 0 
C 50 10 0 
C 60 10 0 
C 70 10 0 
C 80 10 0 
C 90 10 0 
C 100 10 0 
C 0 20 0 
C 10 20 0 
C 20 20 0 
C 30 20 0 
C 40 20 0 
C 50 20 0 
C 60 20 0 
C 70 20 0 
C 80 20 0 
C 90 20 0 
C 100 20 0 
C 0 30 0 
C 10 30 0 
C 20 30 0 
C 30 30 0 
C 40 30 0 
C 50 30 0 
C 60 30 0 
C 70 30 0 
C 80 30 0 
C 90 30 0 
C 100 30 0 
C 0 40 0 
C 10 40 0 
C 20 40 0 
C 30 40 0 
C 40 40 0 
C 50 40 0 
C 60 40 0 
C 70 40 0 
C 80 40 0 
C 90 40 0 
C 100 40 0 
C 0 50 0 
C 10 50 0 
C 20 50 0 
C 30 50 0 
C 40 50 0 
C 50 50 0 
C 60 50 0 
C 70 50 0 
C 80 50 0 
C 90 50 0 
C 100 50 0 
C 0 60 0 
C 10 60 0 
C 20 60 0 
C 30 60 0 
C 40 60 0 
C 50 60 0 
C 60 60 0 
C 70 60 0 
C 80 60 0 
C 90 60 0 
C 100 60 0 
C 0 70 0 
C 10 70 0 
C 20 70 0 
C 30 70 0 
C 40 70 0 
C 50 70 0 
C 60 70 0 
C 70 70 0 
C 80 70 0 
C 90 70 0 
C 100 70 0 
C 0 80 0 
C 10 80 0 
C 20 80 0 
C 30 80 0 
C 40 80 0 
C 50 80 0 
C 60 80 0 
C 70 80 0 
C 80 80 0 
C 90 80 0 
C 100 80 0 
C 0 90 0 
C 10 90 0 
C 20 90 0 
C 30 90 0 
C 40 90 0 
C 50 90 0 
C 60 90 0 
C 70 90 0 
C 80 90 0 
C 90 90 0 
C 100 90 0 
C 0 100 0 
C 10 100 0 
C 20 100 0 
C 30 100 0 
C 40 100 0 
C 50 100 0 
C 60 100 0 
C 70 100 0 
C 80 100 0 
C 90 100 0 
C 100 100 0 
O 60 99 0 
622
Atoms. Timestep: 37
N 85 9 0 
N 27 62 0 
N 22 73 0 
N 60 88 0 
N 26 17 0 
N 61 23 0 
N 72 68 0 
N 4 43 0 
N 7 43 0 
N 60 26 0 
N 86 65 0 
N 16 4 0 
N 65 28 0 
N 64 10 0 
N 91 88 0 
N 67 68 0 
N 61 81 0 
N 61 61 0 
N 23 24 0 
N 34 63 0 
N 7 83 0 
N 17 72 0 
N 8 2 0 
N 15 83 0 
N 83 23 0 
N 9 23 0 
N 81 72 0 
N 65 52 0 
N 67 96 0 
N 93 22 0 
N 80 4 0 
N 62 8 0 
N 17 18 0 
N 51 84 0 
N 61 73 0 
N 61 96 0 
N 13 83 0 
N 89 8 0 
N 85 72 0 
N 63 99 0 
N 79 97 0 
N 5 28 0 
N 67 18 0 
N 38 56 0 
N 13 88 0 
N 65 22 0 
N 66 18 0 
N 45 6 0 
N 30 68 0 
N 97 48 0 
N 22 19 0 
N 74 58 0 
N 92 71 0 
N 27 2 0 
N 65 2 0 
N 64 79 0 
N 92 4 0 
N 61 16 0 
N 73 6 0 
N 30 89 0 
N 2 38 0 
N 95 26 0 
N 32 55 0 
N 61 46 0 
N 63 23 0 
N 43 56 0 
N 65 70 0 
N 61 43 0 
N 88 69 0 
N 22 16 0 
N 29 16 0 
N 62 24 0 
N 29 39 0 
N 3 14 0 
N 16 19 0 
N 96 68 0 
N 19 72 0 
N 74 85 0 
N 62 68 0 
N 84 6 0 
N 7 20 0 
N 66 73 0 
N 0 68 0 
N 60 98 0 
N 12 18 0 
N 69 78 0 
N 63 2 0 
N 11 64 0 
N 68 64 0 
N 79 23 0 
N 40 15 0 
N 62 34 0 
N 39 13 0 
N 9 89 0 
N 8 39 0 
N 21 77 0 
N 59 81 0 
N 25 22 0 
N 60 83 0 
N 8 28 0 
N 31 59 0 
N 68 8 0 
N 71 42 0 
N 61 68 0 
N 67 72 0 
N 84 21 0 
N 72 94 0 
N 93 30 0 
N 9 28 0 
N 8 26 0 
N 48 97 0 
N 40 56 0 
N 6 53 0 
N 3 73 0 
N 72 51 0 
N 12 15 0 
N 87 48 0 
N 18 79 0 
N 36 15 0 
N 70 81 0 
N 16 83 0 
N 61 76 0 
N 84 91 0 
N 9 19 0 
N 93 70 0 
N 90 7 0 
N 62 5 0 
N 66 51 0 
N 17 67 0 
N 5 7 0 
N 30 61 0 
N 61 70 0 
N 9 20 0 
N 51 67 0 
N 62 94 0 
N 46 40 0 
N 93 1 0 
N 82 93 0 
N 62 91 0 
N 70 67 0 
N 78 50 0 
N 42 87 0 
N 23 74 0 
N 25 46 0 
N 33 48 0 
N 68 66 0 
N 23 79 0 
N 35 60 0 
N 76 5 0 
N 48 64 0 
N 30 54 0 
N 16 67 0 
N 4 69 0 
N 46 15 0 
N 64 86 0 
N 21 92 0 
N 1 45 0 
N 29 20 0 
N 65 74 0 
N 51 15 0 
N 64 57 0 
N 16 63 0 
N 15 18 0 
N 78 3 0 
N 5 71 0 
N 13 2 0 
N 16 15 0 
N 92 75 0 
N 7 82 0 
N 72 47 0 
N 2 32 0 
N 31 92 0 
N 6 32 0 
N 63 87 0 
N 7 15 0 
N 15 73 0 
N 28 57 0 
N 39 12 0 
N 88 35 0 
N 98 34 0 
N 78 11 0 
N 6 29 0 
N 69 75 0 
N 73 1 0 
N 62 10 0 
N 74 14 0 
N 75 86 0 
N 60 94 0 
N 63 94 0 
N 62 44 0 
N 99 40 0 
N 40 64 0 
N 88 73 0 
N 60 87 0 
N 94 32 0 
N 80 73 0 
N 16 25 0 
N 13 92 0 
N 61 71 0 
N 95 30 0 
N 20 72 0 
N 20 65 0 
N 99 70 0 
N 44 68 0 
N 4 68 0 
N 23 87 0 
N 14 2 0 
N 9 32 0 
N 78 19 0 
N 96 32 0 
N 36 62 0 
N 98 32 0 
N 64 76 0 
N 53 68 0 
N 20 7 0 
N 47 85 0 
N 49 69 0 
N 62 95 0 
N 67 14 0 
N 72 88 0 
N 84 19 0 
N 29 26 0 
N 17 69 0 
N 2 43 0 
N 52 69 0 
N 62 47 0 
N 9 93 0 
N 79 22 0 
N 17 26 0 
N 22 81 0 
N 5 15 0 
N 69 25 0 
N 54 84 0 
N 0 76 0 
N 61 7 0 
N 73 69 0 
N 56 67 0 
N 72 80 0 
N 69 28 0 
N 26 6 0 
N 77 63 0 
N 43 55 0 
N 1 71 0 
N 12 70 0 
N 95 37 0 
N 67 77 0 
N 71 4 0 
N 91 70 0 
N 14 16 0 
N 2 33 0 
N 52 91 0 
N 22 70 0 
N 2 83 0 
N 62 65 0 
N 17 83 0 
N 64 68 0 
N 86 21 0 
N 62 74 0 
N 92 26 0 
N 62 38 0 
N 49 90 0 
N 94 26 0 
N 78 2 0 
N 62 86 0 
N 64 33 0 
N 61 93 0 
N 63 1 0 
N 22 61 0 
N 57 86 0 
N 68 25 0 
N 64 36 0 
N 79 79 0 
N 2 76 0 
N 28 66 0 
N 28 59 0 
N 6 27 0 
N 6 17 0 
N 4 28 0 
N 18 13 0 
N 20 75 0 
N 60 76 0 
N 62 66 0 
N 82 78 0 
N 22 84 0 
N 3 65 0 
N 1 29 0 
N 2 72 0 
N 64 24 0 
N 20 35 0 
N 99 74 0 
N 75 29 0 
N 89 57 0 
N 72 20 0 
N 3 71 0 
N 66 75 0 
N 63 50 0 
N 23 19 0 
N 68 71 0 
N 62 53 0 
N 81 62 0 
N 15 20 0 
N 65 68 0 
N 7 23 0 
N 15 12 0 
N 72 62 0 
N 29 92 0 
N 14 66 0 
N 93 40 0 
N 5 19 0 
N 61 55 0 
N 27 9 0 
N 26 14 0 
N 24 60 0 
N 21 61 0 
N 11 3 0 
N 70 89 0 
N 54 81 0 
N 61 58 0 
N 57 87 0 
N 13 18 0 
N 17 11 0 
N 2 17 0 
N 79 28 0 
N 39 24 0 
N 93 42 0 
N 63 32 0 
N 60 23 0 
N 12 74 0 
N 14 69 0 
N 17 20 0 
N 2 29 0 
N 77 28 0 
N 93 46 0 
N 5 20 0 
N 54 76 0 
N 61 36 0 
N 90 86 0 
N 63 37 0 
N 75 55 0 
N 72 71 0 
N 60 71 0 
N 66 48 0 
N 84 93 0 
N 4 14 0 
N 49 85 0 
N 10 2 0 
N 26 49 0 
N 36 51 0 
N 62 58 0 
N 78 25 0 
N 99 25 0 
N 24 35 0 
N 62 61 0 
N 99 15 0 
N 0 26 0 
N 64 66 0 
N 10 16 0 
N 69 4 0 
N 32 70 0 
N 68 19 0 
N 26 74 0 
N 64 18 0 
N 74 88 0 
N 41 47 0 
N 86 8 0 
N 84 1 0 
N 61 12 0 
N 33 56 0 
N 68 49 0 
N 36 13 0 
N 66 85 0 
N 33 85 0 
N 63 3 0 
N 60 8 0 
N 31 79 0 
N 34 43 0 
N 74 5 0 
N 11 66 0 
N 9 30 0 
N 7 19 0 
N 93 35 0 
N 71 87 0 
N 90 1 0 
N 6 63 0 
N 30 83 0 
N 15 91 0 
N 59 53 0 
N 64 7 0 
N 28 64 0 
N 66 66 0 
N 6 44 0 
N 64 0 0 
N 61 30 0 
N 21 87 0 
N 29 38 0 
N 95 75 0 
N 37 6 0 
N 68 51 0 
N 33 53 0 
N 72 95 0 
N 55 89 0 
N 62 1 0 
N 9 22 0 
N 25 82 0 
N 44 91 0 
N 37 72 0 
N 18 12 0 
N 67 35 0 
N 9 1 0 
N 63 8 0 
N 13 78 0 
N 66 70 0 
N 59 72 0 
N 14 73 0 
N 7 16 0 
N 91 48 0 
N 27 68 0 
N 63 76 0 
N 30 16 0 
N 66 2 0 
N 64 20 0 
N 92 2 0 
N 60 89 0 
N 8 30 0 
N 63 70 0 
N 50 36 0 
N 86 5 0 
N 87 43 0 
N 65 17 0 
N 91 37 0 
N 37 29 0 
N 27 94 0 
N 19 87 0 
N 61 5 0 
N 76 3 0 
N 87 72 0 
N 29 24 0 
N 15 29 0 
N 98 79 0 
N 61 4 0 
N 78 27 0 
N 11 17 0 
N 27 89 0 
N 90 2 0 
N 57 85 0 
N 82 85 0 
N 74 84 0 
N 62 83 0 
N 74 22 0 
N 62 81 0 
N 21 64 0 
N 76 17 0 
N 61 59 0 
N 73 19 0 
N 99 66 0 
N 76 31 0 
N 22 68 0 
N 10 12 0 
N 60 24 0 
N 60 29 0 
N 20 81 0 
N 48 5 0 
N 23 92 0 
N 44 66 0 
N 72 19 0 
N 62 32 0 
N 39 84 0 
N 85 54 0 
N 49 78 0 
N 66 78 0 
N 23 23 0 
N 62 6 0 
N 23 27 0 
N 6 30 0 
N 66 8 0 
N 70 24 0 
N 60 54 0 
N 91 33 0 
N 92 31 0 
N 65 67 0 
N 30 84 0 
N 65 6 0 
N 61 8 0 
N 47 80 0 
N 62 26 0 
N 35 68 0 
N 57 5 0 
N 58 87 0 
N 60 59 0 
N 88 2 0 
N 65 60 0 
N 63 27 0 
N 67 91 0 
N 9 21 0 
N 26 12 0 
N 61 56 0 
N 5 26 0 
N 13 84 0 
N 59 11 0 
N 33 69 0 
C 0 0 0 
C 10 0 0 
C 20 0 0 
C 30 0 0 
C 40 0 0 
C 50 0 0 
C 60 0 0 
C 70 0 0 
C 80 0 0 
C 90 0 0 
C 100 0 0 
C 0 10 0 
C 10 10 0 
C 20 10 0 
C 30 10 0 
C 40 10 0 
C 50 10 0 
C 60 10 0 
C 70 10 0 
C 80 10 0 
C 90 10 0 
C 100 10 0 
C 0 20 0 
C 10 20 0 
C 20 20 0 
C 30 20 0 
C 40 20 0 
C 50 20 0 
C 60 20 0 
C 70 20 0 
C 80 20 0 
C 90 20 0 
C 100 20 0 
C 0 30 0 
C 10 30 0 
C 20 30 0 
C 30 30 0 
C 40 30 0 
C 50 30 0 
C 60 30 0 
C 70 30 0 
C 80 30 0 
C 90 30 0 
C 100 30 0 
C 0 40 0 
C 10 40 0 
C 20 40 0 
C 30 40 0 
C 40 40 0 
C 50 40 0 
C 60 40 0 
C 70 40 0 
C 80 40 0 
C 90 40 0 
C 100 40 0 
C 0 50 0 
C 10 50 0 
C 20 50 0 
C 30 50 0 
C 40 50 0 
C 50 50 0 
C 60 50 0 
C 70 50 0 
C 80 50 0 
C 90 50 0 
C 100 50 0 
C 0 60 0 
C 10 60 0 
C 20 60 0 
C 30 60 0 
C 40 60 0 
C 50 60 0 
C 60 60 0 
C 70 60 0 
C 80 60 0 
C 90 60 0 
C 100 60 0 
C 0 70 0 
C 10 70 0 
C 20 70 0 
C 30 70 0 
C 40 70 0 
C 50 70 0 
C 60 70 0 
C 70 70 0 
C 80 70 0 
C 90 70 0 
C 100 70 0 
C 0 80 0 
C 10 80 0 
C 20 80 0 
C 30 80 0 
C 40 80 0 
C 50 80 0 
C 60 80 0 
C 70 80 0 
C 80 80 0 
C 90 80 0 
C 100 80 0 
C 0 90 0 
C 10 90 0 
C 20 90 0 
C 30 90 0 
C 40 90 0 
C 50 90 0 
C 60 90 0 
C 70 90 0 
C 80 90 0 
C 90 90 0 
C 100 90 0 
C 0 100 0 
C 10 100 0 
C 20 100 0 
C 30 100 0 
C 40 100 0 
C 50 100 0 
C 60 100 0 
C 70 100 0 
C 80 100 0 
C 90 100 0 
C 100 100 0 
O 59 99 0 
622
Atoms. Timestep: 38
N 84 9 0 
N 27 63 0 
N 21 73 0 
N 59 88 0 
N 26 18 0 
N 60 23 0 
N 71 68 0 
N 5 43 0 
N 7 42 0 
N 59 26 0 
N 87 65 0 
N 16 5 0 
N 65 27 0 
N 64 11 0 
N 91 89 0 
N 66 68 0 
N 61 82 0 
N 60 61 0 
N 24 24 0 
N 34 62 0 
N 7 84 0 
N 17 71 0 
N 8 1 0 
N 16 83 0 
N 83 24 0 
N 10 23 0 
N 80 72 0 
N 65 53 0 
N 66 96 0 
N 94 22 0 
N 79 4 0 
N 62 9 0 
N 18 18 0 
N 51 85 0 
N 60 73 0 
N 60 96 0 
N 14 83 0 
N 88 8 0 
N 85 73 0 
N 62 99 0 
N 79 98 0 
N 4 28 0 
N 66 18 0 
N 38 55 0 
N 12 88 0 
N 65 23 0 
N 65 18 0 
N 45 7 0 
N 31 68 0 
N 96 48 0 
N 21 19 0 
N 74 57 0 
N 91 71 0 
N 27 3 0 
N 64 2 0 
N 64 80 0 
N 92 5 0 
N 61 17 0 
N 72 6 0 
N 31 89 0 
N 1 38 0 
N 95 27 0 
N 31 55 0 
N 60 46 0 
N 62 23 0 
N 42 56 0 
N 64 70 0 
N 60 43 0 
N 88 70 0 
N 21 16 0 
N 29 17 0 
N 61 24 0 
N 29 38 0 
N 4 14 0 
N 15 19 0 
N 96 69 0 
N 19 73 0 
N 73 85 0 
N 62 69 0 
N 83 6 0 
N 8 20 0 
N 65 73 0 
N 0 69 0 
N 59 98 0 
N 13 18 0 
N 69 79 0 
N 62 2 0 
N 11 63 0 
N 67 64 0 
N 78 23 0 
N 40 16 0 
N 62 35 0 
N 39 14 0 
N 10 89 0 
N 8 38 0 
N 21 76 0 
N 59 82 0 
N 24 22 0 
N 59 83 0 
N 7 28 0 
N 30 59 0 
N 67 8 0 
N 70 42 0 
N 61 69 0 
N 67 73 0 
N 84 22 0 
N 72 95 0 
N 92 30 0 
N 9 27 0 
N 8 27 0 
N 48 98 0 
N 40 55 0 
N 6 52 0 
N 3 72 0 
N 73 51 0 
N 12 14 0 
N 87 49 0 
N 17 79 0 
N 36 16 0 
N 70 82 0 
N 16 84 0 
N 61 77 0 
N 84 92 0 
N 8 19 0 
N 93 71 0 
N 89 7 0 
N 61 5 0 
N 66 50 0 
N 16 67 0 
N 5 8 0 
N 30 62 0 
N 61 71 0 
N 9 21 0 
N 52 67 0 
N 62 95 0 
N 45 40 0 
N 94 1 0 
N 82 94 0 
N 62 92 0 
N 70 68 0 
N 79 50 0 
N 43 87 0 
N 23 75 0 
N 26 46 0 
N 33 47 0 
N 67 66 0 
N 22 79 0 
N 36 60 0 
N 76 6 0 
N 48 65 0 
N 31 54 0 
N 16 66 0 
N 4 70 0 
N 47 15 0 
N 64 87 0 
N 22 92 0 
N 2 45 0 
N 28 20 0 
N 64 74 0 
N 51 16 0 
N 64 58 0 
N 17 63 0 
N 16 18 0 
N 78 4 0 
N 5 72 0 
N 13 3 0 
N 16 16 0 
N 91 75 0 
N 7 81 0 
N 71 47 0 
N 1 32 0 
N 32 92 0 
N 7 32 0 
N 62 87 0 
N 7 14 0 
N 15 74 0 
N 27 57 0 
N 40 12 0 
N 88 36 0 
N 99 34 0 
N 78 12 0 
N 6 30 0 
N 68 75 0 
N 72 1 0 
N 62 11 0 
N 74 15 0 
N 74 86 0 
N 60 95 0 
N 63 95 0 
N 62 45 0 
N 98 40 0 
N 41 64 0 
N 88 74 0 
N 59 87 0 
N 94 31 0 
N 80 74 0 
N 16 26 0 
N 14 92 0 
N 61 72 0 
N 95 29 0 
N 21 72 0 
N 20 64 0 
N 99 69 0 
N 45 68 0 
N 3 68 0 
N 23 88 0 
N 14 3 0 
N 9 31 0 
N 78 20 0 
N 96 33 0 
N 37 62 0 
N 98 33 0 
N 63 76 0 
N 54 68 0 
N 21 7 0 
N 48 85 0 
N 50 69 0 
N 62 96 0 
N 66 14 0 
N 72 89 0 
N 84 20 0 
N 29 27 0 
N 17 68 0 
N 1 43 0 
N 53 69 0 
N 61 47 0 
N 8 93 0 
N 78 22 0 
N 17 25 0 
N 23 81 0 
N 5 16 0 
N 70 25 0 
N 54 85 0 
N 0 77 0 
N 61 8 0 
N 72 69 0 
N 57 67 0 
N 72 81 0 
N 69 29 0 
N 25 6 0 
N 77 64 0 
N 44 55 0 
N 0 71 0 
N 11 70 0 
N 95 38 0 
N 66 77 0 
N 70 4 0 
N 92 70 0 
N 15 16 0 
N 1 33 0 
N 53 91 0 
N 22 69 0 
N 3 83 0 
N 62 66 0 
N 18 83 0 
N 63 68 0 
N 85 21 0 
N 62 75 0 
N 91 26 0 
N 61 38 0 
N 49 91 0 
N 93 26 0 
N 77 2 0 
N 61 86 0 
N 64 34 0 
N 61 94 0 
N 62 1 0 
N 22 60 0 
N 57 87 0 
N 67 25 0 
N 64 37 0 
N 79 80 0 
N 2 77 0 
N 28 67 0 
N 28 60 0 
N 6 28 0 
N 5 17 0 
N 3 28 0 
N 18 14 0 
N 19 75 0 
N 59 76 0 
N 61 66 0 
N 81 78 0 
N 22 83 0 
N 4 65 0 
N 2 29 0 
N 1 72 0 
N 64 25 0 
N 20 34 0 
N 98 74 0 
N 74 29 0 
N 89 56 0 
N 72 21 0 
N 2 71 0 
N 66 76 0 
N 62 50 0 
N 23 18 0 
N 68 72 0 
N 62 54 0 
N 81 61 0 
N 14 20 0 
N 65 69 0 
N 6 23 0 
N 16 12 0 
N 72 63 0 
N 30 92 0 
N 13 66 0 
N 94 40 0 
N 4 19 0 
N 61 56 0 
N 27 10 0 
N 27 14 0 
N 25 60 0 
N 21 62 0 
N 11 4 0 
N 69 89 0 
N 55 81 0 
N 60 58 0 
N 56 87 0 
N 14 18 0 
N 16 11 0 
N 3 17 0 
N 79 29 0 
N 39 25 0 
N 92 42 0 
N 63 33 0 
N 60 24 0 
N 11 74 0 
N 14 70 0 
N 16 20 0 
N 3 29 0 
N 76 28 0 
N 93 45 0 
N 4 20 0 
N 54 77 0 
N 60 36 0 
N 89 86 0 
N 62 37 0 
N 75 54 0 
N 71 71 0 
N 59 71 0 
N 66 47 0 
N 83 93 0 
N 4 15 0 
N 49 86 0 
N 11 2 0 
N 26 50 0 
N 35 51 0 
N 62 59 0 
N 77 25 0 
N 99 26 0 
N 24 36 0 
N 62 62 0 
N 98 15 0 
N 0 25 0 
N 63 66 0 
N 10 17 0 
N 69 5 0 
N 31 70 0 
N 67 19 0 
N 25 74 0 
N 63 18 0 
N 73 88 0 
N 41 48 0 
N 85 8 0 
N 83 1 0 
N 60 12 0 
N 33 55 0 
N 67 49 0 
N 36 14 0 
N 66 86 0 
N 33 86 0 
N 62 3 0 
N 60 9 0 
N 32 79 0 
N 34 44 0 
N 74 6 0 
N 11 67 0 
N 9 29 0 
N 6 19 0 
N 93 36 0 
N 70 87 0 
N 90 2 0 
N 6 62 0 
N 31 83 0 
N 16 91 0 
N 59 54 0 
N 64 8 0 
N 29 64 0 
N 65 66 0 
N 6 43 0 
N 64 1 0 
N 61 31 0 
N 22 87 0 
N 29 37 0 
N 95 76 0 
N 38 6 0 
N 69 51 0 
N 33 54 0 
N 72 96 0 
N 55 90 0 
N 61 1 0 
N 10 22 0 
N 25 81 0 
N 44 92 0 
N 37 73 0 
N 18 11 0 
N 66 35 0 
N 9 2 0 
N 63 9 0 
N 12 78 0 
N 66 71 0 
N 59 73 0 
N 14 72 0 
N 8 16 0 
N 91 47 0 
N 28 68 0 
N 63 77 0 
N 30 17 0 
N 66 3 0 
N 64 21 0 
N 92 3 0 
N 59 89 0 
N 8 31 0 
N 63 71 0 
N 50 37 0 
N 85 5 0 
N 87 44 0 
N 64 17 0 
N 91 38 0 
N 37 30 0 
N 27 95 0 
N 19 88 0 
N 61 6 0 
N 75 3 0 
N 87 73 0 
N 28 24 0 
N 16 29 0 
N 98 78 0 
N 60 4 0 
N 77 27 0 
N 11 16 0 
N 28 89 0 
N 90 3 0 
N 58 85 0 
N 81 85 0 
N 73 84 0 
N 61 83 0 
N 74 23 0 
N 62 82 0 
N 21 65 0 
N 76 18 0 
N 61 60 0 
N 72 19 0 
N 0 66 0 
N 75 31 0 
N 21 68 0 
N 10 11 0 
N 60 25 0 
N 59 29 0 
N 19 81 0 
N 49 5 0 
N 24 92 0 
N 45 66 0 
N 71 19 0 
N 61 32 0 
N 39 85 0 
N 84 54 0 
N 49 79 0 
N 65 78 0 
N 23 22 0 
N 62 7 0 
N 23 28 0 
N 6 31 0 
N 65 8 0 
N 69 24 0 
N 60 55 0 
N 92 33 0 
N 91 31 0 
N 64 67 0 
N 30 85 0 
N 65 7 0 
N 61 9 0 
N 47 81 0 
N 62 27 0 
N 35 67 0 
N 58 5 0 
N 58 88 0 
N 59 59 0 
N 87 2 0 
N 65 59 0 
N 63 28 0 
N 66 91 0 
N 10 21 0 
N 27 12 0 
N 61 57 0 
N 5 25 0 
N 12 84 0 
N 59 12 0 
N 34 69 0 
C 0 0 0 
C 10 0 0 
C 20 0 0 
C 30 0 0 
C 40 0 0 
C 50 0 0 
C 60 0 0 
C 70 0 0 
C 80 0 0 
C 90 0 0 
C 100 0 0 
C 0 10 0 
C 10 10 0 
C 20 10 0 
C 30 10 0 
C 40 10 0 
C 50 10 0 
C 60 10 0 
C 70 10 0 
C 80 10 0 
C 90 10 0 
C 100 10 0 
C 0 20 0 
C 10 20 0 
C 20 20 0 
C 30 20 0 
C 40 20 0 
C 50 20 0 
C 60 20 0 
C 70 20 0 
C 80 20 0 
C 90 20 0 
C 100 20 0 
C 0 30 0 
C 10 30 0 
C 20 30 0 
C 30 30 0 
C 40 30 0 
C 50 30 0 
C 60 30 0 
C 70 30 0 
C 80 30 0 
C 90 30 0 
C 100 30 0 
C 0 40 0 
C 10 40 0 
C 20 40 0 
C 30 40 0 
C 40 40 0 
C 50 40 0 
C 60 40 0 
C 70 40 0 
C 80 40 0 
C 90 40 0 
C 100 40 0 
C 0 50 0 
C 10 50 0 
C 20 50 0 
C 30 50 0 
C 40 50 0 
C 50 50 0 
C 60 50 0 
C 70 50 0 
C 80 50 0 
C 90 50 0 
C 100 50 0 
C 0 60 0 
C 10 60 0 
C 20 60 0 
C 30 60 0 
C 40 60 0 
C 50 60 0 
C 60 60 0 
C 70 60 0 
C 80 60 0 
C 90 60 0 
C 100 60 0 
C 0 70 0 
C 10 70 0 
C 20 70 0 
C 30 70 0 
C 40 70 0 
C 50 70 0 
C 60 70 0 
C 70 70 0 
C 80 70 0 
C 90 70 0 
C 100 70 0 
C 0 80 0 
C 10 80 0 
C 20 80 0 
C 30 80 0 
C 40 80 0 
C 50 80 0 
C 60 80 0 
C 70 80 0 
C 80 80 0 
C 90 80 0 
C 100 80 0 
C 0 90 0 
C 10 90 0 
C 20 90 0 
C 30 90 0 
C 40 90 0 
C 50 90 0 
C 60 90 0 
C 70 90 0 
C 80 90 0 
C 90 90 0 
C 100 90 0 
C 0 100 0 
C 10 100 0 
C 20 100 0 
C 30 100 0 
C 40 100 0 
C 50 100 0 
C 60 100 0 
C 70 100 0 
C 80 100 0 
C 90 100 0 
C 100 100 0 
O 59 0 0 
622
Atoms. Timestep: 39
N 83 9 0 
N 27 64 0 
N 22 73 0 
N 59 87 0 
N 26 19 0 
N 59 23 0 
N 71 67 0 
N 5 42 0 
N 7 41 0 
N 59 26 0 
N 86 65 0 
N 17 5 0 
N 65 26 0 
N 64 10 0 
N 90 89 0 
N 66 67 0 
N 60 82 0 
N 59 61 0 
N 24 25 0 
N 35 62 0 
N 7 83 0 
N 17 70 0 
N 9 1 0 
N 17 83 0 
N 83 23 0 
N 10 22 0 
N 79 72 0 
N 65 52 0 
N 65 96 0 
N 93 22 0 
N 78 4 0 
N 62 8 0 
N 18 19 0 
N 52 85 0 
N 59 73 0 
N 59 96 0 
N 15 83 0 
N 87 8 0 
N 85 74 0 
N 62 98 0 
N 78 98 0 
N 5 28 0 
N 65 18 0 
N 38 54 0 
N 12 87 0 
N 65 22 0 
N 64 18 0 
N 45 6 0 
N 30 68 0 
N 96 47 0 
N 21 20 0 
N 74 58 0 
N 91 70 0 
N 28 3 0 
N 65 2 0 
N 63 80 0 
N 91 5 0 
N 61 16 0 
N 72 5 0 
N 32 89 0 
N 2 38 0 
N 94 27 0 
N 30 55 0 
N 59 46 0 
N 62 22 0 
N 41 56 0 
N 64 69 0 
N 60 42 0 
N 88 69 0 
N 21 15 0 
N 29 16 0 
N 60 24 0 
N 30 38 0 
N 4 13 0 
N 15 20 0 
N 96 70 0 
N 20 73 0 
N 72 85 0 
N 61 69 0 
N 83 5 0 
N 8 21 0 
N 65 72 0 
N 99 69 0 
N 59 97 0 
N 13 19 0 
N 68 79 0 
N 62 1 0 
N 10 63 0 
N 66 64 0 
N 78 22 0 
N 41 16 0 
N 61 35 0 
N 40 14 0 
N 9 89 0 
N 8 39 0 
N 21 75 0 
N 59 81 0 
N 24 21 0 
N 59 83 0 
N 7 29 0 
N 31 59 0 
N 67 7 0 
N 70 43 0 
N 61 68 0 
N 66 73 0 
N 83 22 0 
N 72 94 0 
N 93 30 0 
N 8 27 0 
N 8 28 0 
N 48 97 0 
N 41 55 0 
N 5 52 0 
N 2 72 0 
N 72 51 0 
N 11 14 0 
N 86 49 0 
N 16 79 0 
N 36 15 0 
N 70 83 0 
N 15 84 0 
N 60 77 0 
N 84 91 0 
N 8 18 0 
N 94 71 0 
N 88 7 0 
N 60 5 0 
N 65 50 0 
N 17 67 0 
N 6 8 0 
N 29 62 0 
N 60 71 0 
N 9 22 0 
N 52 66 0 
N 61 95 0 
N 46 40 0 
N 94 0 0 
N 81 94 0 
N 62 93 0 
N 70 67 0 
N 79 49 0 
N 44 87 0 
N 23 76 0 
N 26 47 0 
N 33 46 0 
N 67 65 0 
N 22 78 0 
N 35 60 0 
N 75 6 0 
N 49 65 0 
N 31 53 0 
N 16 65 0 
N 3 70 0 
N 47 14 0 
N 64 86 0 
N 23 92 0 
N 3 45 0 
N 28 19 0 
N 64 73 0 
N 52 16 0 
N 63 58 0 
N 16 63 0 
N 15 18 0 
N 78 3 0 
N 4 72 0 
N 13 2 0 
N 17 16 0 
N 91 76 0 
N 6 81 0 
N 70 47 0 
N 0 32 0 
N 33 92 0 
N 7 33 0 
N 61 87 0 
N 8 14 0 
N 15 75 0 
N 27 56 0 
N 40 11 0 
N 88 35 0 
N 0 34 0 
N 77 12 0 
N 6 29 0 
N 67 75 0 
N 71 1 0 
N 62 10 0 
N 73 15 0 
N 74 85 0 
N 59 95 0 
N 63 94 0 
N 62 44 0 
N 98 39 0 
N 41 63 0 
N 88 73 0 
N 59 86 0 
N 94 30 0 
N 79 74 0 
N 16 25 0 
N 13 92 0 
N 60 72 0 
N 95 28 0 
N 22 72 0 
N 20 63 0 
N 98 69 0 
N 45 67 0 
N 3 69 0 
N 24 88 0 
N 14 2 0 
N 9 32 0 
N 78 19 0 
N 96 32 0 
N 36 62 0 
N 97 33 0 
N 63 75 0 
N 55 68 0 
N 21 6 0 
N 49 85 0 
N 50 68 0 
N 61 96 0 
N 66 13 0 
N 71 89 0 
N 83 20 0 
N 29 28 0 
N 18 68 0 
N 2 43 0 
N 53 68 0 
N 61 46 0 
N 8 94 0 
N 77 22 0 
N 18 25 0 
N 24 81 0 
N 5 15 0 
N 69 25 0 
N 54 84 0 
N 0 78 0 
N 61 7 0 
N 72 68 0 
N 58 67 0 
N 72 80 0 
N 68 29 0 
N 26 6 0 
N 78 64 0 
N 45 55 0 
N 99 71 0 
N 11 71 0 
N 94 38 0 
N 66 76 0 
N 70 3 0 
N 92 69 0 
N 15 17 0 
N 1 34 0 
N 54 91 0 
N 22 68 0 
N 2 83 0 
N 62 65 0 
N 18 82 0 
N 62 68 0 
N 85 20 0 
N 62 74 0 
N 91 25 0 
N 60 38 0 
N 50 91 0 
N 94 26 0 
N 76 2 0 
N 61 85 0 
N 63 34 0 
N 61 93 0 
N 62 0 0 
N 23 60 0 
N 57 86 0 
N 66 25 0 
N 63 37 0 
N 78 80 0 
N 3 77 0 
N 29 67 0 
N 28 59 0 
N 6 27 0 
N 5 18 0 
N 3 27 0 
N 18 15 0 
N 19 74 0 
N 59 75 0 
N 61 65 0 
N 80 78 0 
N 21 83 0 
N 4 66 0 
N 2 30 0 
N 0 72 0 
N 64 24 0 
N 20 35 0 
N 97 74 0 
N 73 29 0 
N 89 57 0 
N 71 21 0 
N 1 71 0 
N 65 76 0 
N 62 51 0 
N 23 17 0 
N 67 72 0 
N 62 53 0 
N 82 61 0 
N 13 20 0 
N 65 68 0 
N 5 23 0 
N 17 12 0 
N 71 63 0 
N 31 92 0 
N 12 66 0 
N 93 40 0 
N 5 19 0 
N 60 56 0 
N 28 10 0 
N 28 14 0 
N 25 61 0 
N 21 63 0 
N 12 4 0 
N 69 88 0 
N 56 81 0 
N 60 58 0 
N 56 86 0 
N 14 17 0 
N 16 10 0 
N 3 18 0 
N 79 28 0 
N 39 24 0 
N 92 43 0 
N 62 33 0 
N 59 24 0 
N 10 74 0 
N 14 69 0 
N 16 19 0 
N 3 30 0 
N 75 28 0 
N 94 45 0 
N 3 20 0 
N 54 78 0 
N 60 35 0 
N 88 86 0 
N 62 36 0 
N 75 55 0 
N 70 71 0 
N 59 70 0 
N 66 46 0 
N 83 92 0 
N 3 15 0 
N 50 86 0 
N 12 2 0 
N 26 49 0 
N 35 50 0 
N 62 58 0 
N 76 25 0 
N 0 26 0 
N 24 37 0 
N 61 62 0 
N 97 15 0 
N 1 25 0 
N 63 65 0 
N 10 16 0 
N 69 4 0 
N 31 69 0 
N 67 18 0 
N 26 74 0 
N 62 18 0 
N 73 87 0 
N 40 48 0 
N 84 8 0 
N 82 1 0 
N 59 12 0 
N 33 54 0 
N 66 49 0 
N 37 14 0 
N 65 86 0 
N 33 85 0 
N 61 3 0 
N 59 9 0 
N 32 78 0 
N 34 45 0 
N 73 6 0 
N 12 67 0 
N 10 29 0 
N 6 18 0 
N 93 37 0 
N 70 86 0 
N 89 2 0 
N 6 63 0 
N 32 83 0 
N 17 91 0 
N 59 53 0 
N 64 8 0 
N 28 64 0 
N 65 65 0 
N 6 42 0 
N 63 1 0 
N 61 30 0 
N 22 86 0 
N 29 36 0 
N 95 75 0 
N 38 5 0 
N 68 51 0 
N 32 54 0 
N 71 96 0 
N 56 90 0 
N 61 2 0 
N 10 21 0 
N 25 82 0 
N 44 91 0 
N 37 72 0 
N 18 10 0 
N 65 35 0 
N 9 3 0 
N 63 8 0 
N 12 77 0 
N 65 71 0 
N 58 73 0 
N 14 71 0 
N 8 17 0 
N 90 47 0 
N 29 68 0 
N 62 77 0 
N 31 17 0 
N 66 2 0 
N 64 20 0 
N 92 2 0 
N 59 89 0 
N 7 31 0 
N 63 70 0 
N 51 37 0 
N 84 5 0 
N 86 44 0 
N 64 16 0 
N 91 39 0 
N 38 30 0 
N 28 95 0 
N 18 88 0 
N 60 6 0 
N 74 3 0 
N 86 73 0 
N 28 23 0 
N 16 28 0 
N 99 78 0 
N 60 3 0 
N 76 27 0 
N 11 17 0 
N 29 89 0 
N 89 3 0 
N 59 85 0 
N 81 84 0 
N 73 83 0 
N 60 83 0 
N 74 22 0 
N 62 81 0 
N 21 64 0 
N 75 18 0 
N 61 59 0 
N 72 18 0 
N 99 66 0 
N 74 31 0 
N 21 69 0 
N 10 12 0 
N 59 25 0 
N 59 28 0 
N 19 80 0 
N 49 4 0 
N 25 92 0 
N 45 65 0 
N 70 19 0 
N 60 32 0 
N 39 84 0 
N 84 53 0 
N 49 78 0 
N 65 77 0 
N 22 22 0 
N 62 6 0 
N 22 28 0 
N 5 31 0 
N 65 7 0 
N 68 24 0 
N 59 55 0 
N 92 34 0 
N 91 30 0 
N 63 67 0 
N 31 85 0 
N 64 7 0 
N 61 9 0 
N 47 80 0 
N 61 27 0 
N 35 68 0 
N 59 5 0 
N 58 87 0 
N 59 58 0 
N 87 1 0 
N 64 59 0 
N 62 28 0 
N 65 91 0 
N 11 21 0 
N 28 12 0 
N 60 57 0 
N 6 25 0 
N 13 84 0 
N 58 12 0 
N 33 69 0 
C 0 0 0 
C 10 0 0 
C 20 0 0 
C 30 0 0 
C 40 0 0 
C 50 0 0 
C 60 0 0 
C 70 0 0 
C 80 0 0 
C 90 0 0 
C 100 0 0 
C 0 10 0 
C 10 10 0 
C 20 10 0 
C 30 10 0 
C 40 10 0 
C 50 10 0 
C 60 10 0 
C 70 10 0 
C 80 10 0 
C 90 10 0 
C 100 10 0 
C 0 20 0 
C 10 20 0 
C 20 20 0 
C 30 20 0 
C 40 20 0 
C 50 20 0 
C 60 20 0 
C 70 20 0 
C 80 20 0 
C 90 20 0 
C 100 20 0 
C 0 30 0 
C 10 30 0 
C 20 30 0 
C 30 30 0 
C 40 30 0 
C 50 30 0 
C 60 30 0 
C 70 30 0 
C 80 30 0 
C 90 30 0 
C 100 30 0 
C 0 40 0 
C 10 40 0 
C 20 40 0 
C 30 40 0 
C 40 40 0 
C 50 40 0 
C 60 40 0 
C 70 40 0 
C 80 40 0 
C 90 40 0 
C 100 40 0 
C 0 50 0 
C 10 50 0 
C 20 50 0 
C 30 50 0 
C 40 50 0 
C 50 50 0 
C 60 50 0 
C 70 50 0 
C 80 50 0 
C 90 50 0 
C 100 50 0 
C 0 60 0 
C 10 60 0 
C 20 60 0 
C 30 60 0 
C 40 60 0 
C 50 60 0 
C 60 60 0 
C 70 60 0 
C 80 60 0 
C 90 60 0 
C 100 60 0 
C 0 70 0 
C 10 70 0 
C 20 70 0 
C 30 70 0 
C 40 70 0 
C 50 70 0 
C 60 70 0 
C 70 70 0 
C 80 70 0 
C 90 70 0 
C 100 70 0 
C 0 80 0 
C 10 80 0 
C 20 80 0 
C 30 80 0 
C 40 80 0 
C 50 80 0 
C 60 80 0 
C 70 80 0 
C 80 80 0 
C 90 80 0 
C 100 80 0 
C 0 90 0 
C 10 90 0 
C 20 90 0 
C 30 90 0 
C 40 90 0 
C 50 90 0 
C 60 90 0 
C 70 90 0 
C 80 90 0 
C 90 90 0 
C 100 90 0 
C 0 100 0 
C 10 100 0 
C 20 100 0 
C 30 100 0 
C 40 100 0 
C 50 100 0 
C 60 100 0 
C 70 100 0 
C 80 100 0 
C 90 100 0 
C 100 100 0 
O 58 0 0 
622
Atoms. Timestep: 40
N 82 9 0 
N 27 63 0 
N 23 73 0 
N 58 87 0 
N 25 19 0 
N 58 23 0 
N 70 67 0 
N 4 42 0 
N 7 40 0 
N 59 25 0 
N 85 65 0 
N 18 5 0 
N 65 25 0 
N 63 10 0 
N 89 89 0 
N 66 66 0 
N 59 82 0 
N 58 61 0 
N 23 25 0 
N 36 62 0 
N 7 84 0 
N 16 70 0 
N 9 0 0 
N 17 84 0 
N 83 22 0 
N 10 21 0 
N 78 72 0 
N 64 52 0 
N 65 95 0 
N 93 21 0 
N 77 4 0 
N 62 7 0 
N 18 20 0 
N 53 85 0 
N 58 73 0 
N 58 96 0 
N 16 83 0 
N 86 8 0 
N 84 74 0 
N 62 97 0 
N 77 98 0 
N 4 28 0 
N 65 19 0 
N 39 54 0 
N 13 87 0 
N 65 21 0 
N 64 17 0 
N 45 5 0 
N 30 69 0 
N 96 46 0 
N 21 21 0 
N 74 59 0 
N 91 71 0 
N 29 3 0 
N 64 2 0 
N 63 79 0 
N 91 4 0 
N 60 16 0 
N 71 5 0 
N 33 89 0 
N 1 38 0 
N 95 27 0 
N 30 54 0 
N 59 45 0 
N 61 22 0 
N 41 57 0 
N 63 69 0 
N 59 42 0 
N 87 69 0 
N 22 15 0 
N 29 15 0 
N 60 23 0 
N 31 38 0 
N 4 14 0 
N 15 21 0 
N 96 69 0 
N 21 73 0 
N 71 85 0 
N 61 68 0 
N 82 5 0 
N 7 21 0 
N 65 71 0 
N 98 69 0 
N 58 97 0 
N 12 19 0 
N 67 79 0 
N 61 1 0 
N 10 64 0 
N 66 63 0 
N 78 21 0 
N 42 16 0 
N 61 34 0 
N 40 13 0 
N 8 89 0 
N 7 39 0 
N 21 76 0 
N 59 80 0 
N 23 21 0 
N 58 83 0 
N 7 28 0 
N 32 59 0 
N 66 7 0 
N 70 42 0 
N 60 68 0 
N 66 72 0 
N 83 21 0 
N 71 94 0 
N 93 29 0 
N 9 27 0 
N 8 29 0 
N 48 96 0 
N 40 55 0 
N 6 52 0 
N 3 72 0 
N 71 51 0 
N 12 14 0 
N 87 49 0 
N 16 80 0 
N 36 14 0 
N 69 83 0 
N 16 84 0 
N 60 76 0 
N 84 90 0 
N 9 18 0 
N 93 71 0 
N 87 7 0 
N 60 4 0 
N 64 50 0 
N 17 66 0 
N 5 8 0 
N 30 62 0 
N 59 71 0 
N 8 22 0 
N 52 67 0 
N 61 94 0 
N 46 39 0 
N 93 0 0 
N 80 94 0 
N 62 92 0 
N 69 67 0 
N 80 49 0 
N 44 86 0 
N 22 76 0 
N 26 46 0 
N 33 47 0 
N 67 64 0 
N 21 78 0 
N 36 60 0 
N 74 6 0 
N 50 65 0 
N 32 53 0 
N 16 66 0 
N 4 70 0 
N 48 14 0 
N 64 85 0 
N 24 92 0 
N 2 45 0 
N 29 19 0 
N 63 73 0 
N 52 15 0 
N 62 58 0 
N 17 63 0 
N 14 18 0 
N 78 2 0 
N 4 71 0 
N 14 2 0 
N 17 17 0 
N 90 76 0 
N 6 82 0 
N 69 47 0 
N 0 33 0 
N 33 91 0 
N 7 34 0 
N 61 86 0 
N 8 13 0 
N 14 75 0 
N 27 55 0 
N 41 11 0 
N 89 35 0 
N 0 35 0 
N 78 12 0 
N 5 29 0 
N 67 74 0 
N 70 1 0 
N 62 11 0 
N 72 15 0 
N 74 84 0 
N 59 94 0 
N 63 93 0 
N 62 43 0 
N 97 39 0 
N 40 63 0 
N 89 73 0 
N 59 85 0 
N 94 31 0 
N 78 74 0 
N 16 24 0 
N 12 92 0 
N 59 72 0 
N 96 28 0 
N 22 71 0 
N 21 63 0 
N 98 68 0 
N 46 67 0 
N 2 69 0 
N 24 87 0 
N 15 2 0 
N 9 31 0 
N 78 18 0 
N 96 31 0 
N 36 63 0 
N 97 32 0 
N 62 75 0 
N 55 67 0 
N 22 6 0 
N 49 84 0 
N 51 68 0 
N 60 96 0 
N 65 13 0 
N 70 89 0 
N 82 20 0 
N 29 29 0 
N 19 68 0 
N 2 42 0 
N 53 67 0 
N 61 45 0 
N 7 94 0 
N 77 21 0 
N 18 26 0 
N 24 82 0 
N 5 14 0 
N 68 25 0 
N 55 84 0 
N 1 78 0 
N 60 7 0 
N 72 67 0 
N 58 66 0 
N 72 79 0 
N 68 28 0 
N 27 6 0 
N 77 64 0 
N 45 54 0 
N 98 71 0 
N 11 70 0 
N 95 38 0 
N 66 75 0 
N 70 2 0 
N 91 69 0 
N 15 16 0 
N 1 35 0 
N 55 91 0 
N 22 67 0 
N 2 82 0 
N 62 64 0 
N 18 83 0 
N 62 68 0 
N 85 19 0 
N 62 73 0 
N 91 24 0 
N 59 38 0 
N 51 91 0 
N 95 26 0 
N 75 2 0 
N 61 84 0 
N 62 34 0 
N 61 92 0 
N 61 0 0 
N 23 59 0 
N 57 85 0 
N 66 24 0 
N 62 37 0 
N 77 80 0 
N 3 76 0 
N 29 68 0 
N 28 58 0 
N 6 26 0 
N 5 17 0 
N 2 27 0 
N 19 15 0 
N 19 73 0 
N 59 76 0 
N 60 65 0 
N 80 77 0 
N 21 84 0 
N 4 65 0 
N 2 29 0 
N 0 73 0 
N 63 24 0 
N 19 35 0 
N 96 74 0 
N 73 28 0 
N 89 58 0 
N 70 21 0 
N 1 72 0 
N 64 76 0 
N 63 51 0 
N 22 17 0 
N 67 71 0 
N 62 54 0 
N 82 62 0 
N 13 21 0 
N 64 68 0 
N 5 24 0 
N 16 12 0 
N 71 62 0 
N 31 91 0 
N 13 66 0 
N 94 40 0 
N 5 20 0 
N 59 56 0 
N 28 9 0 
N 29 14 0 
N 25 60 0 
N 22 63 0 
N 12 3 0 
N 68 88 0 
N 57 81 0 
N 59 58 0 
N 56 85 0 
N 13 17 0 
N 15 10 0 
N 3 17 0 
N 78 28 0 
N 39 23 0 
N 91 43 0 
N 61 33 0 
N 58 24 0 
N 11 74 0 
N 14 70 0 
N 16 20 0 
N 3 29 0 
N 75 27 0 
N 94 46 0 
N 4 20 0 
N 55 78 0 
N 59 35 0 
N 87 86 0 
N 61 36 0 
N 75 54 0 
N 69 71 0 
N 59 69 0 
N 66 45 0 
N 82 92 0 
N 2 15 0 
N 50 85 0 
N 12 1 0 
N 25 49 0 
N 35 51 0 
N 62 57 0 
N 75 25 0 
N 0 25 0 
N 24 38 0 
N 60 62 0 
N 96 15 0 
N 1 26 0 
N 63 64 0 
N 10 17 0 
N 69 3 0 
N 32 69 0 
N 67 17 0 
N 26 73 0 
N 61 18 0 
N 73 86 0 
N 40 49 0 
N 83 8 0 
N 82 0 0 
N 59 11 0 
N 34 54 0 
N 66 50 0 
N 38 14 0 
N 65 85 0 
N 34 85 0 
N 61 2 0 
N 59 8 0 
N 32 77 0 
N 35 45 0 
N 73 5 0 
N 13 67 0 
N 9 29 0 
N 6 19 0 
N 93 36 0 
N 69 86 0 
N 88 2 0 
N 6 62 0 
N 33 83 0 
N 17 90 0 
N 58 53 0 
N 64 9 0 
N 28 63 0 
N 66 65 0 
N 6 43 0 
N 63 0 0 
N 62 30 0 
N 23 86 0 
N 29 35 0 
N 94 75 0 
N 38 4 0 
N 67 51 0 
N 31 54 0 
N 71 95 0 
N 56 89 0 
N 60 2 0 
N 9 21 0 
N 26 82 0 
N 44 90 0 
N 37 71 0 
N 19 10 0 
N 64 35 0 
N 8 3 0 
N 63 7 0 
N 11 77 0 
N 64 71 0 
N 58 72 0 
N 15 71 0 
N 8 16 0 
N 89 47 0 
N 29 69 0 
N 62 76 0 
N 31 16 0 
N 66 1 0 
N 63 20 0 
N 91 2 0 
N 58 89 0 
N 7 30 0 
N 62 70 0 
N 52 37 0 
N 84 4 0 
N 85 44 0 
N 63 16 0 
N 91 40 0 
N 39 30 0 
N 28 94 0 
N 19 88 0 
N 59 6 0 
N 74 2 0 
N 86 72 0 
N 28 24 0 
N 15 28 0 
N 99 79 0 
N 59 3 0 
N 76 26 0 
N 11 18 0 
N 30 89 0 
N 88 3 0 
N 58 85 0 
N 80 84 0 
N 73 82 0 
N 60 83 0 
N 74 21 0 
N 62 80 0 
N 20 64 0 
N 75 17 0 
N 61 58 0 
N 71 18 0 
N 99 65 0 
N 73 31 0 
N 21 70 0 
N 10 13 0 
N 58 25 0 
N 58 28 0 
N 19 79 0 
N 49 3 0 
N 26 92 0 
N 45 64 0 
N 70 18 0 
N 59 32 0 
N 39 83 0 
N 84 54 0 
N 49 77 0 
N 64 77 0 
N 21 22 0 
N 61 6 0 
N 22 27 0 
N 4 31 0 
N 65 6 0 
N 67 24 0 
N 58 55 0 
N 92 33 0 
N 92 30 0 
N 62 67 0 
N 31 84 0 
N 64 6 0 
N 60 9 0 
N 47 79 0 
N 60 27 0 
N 35 67 0 
N 58 5 0 
N 58 86 0 
N 58 58 0 
N 87 0 0 
N 64 58 0 
N 61 28 0 
N 64 91 0 
N 12 21 0 
N 29 12 0 
N 59 57 0 
N 6 24 0 
N 12 84 0 
N 58 11 0 
N 33 68 0 
C 0 0 0 
C 10 0 0 
C 20 0 0 
C 30 0 0 
C 40 0 0 
C 50 0 0 
C 60 0 0 
C 70 0 0 
C 80 0 0 
C 90 0 0 
C 100 0 0 
C 0 10 0 
C 10 10 0 
C 20 10 0 
C 30 10 0 
C 40 10 0 
C 50 10 0 
C 60 10 0 
C 70 10 0 
C 80 10 0 
C 90 10 0 
C 100 10 0 
C 0 20 0 
C 10 20 0 
C 20 20 0 
C 30 20 0 
C 40 20 0 
C 50 20 0 
C 60 20 0 
C 70 20 0 
C 80 20 0 
C 90 20 0 
C 100 20 0 
C 0 30 0 
C 10 30 0 
C 20 30 0 
C 30 30 0 
C 40 30 0 
C 50 30 0 
C 60 30 0 
C 70 30 0 
C 80 30 0 
C 90 30 0 
C 100 30 0 
C 0 40 0 
C 10 40 0 
C 20 40 0 
C 30 40 0 
C 40 40 0 
C 50 40 0 
C 60 40 0 
C 70 40 0 
C 80 40 0 
C 90 40 0 
C 100 40 0 
C 0 50 0 
C 10 50 0 
C 20 50 0 
C 30 50 0 
C 40 50 0 
C 50 50 0 
C 60 50 0 
C 70 50 0 
C 80 50 0 
C 90 50 0 
C 100 50 0 
C 0 60 0 
C 10 60 0 
C 20 60 0 
C 30 60 0 
C 40 60 0 
C 50 60 0 
C 60 60 0 
C 70 60 0 
C 80 60 0 
C 90 60 0 
C 100 60 0 
C 0 70 0 
C 10 70 0 
C 20 70 0 
C 30 70 0 
C 40 70 0 
C 50 70 0 
C 60 70 0 
C 70 70 0 
C 80 70 0 
C 90 70 0 
C 100 70 0 
C 0 80 0 
C 10 80 0 
C 20 80 0 
C 30 80 0 
C 40 80 0 
C 50 80 0 
C 60 80 0 
C 70 80 0 
C 80 80 0 
C 90 80 0 
C 100 80 0 
C 0 90 0 
C 10 90 0 
C 20 90 0 
C 30 90 0 
C 40 90 0 
C 50 90 0 
C 60 90 0 
C 70 90 0 
C 80 90 0 
C 90 90 0 
C 100 90 0 
C 0 100 0 
C 10 100 0 
C 20 100 0 
C 30 100 0 
C 40 100 0 
C 50 100 0 
C 60 100 0 
C 70 100 0 
C 80 100 0 
C 90 100 0 
C 100 100 0 
O 58 99 0 
622
Atoms. Timestep: 41
N 81 9 0 
N 26 63 0 
N 22 73 0 
N 58 88 0 
N 24 19 0 
N 58 22 0 
N 70 68 0 
N 5 42 0 
N 6 40 0 
N 59 26 0 
N 85 66 0 
N 18 6 0 
N 65 26 0 
N 63 11 0 
N 89 90 0 
N 65 66 0 
N 58 82 0 
N 58 62 0 
N 24 25 0 
N 36 63 0 
N 7 85 0 
N 16 71 0 
N 9 1 0 
N 17 83 0 
N 82 22 0 
N 11 21 0 
N 77 72 0 
N 65 52 0 
N 64 95 0 
N 94 21 0 
N 76 4 0 
N 62 8 0 
N 17 20 0 
N 54 85 0 
N 58 74 0 
N 58 97 0 
N 16 82 0 
N 85 8 0 
N 84 75 0 
N 61 97 0 
N 77 99 0 
N 5 28 0 
N 65 20 0 
N 39 55 0 
N 13 88 0 
N 64 21 0 
N 64 18 0 
N 45 6 0 
N 31 69 0 
N 97 46 0 
N 20 21 0 
N 75 59 0 
N 92 71 0 
N 29 4 0 
N 64 3 0 
N 62 79 0 
N 90 4 0 
N 59 16 0 
N 71 6 0 
N 33 90 0 
N 2 38 0 
N 94 27 0 
N 30 55 0 
N 58 45 0 
N 61 23 0 
N 41 56 0 
N 63 70 0 
N 58 42 0 
N 88 69 0 
N 23 15 0 
N 30 15 0 
N 60 24 0 
N 31 37 0 
N 4 13 0 
N 14 21 0 
N 97 69 0 
N 21 74 0 
N 71 86 0 
N 61 69 0 
N 81 5 0 
N 6 21 0 
N 65 72 0 
N 98 70 0 
N 58 98 0 
N 11 19 0 
N 66 79 0 
N 61 2 0 
N 9 64 0 
N 65 63 0 
N 77 21 0 
N 43 16 0 
N 61 35 0 
N 40 14 0 
N 8 88 0 
N 6 39 0 
N 20 76 0 
N 58 80 0 
N 22 21 0 
N 58 84 0 
N 7 27 0 
N 33 59 0 
N 66 8 0 
N 71 42 0 
N 59 68 0 
N 66 73 0 
N 83 21 0 
N 70 94 0 
N 93 28 0 
N 9 26 0 
N 8 30 0 
N 48 95 0 
N 41 55 0 
N 5 52 0 
N 3 71 0 
N 72 51 0 
N 11 14 0 
N 87 48 0 
N 17 80 0 
N 37 14 0 
N 68 83 0 
N 15 84 0 
N 59 76 0 
N 83 90 0 
N 9 17 0 
N 94 71 0 
N 87 8 0 
N 60 5 0 
N 64 51 0 
N 18 66 0 
N 5 9 0 
N 30 61 0 
N 59 72 0 
N 8 21 0 
N 53 67 0 
N 60 94 0 
N 47 39 0 
N 93 1 0 
N 80 95 0 
N 61 92 0 
N 68 67 0 
N 81 49 0 
N 44 87 0 
N 22 77 0 
N 27 46 0 
N 33 46 0 
N 67 65 0 
N 20 78 0 
N 37 60 0 
N 74 7 0 
N 51 65 0 
N 33 53 0 
N 16 67 0 
N 4 69 0 
N 48 15 0 
N 63 85 0 
N 25 92 0 
N 2 44 0 
N 29 20 0 
N 63 74 0 
N 53 15 0 
N 61 58 0 
N 17 62 0 
N 14 19 0 
N 77 2 0 
N 4 72 0 
N 14 3 0 
N 17 16 0 
N 90 75 0 
N 5 82 0 
N 68 47 0 
N 99 33 0 
N 33 92 0 
N 8 34 0 
N 61 87 0 
N 9 13 0 
N 13 75 0 
N 27 54 0 
N 41 12 0 
N 88 35 0 
N 0 34 0 
N 77 12 0 
N 6 29 0 
N 67 75 0 
N 69 1 0 
N 61 11 0 
N 71 15 0 
N 74 85 0 
N 58 94 0 
N 63 94 0 
N 61 43 0 
N 97 40 0 
N 40 62 0 
N 90 73 0 
N 59 86 0 
N 94 32 0 
N 78 75 0 
N 17 24 0 
N 13 92 0 
N 59 73 0 
N 96 29 0 
N 23 71 0 
N 20 63 0 
N 99 68 0 
N 47 67 0 
N 2 68 0 
N 24 86 0 
N 15 3 0 
N 9 32 0 
N 78 19 0 
N 97 31 0 
N 36 64 0 
N 97 33 0 
N 61 75 0 
N 56 67 0 
N 23 6 0 
N 49 85 0 
N 52 68 0 
N 60 97 0 
N 65 14 0 
N 69 89 0 
N 82 21 0 
N 29 30 0 
N 19 69 0 
N 2 43 0 
N 53 68 0 
N 61 46 0 
N 7 95 0 
N 77 22 0 
N 19 26 0 
N 24 81 0 
N 6 14 0 
N 68 26 0 
N 55 85 0 
N 1 77 0 
N 60 8 0 
N 71 67 0 
N 58 67 0 
N 72 80 0 
N 67 28 0 
N 28 6 0 
N 77 65 0 
N 44 54 0 
N 97 71 0 
N 11 69 0 
N 96 38 0 
N 65 75 0 
N 70 3 0 
N 91 68 0 
N 16 16 0 
N 1 34 0 
N 55 92 0 
N 22 66 0 
N 2 81 0 
N 62 65 0 
N 18 84 0 
N 62 69 0 
N 84 19 0 
N 61 73 0 
N 92 24 0 
N 59 39 0 
N 52 91 0 
N 96 26 0 
N 74 2 0 
N 61 85 0 
N 62 35 0 
N 60 92 0 
N 61 0 0 
N 22 59 0 
N 57 86 0 
N 65 24 0 
N 62 38 0 
N 77 81 0 
N 2 76 0 
N 30 68 0 
N 29 58 0 
N 7 26 0 
N 6 17 0 
N 2 26 0 
N 19 14 0 
N 20 73 0 
N 58 76 0 
N 59 65 0 
N 80 78 0 
N 21 83 0 
N 4 66 0 
N 2 30 0 
N 99 73 0 
N 63 25 0 
N 20 35 0 
N 95 74 0 
N 73 29 0 
N 89 59 0 
N 69 21 0 
N 0 72 0 
N 64 77 0 
N 63 52 0 
N 22 18 0 
N 66 71 0 
N 61 54 0 
N 81 62 0 
N 12 21 0 
N 63 68 0 
N 4 24 0 
N 15 12 0 
N 71 63 0 
N 32 91 0 
N 13 65 0 
N 95 40 0 
N 6 20 0 
N 59 57 0 
N 28 10 0 
N 30 14 0 
N 26 60 0 
N 23 63 0 
N 13 3 0 
N 68 89 0 
N 57 82 0 
N 58 58 0 
N 56 86 0 
N 14 17 0 
N 14 10 0 
N 3 18 0 
N 78 29 0 
N 39 24 0 
N 91 44 0 
N 60 33 0 
N 58 25 0 
N 11 73 0 
N 13 70 0 
N 16 19 0 
N 3 28 0 
N 75 28 0 
N 93 46 0 
N 3 20 0 
N 56 78 0 
N 58 35 0 
N 87 87 0 
N 61 37 0 
N 76 54 0 
N 68 71 0 
N 58 69 0 
N 66 46 0 
N 82 93 0 
N 2 14 0 
N 50 86 0 
N 13 1 0 
N 26 49 0 
N 34 51 0 
N 61 57 0 
N 74 25 0 
N 1 25 0 
N 24 39 0 
N 60 63 0 
N 97 15 0 
N 0 26 0 
N 63 65 0 
N 10 16 0 
N 69 4 0 
N 32 68 0 
N 66 17 0 
N 27 73 0 
N 61 19 0 
N 72 86 0 
N 39 49 0 
N 83 9 0 
N 82 1 0 
N 58 11 0 
N 34 53 0 
N 65 50 0 
N 39 14 0 
N 65 86 0 
N 34 86 0 
N 60 2 0 
N 58 8 0 
N 33 77 0 
N 34 45 0 
N 73 6 0 
N 12 67 0 
N 9 30 0 
N 6 18 0 
N 93 37 0 
N 68 86 0 
N 88 3 0 
N 7 62 0 
N 33 84 0 
N 17 91 0 
N 58 54 0 
N 63 9 0 
N 28 62 0 
N 65 65 0 
N 5 43 0 
N 63 1 0 
N 62 31 0 
N 23 87 0 
N 29 34 0 
N 94 76 0 
N 39 4 0 
N 67 52 0 
N 31 53 0 
N 70 95 0 
N 57 89 0 
N 59 2 0 
N 9 22 0 
N 27 82 0 
N 44 91 0 
N 37 72 0 
N 19 11 0 
N 64 36 0 
N 8 2 0 
N 63 8 0 
N 11 76 0 
N 63 71 0 
N 58 72 0 
N 15 70 0 
N 7 16 0 
N 88 47 0 
N 28 69 0 
N 62 77 0 
N 31 17 0 
N 65 1 0 
N 63 21 0 
N 90 2 0 
N 58 90 0 
N 6 30 0 
N 62 71 0 
N 53 37 0 
N 83 4 0 
N 84 44 0 
N 62 16 0 
N 91 41 0 
N 39 31 0 
N 29 94 0 
N 20 88 0 
N 59 7 0 
N 73 2 0 
N 87 72 0 
N 28 23 0 
N 15 27 0 
N 99 78 0 
N 59 4 0 
N 75 26 0 
N 10 18 0 
N 31 89 0 
N 87 3 0 
N 58 85 0 
N 79 84 0 
N 72 82 0 
N 59 83 0 
N 73 21 0 
N 62 81 0 
N 20 65 0 
N 75 18 0 
N 61 59 0 
N 71 19 0 
N 99 66 0 
N 72 31 0 
N 21 71 0 
N 10 12 0 
N 58 26 0 
N 58 29 0 
N 19 78 0 
N 50 3 0 
N 26 93 0 
N 46 64 0 
N 69 18 0 
N 59 31 0 
N 39 84 0 
N 85 54 0 
N 50 77 0 
N 63 77 0 
N 21 23 0 
N 61 7 0 
N 23 27 0 
N 3 31 0 
N 64 6 0 
N 67 25 0 
N 58 56 0 
N 92 34 0 
N 93 30 0 
N 61 67 0 
N 32 84 0 
N 64 7 0 
N 59 9 0 
N 47 80 0 
N 60 28 0 
N 35 68 0 
N 58 6 0 
N 58 86 0 
N 58 59 0 
N 87 1 0 
N 64 59 0 
N 61 29 0 
N 64 92 0 
N 12 22 0 
N 29 13 0 
N 58 57 0 
N 6 23 0 
N 12 83 0 
N 58 12 0 
N 33 69 0 
C 0 0 0 
C 10 0 0 
C 20 0 0 
C 30 0 0 
C 40 0 0 
C 50 0 0 
C 60 0 0 
C 70 0 0 
C 80 0 0 
C 90 0 0 
C 100 0 0 
C 0 10 0 
C 10 10 0 
C 20 10 0 
C 30 10 0 
C 40 10 0 
C 50 10 0 
C 60 10 0 
C 70 10 0 
C 80 10 0 
C 90 10 0 
C 100 10 0 
C 0 20 0 
C 10 20 0 
C 20 20 0 
C 30 20 0 
C 40 20 0 
C 50 20 0 
C 60 20 0 
C 70 20 0 
C 80 20 0 
C 90 20 0 
C 100 20 0 
C 0 30 0 
C 10 30 0 
C 20 30 0 
C 30 30 0 
C 40 30 0 
C 50 30 0 
C 60 30 0 
C 70 30 0 
C 80 30 0 
C 90 30 0 
C 100 30 0 
C 0 40 0 
C 10 40 0 
C 20 40 0 
C 30 40 0 
C 40 40 0 
C 50 40 0 
C 60 40 0 
C 70 40 0 
C 80 40 0 
C 90 40 0 
C 100 40 0 
C 0 50 0 
C 10 50 0 
C 20 50 0 
C 30 50 0 
C 40 50 0 
C 50 50 0 
C 60 50 0 
C 70 50 0 
C 80 50 0 
C 90 50 0 
C 100 50 0 
C 0 60 0 
C 10 60 0 
C 20 60 0 
C 30 60 0 
C 40 60 0 
C 50 60 0 
C 60 60 0 
C 70 60 0 
C 80 60 0 
C 90 60 0 
C 100 60 0 
C 0 70 0 
C 10 70 0 
C 20 70 0 
C 30 70 0 
C 40 70 0 
C 50 70 0 
C 60 70 0 
C 70 70 0 
C 80 70 0 
C 90 70 0 
C 100 70 0 
C 0 80 0 
C 10 80 0 
C 20 80 0 
C 30 80 0 
C 40 80 0 
C 50 80 0 
C 60 80 0 
C 70 80 0 
C 80 80 0 
C 90 80 0 
C 100 80 0 
C 0 90 0 
C 10 90 0 
C 20 90 0 
C 30 90 0 
C 40 90 0 
C 50 90 0 
C 60 90 0 
C 70 90 0 
C 80 90 0 
C 90 90 0 
C 100 90 0 
C 0 100 0 
C 10 100 0 
C 20 100 0 
C 30 100 0 
C 40 100 0 
C 50 100 0 
C 60 100 0 
C 70 100 0 
C 80 100 0 
C 90 100 0 
C 100 100 0 
O 58 0 0 
622
Atoms. Timestep: 42
N 80 9 0 
N 25 63 0 
N 22 74 0 
N 59 88 0 
N 23 19 0 
N 58 21 0 
N 69 68 0 
N 5 41 0 
N 5 40 0 
N 59 25 0 
N 84 66 0 
N 19 6 0 
N 65 25 0 
N 63 10 0 
N 89 89 0 
N 65 65 0 
N 58 81 0 
N 58 61 0 
N 24 24 0 
N 35 63 0 
N 7 84 0 
N 16 70 0 
N 9 0 0 
N 17 82 0 
N 82 21 0 
N 11 22 0 
N 77 71 0 
N 65 53 0 
N 64 94 0 
N 95 21 0 
N 76 3 0 
N 62 7 0 
N 17 19 0 
N 54 84 0 
N 58 74 0 
N 58 96 0 
N 16 81 0 
N 84 8 0 
N 83 75 0 
N 61 98 0 
N 76 99 0 
N 5 27 0 
N 65 19 0 
N 39 54 0 
N 14 88 0 
N 63 21 0 
N 64 19 0 
N 46 6 0 
N 31 70 0 
N 96 46 0 
N 20 22 0 
N 74 59 0 
N 91 71 0 
N 29 3 0 
N 63 3 0 
N 61 79 0 
N 89 4 0 
N 59 15 0 
N 71 5 0 
N 33 89 0 
N 3 38 0 
N 95 27 0 
N 29 55 0 
N 58 44 0 
N 61 22 0 
N 41 57 0 
N 63 69 0 
N 58 41 0 
N 88 68 0 
N 23 14 0 
N 31 15 0 
N 60 23 0 
N 31 38 0 
N 3 13 0 
N 13 21 0 
N 97 68 0 
N 21 75 0 
N 71 85 0 
N 60 69 0 
N 80 5 0 
N 6 22 0 
N 64 72 0 
N 99 70 0 
N 58 98 0 
N 10 19 0 
N 65 79 0 
N 62 2 0 
N 10 64 0 
N 65 62 0 
N 76 21 0 
N 43 17 0 
N 60 35 0 
N 41 14 0 
N 9 88 0 
N 6 38 0 
N 21 76 0 
N 57 80 0 
N 21 21 0 
N 58 84 0 
N 7 28 0 
N 32 59 0 
N 66 7 0 
N 71 43 0 
N 59 67 0 
N 65 73 0 
N 83 20 0 
N 69 94 0 
N 94 28 0 
N 10 26 0 
N 8 29 0 
N 48 94 0 
N 41 54 0 
N 5 53 0 
N 2 71 0 
N 72 50 0 
N 11 15 0 
N 88 48 0 
N 16 80 0 
N 37 13 0 
N 67 83 0 
N 15 85 0 
N 58 76 0 
N 82 90 0 
N 8 17 0 
N 94 70 0 
N 86 8 0 
N 60 4 0 
N 64 52 0 
N 17 66 0 
N 5 8 0 
N 30 62 0 
N 59 71 0 
N 9 21 0 
N 53 66 0 
N 60 93 0 
N 47 38 0 
N 92 1 0 
N 81 95 0 
N 61 91 0 
N 68 66 0 
N 80 49 0 
N 44 86 0 
N 22 78 0 
N 28 46 0 
N 33 47 0 
N 67 64 0 
N 20 77 0 
N 37 61 0 
N 73 7 0 
N 51 64 0 
N 33 54 0 
N 17 67 0 
N 5 69 0 
N 49 15 0 
N 63 84 0 
N 26 92 0 
N 2 45 0 
N 29 19 0 
N 62 74 0 
N 53 14 0 
N 61 57 0 
N 17 61 0 
N 14 18 0 
N 77 1 0 
N 5 72 0 
N 14 2 0 
N 17 17 0 
N 89 75 0 
N 6 82 0 
N 69 47 0 
N 99 34 0 
N 34 92 0 
N 8 33 0 
N 61 86 0 
N 9 12 0 
N 13 76 0 
N 27 53 0 
N 42 12 0 
N 89 35 0 
N 0 33 0 
N 77 11 0 
N 7 29 0 
N 66 75 0 
N 68 1 0 
N 61 10 0 
N 70 15 0 
N 74 84 0 
N 58 93 0 
N 63 93 0 
N 61 42 0 
N 96 40 0 
N 40 63 0 
N 90 74 0 
N 59 85 0 
N 94 33 0 
N 78 76 0 
N 18 24 0 
N 12 92 0 
N 58 73 0 
N 96 30 0 
N 24 71 0 
N 21 63 0 
N 99 69 0 
N 48 67 0 
N 1 68 0 
N 25 86 0 
N 16 3 0 
N 8 32 0 
N 78 18 0 
N 96 31 0 
N 35 64 0 
N 98 33 0 
N 61 74 0 
N 56 66 0 
N 23 5 0 
N 50 85 0 
N 53 68 0 
N 59 97 0 
N 64 14 0 
N 69 88 0 
N 82 20 0 
N 29 29 0 
N 19 70 0 
N 3 43 0 
N 54 68 0 
N 60 46 0 
N 8 95 0 
N 76 22 0 
N 20 26 0 
N 25 81 0 
N 6 15 0 
N 68 25 0 
N 55 84 0 
N 0 77 0 
N 59 8 0 
N 70 67 0 
N 58 66 0 
N 72 79 0 
N 66 28 0 
N 29 6 0 
N 78 65 0 
N 44 55 0 
N 97 70 0 
N 10 69 0 
N 95 38 0 
N 65 74 0 
N 70 2 0 
N 92 68 0 
N 15 16 0 
N 1 33 0 
N 55 91 0 
N 22 65 0 
N 2 82 0 
N 62 64 0 
N 18 85 0 
N 62 68 0 
N 83 19 0 
N 61 72 0 
N 92 23 0 
N 58 39 0 
N 52 90 0 
N 96 25 0 
N 73 2 0 
N 61 84 0 
N 62 34 0 
N 60 91 0 
N 61 0 0 
N 22 60 0 
N 57 86 0 
N 65 23 0 
N 61 38 0 
N 76 81 0 
N 2 77 0 
N 30 67 0 
N 29 57 0 
N 8 26 0 
N 6 18 0 
N 3 26 0 
N 20 14 0 
N 19 73 0 
N 58 75 0 
N 59 64 0 
N 79 78 0 
N 21 82 0 
N 4 65 0 
N 2 31 0 
N 99 72 0 
N 63 24 0 
N 21 35 0 
N 94 74 0 
N 73 28 0 
N 90 59 0 
N 69 20 0 
N 0 71 0 
N 64 76 0 
N 62 52 0 
N 22 17 0 
N 66 70 0 
N 60 54 0 
N 82 62 0 
N 12 20 0 
N 63 67 0 
N 4 25 0 
N 15 13 0 
N 71 62 0 
N 33 91 0 
N 14 65 0 
N 94 40 0 
N 5 20 0 
N 59 56 0 
N 29 10 0 
N 30 13 0 
N 27 60 0 
N 24 63 0 
N 13 2 0 
N 67 89 0 
N 57 81 0 
N 58 58 0 
N 56 85 0 
N 14 16 0 
N 13 10 0 
N 4 18 0 
N 77 29 0 
N 40 24 0 
N 90 44 0 
N 59 33 0 
N 58 24 0 
N 11 74 0 
N 13 69 0 
N 15 19 0 
N 4 28 0 
N 75 27 0 
N 94 46 0 
N 4 20 0 
N 56 77 0 
N 58 34 0 
N 86 87 0 
N 61 36 0 
N 77 54 0 
N 67 71 0 
N 58 68 0 
N 67 46 0 
N 81 93 0 
N 2 13 0 
N 51 86 0 
N 13 0 0 
N 26 50 0 
N 34 52 0 
N 60 57 0 
N 73 25 0 
N 1 24 0 
N 24 40 0 
N 59 63 0 
N 98 15 0 
N 1 26 0 
N 63 64 0 
N 11 16 0 
N 69 3 0 
N 31 68 0 
N 65 17 0 
N 27 72 0 
N 61 18 0 
N 72 85 0 
N 39 50 0 
N 83 8 0 
N 81 1 0 
N 58 10 0 
N 34 54 0 
N 64 50 0 
N 39 13 0 
N 65 85 0 
N 34 85 0 
N 59 2 0 
N 58 8 0 
N 32 77 0 
N 34 44 0 
N 73 5 0 
N 13 67 0 
N 9 29 0 
N 7 18 0 
N 93 38 0 
N 67 86 0 
N 87 3 0 
N 8 62 0 
N 33 83 0 
N 17 90 0 
N 58 53 0 
N 62 9 0 
N 28 63 0 
N 64 65 0 
N 6 43 0 
N 62 1 0 
N 61 31 0 
N 24 87 0 
N 29 33 0 
N 93 76 0 
N 39 3 0 
N 67 51 0 
N 31 52 0 
N 69 95 0 
N 57 88 0 
N 59 1 0 
N 9 23 0 
N 28 82 0 
N 44 90 0 
N 38 72 0 
N 20 11 0 
N 64 35 0 
N 8 3 0 
N 63 8 0 
N 11 77 0 
N 62 71 0 
N 58 71 0 
N 14 70 0 
N 7 15 0 
N 88 46 0 
N 29 69 0 
N 62 76 0 
N 31 16 0 
N 65 0 0 
N 62 21 0 
N 89 2 0 
N 58 89 0 
N 6 31 0 
N 62 70 0 
N 54 37 0 
N 83 3 0 
N 84 45 0 
N 61 16 0 
N 90 41 0 
N 39 30 0 
N 30 94 0 
N 20 87 0 
N 58 7 0 
N 73 1 0 
N 88 72 0 
N 27 23 0 
N 15 28 0 
N 99 77 0 
N 58 4 0 
N 75 25 0 
N 11 18 0 
N 32 89 0 
N 86 3 0 
N 57 85 0 
N 78 84 0 
N 71 82 0 
N 58 83 0 
N 72 21 0 
N 61 81 0 
N 21 65 0 
N 75 17 0 
N 60 59 0 
N 72 19 0 
N 0 66 0 
N 72 30 0 
N 21 70 0 
N 11 12 0 
N 58 26 0 
N 58 28 0 
N 18 78 0 
N 50 2 0 
N 25 93 0 
N 46 63 0 
N 68 18 0 
N 58 31 0 
N 40 84 0 
N 84 54 0 
N 50 78 0 
N 63 76 0 
N 21 24 0 
N 60 7 0 
N 24 27 0 
N 3 32 0 
N 64 5 0 
N 66 25 0 
N 58 55 0 
N 92 35 0 
N 93 29 0 
N 60 67 0 
N 32 83 0 
N 63 7 0 
N 59 10 0 
N 48 80 0 
N 60 27 0 
N 35 67 0 
N 58 5 0 
N 58 86 0 
N 58 59 0 
N 86 1 0 
N 63 59 0 
N 60 29 0 
N 64 91 0 
N 13 22 0 
N 29 12 0 
N 58 57 0 
N 6 24 0 
N 12 82 0 
N 58 12 0 
N 32 69 0 
C 0 0 0 
C 10 0 0 
C 20 0 0 
C 30 0 0 
C 40 0 0 
C 50 0 0 
C 60 0 0 
C 70 0 0 
C 80 0 0 
C 90 0 0 
C 100 0 0 
C 0 10 0 
C 10 10 0 
C 20 10 0 
C 30 10 0 
C 40 10 0 
C 50 10 0 
C 60 10 0 
C 70 10 0 
C 80 10 0 
C 90 10 0 
C 100 10 0 
C 0 20 0 
C 10 20 0 
C 20 20 0 
C 30 20 0 
C 40 20 0 
C 50 20 0 
C 60 20 0 
C 70 20 0 
C 80 20 0 
C 90 20 0 
C 100 20 0 
C 0 30 0 
C 10 30 0 
C 20 30 0 
C 30 30 0 
C 40 30 0 
C 50 30 0 
C 60 30 0 
C 70 30 0 
C 80 30 0 
C 90 30 0 
C 100 30 0 
C 0 40 0 
C 10 40 0 
C 20 40 0 
C 30 40 0 
C 40 40 0 
C 50 40 0 
C 60 40 0 
C 70 40 0 
C 80 40 0 
C 90 40 0 
C 100 40 0 
C 0 50 0 
C 10 50 0 
C 20 50 0 
C 30 50 0 
C 40 50 0 
C 50 50 0 
C 60 50 0 
C 70 50 0 
C 80 50 0 
C 90 50 0 
C 100 50 0 
C 0 60 0 
C 10 60 0 
C 20 60 0 
C 30 60 0 
C 40 60 0 
C 50 60 0 
C 60 60 0 
C 70 60 0 
C 80 60 0 
C 90 60 0 
C 100 60 0 
C 0 70 0 
C 10 70 0 
C 20 70 0 
C 30 70 0 
C 40 70 0 
C 50 70 0 
C 60 70 0 
C 70 70 0 
C 80 70 0 
C 90 70 0 
C 100 70 0 
C 0 80 0 
C 10 80 0 
C 20 80 0 
C 30 80 0 
C 40 80 0 
C 50 80 0 
C 60 80 0 
C 70 80 0 
C 80 80 0 
C 90 80 0 
C 100 80 0 
C 0 90 0 
C 10 90 0 
C 20 90 0 
C 30 90 0 
C 40 90 0 
C 50 90 0 
C 60 90 0 
C 70 90 0 
C 80 90 0 
C 90 90 0 
C 100 90 0 
C 0 100 0 
C 10 100 0 
C 20 100 0 
C 30 100 0 
C 40 100 0 
C 50 100 0 
C 60 100 0 
C 70 100 0 
C 80 100 0 
C 90 100 0 
C 100 100 0 
O 58 99 0 
621
Atoms. Timestep: 43
N 80 8 0 
N 25 64 0 
N 22 75 0 
N 60 88 0 
N 22 19 0 
N 58 20 0 
N 70 68 0 
N 6 41 0 
N 5 39 0 
N 59 24 0 
N 84 65 0 
N 18 6 0 
N 65 26 0 
N 63 11 0 
N 89 88 0 
N 65 64 0 
N 58 82 0 
N 59 61 0 
N 25 24 0 
N 35 62 0 
N 7 85 0 
N 17 70 0 
N 9 1 0 
N 17 83 0 
N 82 22 0 
N 11 21 0 
N 78 71 0 
N 65 52 0 
N 64 95 0 
N 96 21 0 
N 77 3 0 
N 61 7 0 
N 17 18 0 
N 54 83 0 
N 57 74 0 
N 58 95 0 
N 16 80 0 
N 84 9 0 
N 84 75 0 
N 61 97 0 
N 76 0 0 
N 4 27 0 
N 65 20 0 
N 39 53 0 
N 14 89 0 
N 63 22 0 
N 64 18 0 
N 45 6 0 
N 31 71 0 
N 96 47 0 
N 19 22 0 
N 75 59 0 
N 92 71 0 
N 29 4 0 
N 64 3 0 
N 62 79 0 
N 89 5 0 
N 59 16 0 
N 71 4 0 
N 34 89 0 
N 3 39 0 
N 96 27 0 
N 29 54 0 
N 58 45 0 
N 62 22 0 
N 41 56 0 
N 63 70 0 
N 58 42 0 
N 88 67 0 
N 23 15 0 
N 31 14 0 
N 60 22 0 
N 30 38 0 
N 4 13 0 
N 13 22 0 
N 98 68 0 
N 21 74 0 
N 70 85 0 
N 61 69 0 
N 81 5 0 
N 5 22 0 
N 63 72 0 
N 99 71 0 
N 58 99 0 
N 11 19 0 
N 65 80 0 
N 61 2 0 
N 10 65 0 
N 65 63 0 
N 75 21 0 
N 43 18 0 
N 59 35 0 
N 42 14 0 
N 9 87 0 
N 6 37 0 
N 21 77 0 
N 58 80 0 
N 22 21 0 
N 58 84 0 
N 7 27 0 
N 31 59 0 
N 65 7 0 
N 70 43 0 
N 59 68 0 
N 65 74 0 
N 82 20 0 
N 69 95 0 
N 95 28 0 
N 10 25 0 
N 7 29 0 
N 48 95 0 
N 41 55 0 
N 4 53 0 
N 2 70 0 
N 72 51 0 
N 11 14 0 
N 89 48 0 
N 16 79 0 
N 38 13 0 
N 67 84 0 
N 15 86 0 
N 58 77 0 
N 81 90 0 
N 7 17 0 
N 94 71 0 
N 86 9 0 
N 59 4 0 
N 63 52 0 
N 18 66 0 
N 5 7 0 
N 30 61 0 
N 58 71 0 
N 10 21 0 
N 54 66 0 
N 60 94 0 
N 47 39 0 
N 91 1 0 
N 81 96 0 
N 60 91 0 
N 68 67 0 
N 79 49 0 
N 44 87 0 
N 22 77 0 
N 28 47 0 
N 34 47 0 
N 66 64 0 
N 20 78 0 
N 36 61 0 
N 73 8 0 
N 52 64 0 
N 34 54 0 
N 17 68 0 
N 5 70 0 
N 50 15 0 
N 63 85 0 
N 27 92 0 
N 2 46 0 
N 30 19 0 
N 61 74 0 
N 54 14 0 
N 60 57 0 
N 17 60 0 
N 14 19 0 
N 77 2 0 
N 5 73 0 
N 14 3 0 
N 16 17 0 
N 89 76 0 
N 5 82 0 
N 68 47 0 
N 0 34 0 
N 34 93 0 
N 8 32 0 
N 60 86 0 
N 9 13 0 
N 14 76 0 
N 28 53 0 
N 42 11 0 
N 89 34 0 
N 99 33 0 
N 76 11 0 
N 6 29 0 
N 66 76 0 
N 68 2 0 
N 61 11 0 
N 70 16 0 
N 74 85 0 
N 58 94 0 
N 63 94 0 
N 60 42 0 
N 96 39 0 
N 40 62 0 
N 89 74 0 
N 59 86 0 
N 94 34 0 
N 77 76 0 
N 17 24 0 
N 13 92 0 
N 58 73 0 
N 96 31 0 
N 24 70 0 
N 22 63 0 
N 0 69 0 
N 49 67 0 
N 0 68 0 
N 25 87 0 
N 17 3 0 
N 9 32 0 
N 79 18 0 
N 97 31 0 
N 34 64 0 
N 98 32 0 
N 60 74 0 
N 56 67 0 
N 23 6 0 
N 50 86 0 
N 53 67 0 
N 59 98 0 
N 64 15 0 
N 69 89 0 
N 81 20 0 
N 30 29 0 
N 19 69 0 
N 3 42 0 
N 54 69 0 
N 59 46 0 
N 7 95 0 
N 76 23 0 
N 20 27 0 
N 24 81 0 
N 6 16 0 
N 68 26 0 
N 55 85 0 
N 99 77 0 
N 59 9 0 
N 69 67 0 
N 58 67 0 
N 71 79 0 
N 66 29 0 
N 29 7 0 
N 78 66 0 
N 45 55 0 
N 98 70 0 
N 10 68 0 
N 95 37 0 
N 65 75 0 
N 70 3 0 
N 92 69 0 
N 15 15 0 
N 1 34 0 
N 55 92 0 
N 22 64 0 
N 2 83 0 
N 61 64 0 
N 18 84 0 
N 62 69 0 
N 82 19 0 
N 61 73 0 
N 91 23 0 
N 58 40 0 
N 53 90 0 
N 96 26 0 
N 72 2 0 
N 61 85 0 
N 62 35 0 
N 60 92 0 
N 61 0 0 
N 22 59 0 
N 58 86 0 
N 64 23 0 
N 61 39 0 
N 76 82 0 
N 2 78 0 
N 30 66 0 
N 28 57 0 
N 9 26 0 
N 5 18 0 
N 3 27 0 
N 20 13 0 
N 19 72 0 
N 58 75 0 
N 59 65 0 
N 79 79 0 
N 20 82 0 
N 4 64 0 
N 2 32 0 
N 98 72 0 
N 62 24 0 
N 20 35 0 
N 94 73 0 
N 72 28 0 
N 89 59 0 
N 69 21 0 
N 0 72 0 
N 63 76 0 
N 61 52 0 
N 22 18 0 
N 65 70 0 
N 60 55 0 
N 83 62 0 
N 13 20 0 
N 62 67 0 
N 4 24 0 
N 14 13 0 
N 70 62 0 
N 34 91 0 
N 14 64 0 
N 95 40 0 
N 6 20 0 
N 59 56 0 
N 29 11 0 
N 30 14 0 
N 28 60 0 
N 23 63 0 
N 13 3 0 
N 67 90 0 
N 57 82 0 
N 58 59 0 
N 57 85 0 
N 14 17 0 
N 12 10 0 
N 4 17 0 
N 76 29 0 
N 40 25 0 
N 90 43 0 
N 59 34 0 
N 58 25 0 
N 10 74 0 
N 13 68 0 
N 15 20 0 
N 5 28 0 
N 74 27 0 
N 94 45 0 
N 4 19 0 
N 56 78 0 
N 58 35 0 
N 85 87 0 
N 60 36 0 
N 77 53 0 
N 66 71 0 
N 58 69 0 
N 66 46 0 
N 81 94 0 
N 2 14 0 
N 52 86 0 
N 13 1 0 
N 25 50 0 
N 34 51 0 
N 59 57 0 
N 72 25 0 
N 0 24 0 
N 23 40 0 
N 58 63 0 
N 99 15 0 
N 0 26 0 
N 63 65 0 
N 11 17 0 
N 68 3 0 
N 31 69 0 
N 65 18 0 
N 27 73 0 
N 60 18 0 
N 72 86 0 
N 38 50 0 
N 82 8 0 
N 80 1 0 
N 58 11 0 
N 34 53 0 
N 64 51 0 
N 39 14 0 
N 64 85 0 
N 34 86 0 
N 58 2 0 
N 57 8 0 
N 33 77 0 
N 35 44 0 
N 72 5 0 
N 13 66 0 
N 10 29 0 
N 8 18 0 
N 93 37 0 
N 67 87 0 
N 86 3 0 
N 7 62 0 
N 34 83 0 
N 17 91 0 
N 58 54 0 
N 62 10 0 
N 29 63 0 
N 64 66 0 
N 7 43 0 
N 61 1 0 
N 60 31 0 
N 24 88 0 
N 29 34 0 
N 93 75 0 
N 39 4 0 
N 67 50 0 
N 31 53 0 
N 68 95 0 
N 57 89 0 
N 58 1 0 
N 10 23 0 
N 28 83 0 
N 44 91 0 
N 38 73 0 
N 20 12 0 
N 63 35 0 
N 8 4 0 
N 62 8 0 
N 11 76 0 
N 62 72 0 
N 58 72 0 
N 15 70 0 
N 7 14 0 
N 89 46 0 
N 30 69 0 
N 61 76 0 
N 32 16 0 
N 64 0 0 
N 61 21 0 
N 88 2 0 
N 58 90 0 
N 6 30 0 
N 61 70 0 
N 54 38 0 
N 83 4 0 
N 84 44 0 
N 61 17 0 
N 90 42 0 
N 39 31 0 
N 30 95 0 
N 21 87 0 
N 58 7 0 
N 72 1 0 
N 88 73 0 
N 28 23 0 
N 15 27 0 
N 99 76 0 
N 58 5 0 
N 75 26 0 
N 10 18 0 
N 32 90 0 
N 85 3 0 
N 58 85 0 
N 77 84 0 
N 71 83 0 
N 58 83 0 
N 71 21 0 
N 60 81 0 
N 21 64 0 
N 74 17 0 
N 59 59 0 
N 72 20 0 
N 0 67 0 
N 71 30 0 
N 21 69 0 
N 11 13 0 
N 58 27 0 
N 58 29 0 
N 18 79 0 
N 51 2 0 
N 26 93 0 
N 47 63 0 
N 68 19 0 
N 58 32 0 
N 41 84 0 
N 85 54 0 
N 50 79 0 
N 63 77 0 
N 21 23 0 
N 60 8 0 
N 24 26 0 
N 3 33 0 
N 64 6 0 
N 66 26 0 
N 58 56 0 
N 92 34 0 
N 94 29 0 
N 60 68 0 
N 32 84 0 
N 63 7 0 
N 59 11 0 
N 48 81 0 
N 60 28 0 
N 34 67 0 
N 58 6 0 
N 58 87 0 
N 58 60 0 
N 85 1 0 
N 63 60 0 
N 59 29 0 
N 63 91 0 
N 13 23 0 
N 30 12 0 
N 58 57 0 
N 6 23 0 
N 12 81 0 
N 58 13 0 
N 33 69 0 
C 0 0 0 
C 10 0 0 
C 20 0 0 
C 30 0 0 
C 40 0 0 
C 50 0 0 
C 60 0 0 
C 70 0 0 
C 80 0 0 
C 90 0 0 
C 100 0 0 
C 0 10 0 
C 10 10 0 
C 20 10 0 
C 30 10 0 
C 40 10 0 
C 50 10 0 
C 60 10 0 
C 70 10 0 
C 80 10 0 
C 90 10 0 
C 100 10 0 
C 0 20 0 
C 10 20 0 
C 20 20 0 
C 30 20 0 
C 40 20 0 
C 50 20 0 
C 60 20 0 
C 70 20 0 
C 80 20 0 
C 90 20 0 
C 100 20 0 
C 0 30 0 
C 10 30 0 
C 20 30 0 
C 30 30 0 
C 40 30 0 
C 50 30 0 
C 60 30 0 
C 70 30 0 
C 80 30 0 
C 90 30 0 
C 100 30 0 
C 0 40 0 
C 10 40 0 
C 20 40 0 
C 30 40 0 
C 40 40 0 
C 50 40 0 
C 60 40 0 
C 70 40 0 
C 80 40 0 
C 90 40 0 
C 100 40 0 
C 0 50 0 
C 10 50 0 
C 20 50 0 
C 30 50 0 
C 40 50 0 
C 50 50 0 
C 60 50 0 
C 70 50 0 
C 80 50 0 
C 90 50 0 
C 100 50 0 
C 0 60 0 
C 10 60 0 
C 20 60 0 
C 30 60 0 
C 40 60 0 
C 50 60 0 
C 60 60 0 
C 70 60 0 
C 80 60 0 
C 90 60 0 
C 100 60 0 
C 0 70 0 
C 10 70 0 
C 20 70 0 
C 30 70 0 
C 40 70 0 
C 50 70 0 
C 60 70 0 
C 70 70 0 
C 80 70 0 
C 90 70 0 
C 100 70 0 
C 0 80 0 
C 10 80 0 
C 20 80 0 
C 30 80 0 
C 40 80 0 
C 50 80 0 
C 60 80 0 
C 70 80 0 
C 80 80 0 
C 90 80 0 
C 100 80 0 
C 0 90 0 
C 10 90 0 
C 20 90 0 
C 30 90 0 
C 40 90 0 
C 50 90 0 
C 60 90 0 
C 70 90 0 
C 80 90 0 
C 90 90 0 
C 100 90 0 
C 0 100 0 
C 10 100 0 
C 20 100 0 
C 30 100 0 
C 40 100 0 
C 50 100 0 
C 60 100 0 
C 70 100 0 
C 80 100 0 
C 90 100 0 
C 100 100 0 
