3110
Atoms. Timestep: 1
N 91 19 0 
N 24 55 0 
N 16 71 0 
N 53 98 0 
N 34 19 0 
N 63 23 0 
N 87 65 0 
N 5 53 0 
N 11 51 0 
N 51 31 0 
N 15 4 0 
N 61 29 0 
N 61 10 0 
N 79 80 0 
N 53 86 0 
N 53 61 0 
N 37 71 0 
N 7 89 0 
N 5 13 0 
N 86 25 0 
N 17 37 0 
N 77 13 0 
N 21 28 0 
N 51 73 0 
N 61 97 0 
N 15 89 0 
N 93 8 0 
N 59 99 0 
N 1 39 0 
N 31 49 0 
N 75 31 0 
N 63 17 0 
N 25 63 0 
N 0 45 0 
N 28 19 0 
N 81 53 0 
N 95 69 0 
N 64 5 0 
N 63 87 0 
N 97 3 0 
N 49 13 0 
N 27 98 0 
N 91 27 0 
N 30 63 0 
N 55 47 0 
N 62 21 0 
N 60 77 0 
N 50 39 0 
N 92 77 0 
N 28 15 0 
N 57 23 0 
N 37 41 0 
N 9 21 0 
N 22 33 0 
N 97 74 0 
N 13 79 0 
N 53 65 0 
N 85 7 0 
N 3 20 0 
N 69 69 0 
N 99 61 0 
N 71 97 0 
N 9 33 0 
N 77 83 0 
N 67 13 0 
N 7 56 0 
N 75 61 0 
N 85 31 0 
N 40 21 0 
N 65 33 0 
N 42 21 0 
N 9 95 0 
N 2 45 0 
N 15 75 0 
N 39 81 0 
N 29 25 0 
N 56 85 0 
N 11 35 0 
N 27 51 0 
N 69 9 0 
N 64 45 0 
N 93 21 0 
N 78 95 0 
N 91 42 0 
N 1 37 0 
N 7 27 0 
N 35 69 0 
N 3 77 0 
N 23 28 0 
N 85 82 0 
N 61 80 0 
N 95 94 0 
N 19 19 0 
N 89 59 0 
N 91 5 0 
N 67 3 0 
N 69 55 0 
N 97 15 0 
N 63 65 0 
N 13 33 0 
N 47 63 0 
N 61 95 0 
N 49 41 0 
N 93 13 0 
N 93 97 0 
N 54 91 0 
N 70 63 0 
N 67 49 0 
N 28 91 0 
N 23 75 0 
N 27 46 0 
N 75 63 0 
N 16 77 0 
N 81 13 0 
N 45 67 0 
N 47 49 0 
N 17 56 0 
N 1 75 0 
N 69 93 0 
N 21 98 0 
N 32 31 0 
N 59 81 0 
N 45 27 0 
N 59 59 0 
N 16 29 0 
N 77 7 0 
N 5 73 0 
N 5 8 0 
N 31 15 0 
N 95 83 0 
N 2 85 0 
N 69 40 0 
N 14 39 0 
N 66 95 0 
N 19 11 0 
N 13 77 0 
N 31 55 0 
N 85 42 0 
N 97 43 0 
N 85 22 0 
N 13 43 0 
N 75 77 0 
N 75 1 0 
N 57 7 0 
N 82 87 0 
N 49 93 0 
N 99 51 0 
N 43 57 0 
N 99 78 0 
N 61 90 0 
N 95 39 0 
N 88 71 0 
N 22 35 0 
N 11 96 0 
N 51 71 0 
N 19 81 0 
N 99 82 0 
N 3 69 0 
N 7 3 0 
N 15 39 0 
N 89 39 0 
N 43 55 0 
N 91 38 0 
N 19 4 0 
N 35 89 0 
N 35 79 0 
N 68 13 0 
N 89 87 0 
N 98 21 0 
N 48 69 0 
N 10 97 0 
N 77 35 0 
N 23 38 0 
N 19 15 0 
N 71 27 0 
N 43 91 0 
N 91 62 0 
N 51 1 0 
N 81 75 0 
N 81 85 0 
N 72 33 0 
N 20 7 0 
N 83 55 0 
N 47 54 0 
N 1 69 0 
N 5 65 0 
N 98 53 0 
N 65 79 0 
N 89 70 0 
N 23 17 0 
N 17 73 0 
N 2 93 0 
N 67 64 0 
N 17 83 0 
N 57 67 0 
N 96 21 0 
N 65 73 0 
N 95 21 0 
N 47 37 0 
N 97 36 0 
N 79 6 0 
N 61 88 0 
N 65 32 0 
N 47 99 0 
N 61 7 0 
N 33 67 0 
N 71 29 0 
N 59 43 0 
N 91 85 0 
N 93 58 0 
N 25 61 0 
N 26 65 0 
N 17 6 0 
N 97 22 0 
N 29 20 0 
N 11 74 0 
N 61 70 0 
N 57 63 0 
N 91 81 0 
N 25 87 0 
N 1 57 0 
N 87 25 0 
N 99 70 0 
N 59 29 0 
N 25 48 0 
N 98 81 0 
N 75 37 0 
N 91 51 0 
N 81 25 0 
N 97 73 0 
N 85 81 0 
N 57 49 0 
N 39 23 0 
N 86 75 0 
N 65 57 0 
N 81 56 0 
N 24 33 0 
N 67 82 0 
N 7 39 0 
N 27 12 0 
N 73 57 0 
N 21 69 0 
N 91 52 0 
N 11 25 0 
N 53 51 0 
N 21 3 0 
N 27 13 0 
N 23 65 0 
N 19 65 0 
N 15 13 0 
N 81 93 0 
N 53 60 0 
N 39 85 0 
N 24 25 0 
N 17 33 0 
N 18 27 0 
N 81 42 0 
N 57 37 0 
N 53 24 0 
N 15 81 0 
N 15 63 0 
N 1 33 0 
N 97 47 0 
N 12 29 0 
N 41 77 0 
N 97 89 0 
N 53 39 0 
N 73 45 0 
N 87 71 0 
N 56 45 0 
N 93 99 0 
N 19 8 0 
N 39 91 0 
N 11 1 0 
N 41 47 0 
N 57 55 0 
N 5 27 0 
N 30 39 0 
N 50 65 0 
N 8 33 0 
N 58 71 0 
N 17 13 0 
N 35 71 0 
N 69 22 0 
N 27 77 0 
N 65 19 0 
N 85 87 0 
N 45 45 0 
N 90 9 0 
N 91 2 0 
N 53 6 0 
N 39 20 0 
N 61 87 0 
N 62 5 0 
N 45 1 0 
N 29 79 0 
N 43 45 0 
N 17 66 0 
N 19 40 0 
N 89 45 0 
N 77 95 0 
N 3 56 0 
N 28 85 0 
N 15 97 0 
N 50 55 0 
N 59 8 0 
N 69 75 0 
N 6 45 0 
N 71 1 0 
N 21 90 0 
N 95 73 0 
N 35 51 0 
N 43 99 0 
N 11 31 0 
N 35 98 0 
N 34 77 0 
N 27 9 0 
N 69 38 0 
N 1 4 0 
N 51 19 0 
N 73 75 0 
N 6 15 0 
N 91 48 0 
N 27 69 0 
N 35 9 0 
N 67 1 0 
N 65 23 0 
N 99 1 0 
N 53 87 0 
N 13 45 0 
N 49 36 0 
N 87 2 0 
N 91 43 0 
N 67 20 0 
N 91 50 0 
N 45 33 0 
N 16 99 0 
N 13 95 0 
N 81 2 0 
N 83 63 0 
N 37 36 0 
N 23 37 0 
N 56 1 0 
N 81 38 0 
N 11 17 0 
N 15 95 0 
N 93 3 0 
N 51 93 0 
N 79 93 0 
N 61 85 0 
N 77 29 0 
N 63 81 0 
N 16 53 0 
N 97 57 0 
N 17 21 0 
N 50 27 0 
N 49 38 0 
N 37 4 0 
N 24 93 0 
N 47 55 0 
N 79 22 0 
N 63 37 0 
N 38 77 0 
N 35 33 0 
N 31 37 0 
N 1 42 0 
N 75 17 0 
N 51 45 0 
N 93 40 0 
N 99 44 0 
N 27 81 0 
N 67 9 0 
N 37 80 0 
N 61 23 0 
N 31 67 0 
N 43 7 0 
N 52 49 0 
N 95 14 0 
N 57 29 0 
N 77 93 0 
N 27 5 0 
N 5 84 0 
N 41 7 0 
N 33 75 0 
N 30 65 0 
N 57 53 0 
N 64 53 0 
N 35 21 0 
N 81 41 0 
N 13 31 0 
N 85 99 0 
N 96 75 0 
N 53 95 0 
N 73 27 0 
N 99 46 0 
N 5 31 0 
N 53 3 0 
N 58 27 0 
N 80 81 0 
N 57 79 0 
N 81 87 0 
N 3 65 0 
N 1 49 0 
N 30 61 0 
N 17 81 0 
N 79 35 0 
N 33 65 0 
N 81 71 0 
N 86 47 0 
N 48 35 0 
N 71 9 0 
N 61 5 0 
N 92 7 0 
N 9 43 0 
N 94 7 0 
N 55 50 0 
N 17 53 0 
N 24 35 0 
N 69 47 0 
N 91 41 0 
N 91 75 0 
N 91 35 0 
N 13 83 0 
N 51 65 0 
N 91 67 0 
N 79 13 0 
N 41 49 0 
N 15 61 0 
N 77 26 0 
N 6 21 0 
N 21 82 0 
N 32 23 0 
N 81 15 0 
N 32 65 0 
N 66 53 0 
N 93 53 0 
N 83 45 0 
N 1 9 0 
N 57 87 0 
N 82 67 0 
N 63 1 0 
N 13 63 0 
N 29 5 0 
N 17 72 0 
N 20 41 0 
N 23 25 0 
N 73 79 0 
N 73 78 0 
N 23 62 0 
N 19 68 0 
N 61 77 0 
N 90 77 0 
N 98 29 0 
N 65 17 0 
N 70 33 0 
N 67 31 0 
N 36 57 0 
N 95 63 0 
N 77 67 0 
N 5 3 0 
N 37 83 0 
N 63 35 0 
N 15 32 0 
N 18 89 0 
N 27 63 0 
N 12 13 0 
N 1 27 0 
N 85 65 0 
N 59 77 0 
N 19 71 0 
N 43 81 0 
N 7 13 0 
N 13 1 0 
N 39 13 0 
N 91 21 0 
N 45 49 0 
N 1 63 0 
N 31 87 0 
N 37 67 0 
N 35 8 0 
N 55 59 0 
N 91 39 0 
N 92 97 0 
N 69 29 0 
N 55 42 0 
N 79 25 0 
N 19 92 0 
N 96 23 0 
N 73 25 0 
N 86 15 0 
N 39 82 0 
N 53 18 0 
N 39 17 0 
N 31 29 0 
N 37 78 0 
N 51 40 0 
N 1 61 0 
N 68 15 0 
N 33 72 0 
N 93 66 0 
C 0 0 0 
C 2 0 0 
C 4 0 0 
C 6 0 0 
C 8 0 0 
C 10 0 0 
C 12 0 0 
C 14 0 0 
C 16 0 0 
C 18 0 0 
C 20 0 0 
C 22 0 0 
C 24 0 0 
C 26 0 0 
C 28 0 0 
C 30 0 0 
C 32 0 0 
C 34 0 0 
C 36 0 0 
C 38 0 0 
C 40 0 0 
C 42 0 0 
C 44 0 0 
C 46 0 0 
C 48 0 0 
C 50 0 0 
C 52 0 0 
C 54 0 0 
C 56 0 0 
C 58 0 0 
C 60 0 0 
C 62 0 0 
C 64 0 0 
C 66 0 0 
C 68 0 0 
C 70 0 0 
C 72 0 0 
C 74 0 0 
C 76 0 0 
C 78 0 0 
C 80 0 0 
C 82 0 0 
C 84 0 0 
C 86 0 0 
C 88 0 0 
C 90 0 0 
C 92 0 0 
C 94 0 0 
C 96 0 0 
C 98 0 0 
C 100 0 0 
C 0 2 0 
C 2 2 0 
C 4 2 0 
C 6 2 0 
C 8 2 0 
C 10 2 0 
C 12 2 0 
C 14 2 0 
C 16 2 0 
C 18 2 0 
C 20 2 0 
C 22 2 0 
C 24 2 0 
C 26 2 0 
C 28 2 0 
C 30 2 0 
C 32 2 0 
C 34 2 0 
C 36 2 0 
C 38 2 0 
C 40 2 0 
C 42 2 0 
C 44 2 0 
C 46 2 0 
C 48 2 0 
C 50 2 0 
C 52 2 0 
C 54 2 0 
C 56 2 0 
C 58 2 0 
C 60 2 0 
C 62 2 0 
C 64 2 0 
C 66 2 0 
C 68 2 0 
C 70 2 0 
C 72 2 0 
C 74 2 0 
C 76 2 0 
C 78 2 0 
C 80 2 0 
C 82 2 0 
C 84 2 0 
C 86 2 0 
C 88 2 0 
C 90 2 0 
C 92 2 0 
C 94 2 0 
C 96 2 0 
C 98 2 0 
C 100 2 0 
C 0 4 0 
C 2 4 0 
C 4 4 0 
C 6 4 0 
C 8 4 0 
C 10 4 0 
C 12 4 0 
C 14 4 0 
C 16 4 0 
C 18 4 0 
C 20 4 0 
C 22 4 0 
C 24 4 0 
C 26 4 0 
C 28 4 0 
C 30 4 0 
C 32 4 0 
C 34 4 0 
C 36 4 0 
C 38 4 0 
C 40 4 0 
C 42 4 0 
C 44 4 0 
C 46 4 0 
C 48 4 0 
C 50 4 0 
C 52 4 0 
C 54 4 0 
C 56 4 0 
C 58 4 0 
C 60 4 0 
C 62 4 0 
C 64 4 0 
C 66 4 0 
C 68 4 0 
C 70 4 0 
C 72 4 0 
C 74 4 0 
C 76 4 0 
C 78 4 0 
C 80 4 0 
C 82 4 0 
C 84 4 0 
C 86 4 0 
C 88 4 0 
C 90 4 0 
C 92 4 0 
C 94 4 0 
C 96 4 0 
C 98 4 0 
C 100 4 0 
C 0 6 0 
C 2 6 0 
C 4 6 0 
C 6 6 0 
C 8 6 0 
C 10 6 0 
C 12 6 0 
C 14 6 0 
C 16 6 0 
C 18 6 0 
C 20 6 0 
C 22 6 0 
C 24 6 0 
C 26 6 0 
C 28 6 0 
C 30 6 0 
C 32 6 0 
C 34 6 0 
C 36 6 0 
C 38 6 0 
C 40 6 0 
C 42 6 0 
C 44 6 0 
C 46 6 0 
C 48 6 0 
C 50 6 0 
C 52 6 0 
C 54 6 0 
C 56 6 0 
C 58 6 0 
C 60 6 0 
C 62 6 0 
C 64 6 0 
C 66 6 0 
C 68 6 0 
C 70 6 0 
C 72 6 0 
C 74 6 0 
C 76 6 0 
C 78 6 0 
C 80 6 0 
C 82 6 0 
C 84 6 0 
C 86 6 0 
C 88 6 0 
C 90 6 0 
C 92 6 0 
C 94 6 0 
C 96 6 0 
C 98 6 0 
C 100 6 0 
C 0 8 0 
C 2 8 0 
C 4 8 0 
C 6 8 0 
C 8 8 0 
C 10 8 0 
C 12 8 0 
C 14 8 0 
C 16 8 0 
C 18 8 0 
C 20 8 0 
C 22 8 0 
C 24 8 0 
C 26 8 0 
C 28 8 0 
C 30 8 0 
C 32 8 0 
C 34 8 0 
C 36 8 0 
C 38 8 0 
C 40 8 0 
C 42 8 0 
C 44 8 0 
C 46 8 0 
C 48 8 0 
C 50 8 0 
C 52 8 0 
C 54 8 0 
C 56 8 0 
C 58 8 0 
C 60 8 0 
C 62 8 0 
C 64 8 0 
C 66 8 0 
C 68 8 0 
C 70 8 0 
C 72 8 0 
C 74 8 0 
C 76 8 0 
C 78 8 0 
C 80 8 0 
C 82 8 0 
C 84 8 0 
C 86 8 0 
C 88 8 0 
C 90 8 0 
C 92 8 0 
C 94 8 0 
C 96 8 0 
C 98 8 0 
C 100 8 0 
C 0 10 0 
C 2 10 0 
C 4 10 0 
C 6 10 0 
C 8 10 0 
C 10 10 0 
C 12 10 0 
C 14 10 0 
C 16 10 0 
C 18 10 0 
C 20 10 0 
C 22 10 0 
C 24 10 0 
C 26 10 0 
C 28 10 0 
C 30 10 0 
C 32 10 0 
C 34 10 0 
C 36 10 0 
C 38 10 0 
C 40 10 0 
C 42 10 0 
C 44 10 0 
C 46 10 0 
C 48 10 0 
C 50 10 0 
C 52 10 0 
C 54 10 0 
C 56 10 0 
C 58 10 0 
C 60 10 0 
C 62 10 0 
C 64 10 0 
C 66 10 0 
C 68 10 0 
C 70 10 0 
C 72 10 0 
C 74 10 0 
C 76 10 0 
C 78 10 0 
C 80 10 0 
C 82 10 0 
C 84 10 0 
C 86 10 0 
C 88 10 0 
C 90 10 0 
C 92 10 0 
C 94 10 0 
C 96 10 0 
C 98 10 0 
C 100 10 0 
C 0 12 0 
C 2 12 0 
C 4 12 0 
C 6 12 0 
C 8 12 0 
C 10 12 0 
C 12 12 0 
C 14 12 0 
C 16 12 0 
C 18 12 0 
C 20 12 0 
C 22 12 0 
C 24 12 0 
C 26 12 0 
C 28 12 0 
C 30 12 0 
C 32 12 0 
C 34 12 0 
C 36 12 0 
C 38 12 0 
C 40 12 0 
C 42 12 0 
C 44 12 0 
C 46 12 0 
C 48 12 0 
C 50 12 0 
C 52 12 0 
C 54 12 0 
C 56 12 0 
C 58 12 0 
C 60 12 0 
C 62 12 0 
C 64 12 0 
C 66 12 0 
C 68 12 0 
C 70 12 0 
C 72 12 0 
C 74 12 0 
C 76 12 0 
C 78 12 0 
C 80 12 0 
C 82 12 0 
C 84 12 0 
C 86 12 0 
C 88 12 0 
C 90 12 0 
C 92 12 0 
C 94 12 0 
C 96 12 0 
C 98 12 0 
C 100 12 0 
C 0 14 0 
C 2 14 0 
C 4 14 0 
C 6 14 0 
C 8 14 0 
C 10 14 0 
C 12 14 0 
C 14 14 0 
C 16 14 0 
C 18 14 0 
C 20 14 0 
C 22 14 0 
C 24 14 0 
C 26 14 0 
C 28 14 0 
C 30 14 0 
C 32 14 0 
C 34 14 0 
C 36 14 0 
C 38 14 0 
C 40 14 0 
C 42 14 0 
C 44 14 0 
C 46 14 0 
C 48 14 0 
C 50 14 0 
C 52 14 0 
C 54 14 0 
C 56 14 0 
C 58 14 0 
C 60 14 0 
C 62 14 0 
C 64 14 0 
C 66 14 0 
C 68 14 0 
C 70 14 0 
C 72 14 0 
C 74 14 0 
C 76 14 0 
C 78 14 0 
C 80 14 0 
C 82 14 0 
C 84 14 0 
C 86 14 0 
C 88 14 0 
C 90 14 0 
C 92 14 0 
C 94 14 0 
C 96 14 0 
C 98 14 0 
C 100 14 0 
C 0 16 0 
C 2 16 0 
C 4 16 0 
C 6 16 0 
C 8 16 0 
C 10 16 0 
C 12 16 0 
C 14 16 0 
C 16 16 0 
C 18 16 0 
C 20 16 0 
C 22 16 0 
C 24 16 0 
C 26 16 0 
C 28 16 0 
C 30 16 0 
C 32 16 0 
C 34 16 0 
C 36 16 0 
C 38 16 0 
C 40 16 0 
C 42 16 0 
C 44 16 0 
C 46 16 0 
C 48 16 0 
C 50 16 0 
C 52 16 0 
C 54 16 0 
C 56 16 0 
C 58 16 0 
C 60 16 0 
C 62 16 0 
C 64 16 0 
C 66 16 0 
C 68 16 0 
C 70 16 0 
C 72 16 0 
C 74 16 0 
C 76 16 0 
C 78 16 0 
C 80 16 0 
C 82 16 0 
C 84 16 0 
C 86 16 0 
C 88 16 0 
C 90 16 0 
C 92 16 0 
C 94 16 0 
C 96 16 0 
C 98 16 0 
C 100 16 0 
C 0 18 0 
C 2 18 0 
C 4 18 0 
C 6 18 0 
C 8 18 0 
C 10 18 0 
C 12 18 0 
C 14 18 0 
C 16 18 0 
C 18 18 0 
C 20 18 0 
C 22 18 0 
C 24 18 0 
C 26 18 0 
C 28 18 0 
C 30 18 0 
C 32 18 0 
C 34 18 0 
C 36 18 0 
C 38 18 0 
C 40 18 0 
C 42 18 0 
C 44 18 0 
C 46 18 0 
C 48 18 0 
C 50 18 0 
C 52 18 0 
C 54 18 0 
C 56 18 0 
C 58 18 0 
C 60 18 0 
C 62 18 0 
C 64 18 0 
C 66 18 0 
C 68 18 0 
C 70 18 0 
C 72 18 0 
C 74 18 0 
C 76 18 0 
C 78 18 0 
C 80 18 0 
C 82 18 0 
C 84 18 0 
C 86 18 0 
C 88 18 0 
C 90 18 0 
C 92 18 0 
C 94 18 0 
C 96 18 0 
C 98 18 0 
C 100 18 0 
C 0 20 0 
C 2 20 0 
C 4 20 0 
C 6 20 0 
C 8 20 0 
C 10 20 0 
C 12 20 0 
C 14 20 0 
C 16 20 0 
C 18 20 0 
C 20 20 0 
C 22 20 0 
C 24 20 0 
C 26 20 0 
C 28 20 0 
C 30 20 0 
C 32 20 0 
C 34 20 0 
C 36 20 0 
C 38 20 0 
C 40 20 0 
C 42 20 0 
C 44 20 0 
C 46 20 0 
C 48 20 0 
C 50 20 0 
C 52 20 0 
C 54 20 0 
C 56 20 0 
C 58 20 0 
C 60 20 0 
C 62 20 0 
C 64 20 0 
C 66 20 0 
C 68 20 0 
C 70 20 0 
C 72 20 0 
C 74 20 0 
C 76 20 0 
C 78 20 0 
C 80 20 0 
C 82 20 0 
C 84 20 0 
C 86 20 0 
C 88 20 0 
C 90 20 0 
C 92 20 0 
C 94 20 0 
C 96 20 0 
C 98 20 0 
C 100 20 0 
C 0 22 0 
C 2 22 0 
C 4 22 0 
C 6 22 0 
C 8 22 0 
C 10 22 0 
C 12 22 0 
C 14 22 0 
C 16 22 0 
C 18 22 0 
C 20 22 0 
C 22 22 0 
C 24 22 0 
C 26 22 0 
C 28 22 0 
C 30 22 0 
C 32 22 0 
C 34 22 0 
C 36 22 0 
C 38 22 0 
C 40 22 0 
C 42 22 0 
C 44 22 0 
C 46 22 0 
C 48 22 0 
C 50 22 0 
C 52 22 0 
C 54 22 0 
C 56 22 0 
C 58 22 0 
C 60 22 0 
C 62 22 0 
C 64 22 0 
C 66 22 0 
C 68 22 0 
C 70 22 0 
C 72 22 0 
C 74 22 0 
C 76 22 0 
C 78 22 0 
C 80 22 0 
C 82 22 0 
C 84 22 0 
C 86 22 0 
C 88 22 0 
C 90 22 0 
C 92 22 0 
C 94 22 0 
C 96 22 0 
C 98 22 0 
C 100 22 0 
C 0 24 0 
C 2 24 0 
C 4 24 0 
C 6 24 0 
C 8 24 0 
C 10 24 0 
C 12 24 0 
C 14 24 0 
C 16 24 0 
C 18 24 0 
C 20 24 0 
C 22 24 0 
C 24 24 0 
C 26 24 0 
C 28 24 0 
C 30 24 0 
C 32 24 0 
C 34 24 0 
C 36 24 0 
C 38 24 0 
C 40 24 0 
C 42 24 0 
C 44 24 0 
C 46 24 0 
C 48 24 0 
C 50 24 0 
C 52 24 0 
C 54 24 0 
C 56 24 0 
C 58 24 0 
C 60 24 0 
C 62 24 0 
C 64 24 0 
C 66 24 0 
C 68 24 0 
C 70 24 0 
C 72 24 0 
C 74 24 0 
C 76 24 0 
C 78 24 0 
C 80 24 0 
C 82 24 0 
C 84 24 0 
C 86 24 0 
C 88 24 0 
C 90 24 0 
C 92 24 0 
C 94 24 0 
C 96 24 0 
C 98 24 0 
C 100 24 0 
C 0 26 0 
C 2 26 0 
C 4 26 0 
C 6 26 0 
C 8 26 0 
C 10 26 0 
C 12 26 0 
C 14 26 0 
C 16 26 0 
C 18 26 0 
C 20 26 0 
C 22 26 0 
C 24 26 0 
C 26 26 0 
C 28 26 0 
C 30 26 0 
C 32 26 0 
C 34 26 0 
C 36 26 0 
C 38 26 0 
C 40 26 0 
C 42 26 0 
C 44 26 0 
C 46 26 0 
C 48 26 0 
C 50 26 0 
C 52 26 0 
C 54 26 0 
C 56 26 0 
C 58 26 0 
C 60 26 0 
C 62 26 0 
C 64 26 0 
C 66 26 0 
C 68 26 0 
C 70 26 0 
C 72 26 0 
C 74 26 0 
C 76 26 0 
C 78 26 0 
C 80 26 0 
C 82 26 0 
C 84 26 0 
C 86 26 0 
C 88 26 0 
C 90 26 0 
C 92 26 0 
C 94 26 0 
C 96 26 0 
C 98 26 0 
C 100 26 0 
C 0 28 0 
C 2 28 0 
C 4 28 0 
C 6 28 0 
C 8 28 0 
C 10 28 0 
C 12 28 0 
C 14 28 0 
C 16 28 0 
C 18 28 0 
C 20 28 0 
C 22 28 0 
C 24 28 0 
C 26 28 0 
C 28 28 0 
C 30 28 0 
C 32 28 0 
C 34 28 0 
C 36 28 0 
C 38 28 0 
C 40 28 0 
C 42 28 0 
C 44 28 0 
C 46 28 0 
C 48 28 0 
C 50 28 0 
C 52 28 0 
C 54 28 0 
C 56 28 0 
C 58 28 0 
C 60 28 0 
C 62 28 0 
C 64 28 0 
C 66 28 0 
C 68 28 0 
C 70 28 0 
C 72 28 0 
C 74 28 0 
C 76 28 0 
C 78 28 0 
C 80 28 0 
C 82 28 0 
C 84 28 0 
C 86 28 0 
C 88 28 0 
C 90 28 0 
C 92 28 0 
C 94 28 0 
C 96 28 0 
C 98 28 0 
C 100 28 0 
C 0 30 0 
C 2 30 0 
C 4 30 0 
C 6 30 0 
C 8 30 0 
C 10 30 0 
C 12 30 0 
C 14 30 0 
C 16 30 0 
C 18 30 0 
C 20 30 0 
C 22 30 0 
C 24 30 0 
C 26 30 0 
C 28 30 0 
C 30 30 0 
C 32 30 0 
C 34 30 0 
C 36 30 0 
C 38 30 0 
C 40 30 0 
C 42 30 0 
C 44 30 0 
C 46 30 0 
C 48 30 0 
C 50 30 0 
C 52 30 0 
C 54 30 0 
C 56 30 0 
C 58 30 0 
C 60 30 0 
C 62 30 0 
C 64 30 0 
C 66 30 0 
C 68 30 0 
C 70 30 0 
C 72 30 0 
C 74 30 0 
C 76 30 0 
C 78 30 0 
C 80 30 0 
C 82 30 0 
C 84 30 0 
C 86 30 0 
C 88 30 0 
C 90 30 0 
C 92 30 0 
C 94 30 0 
C 96 30 0 
C 98 30 0 
C 100 30 0 
C 0 32 0 
C 2 32 0 
C 4 32 0 
C 6 32 0 
C 8 32 0 
C 10 32 0 
C 12 32 0 
C 14 32 0 
C 16 32 0 
C 18 32 0 
C 20 32 0 
C 22 32 0 
C 24 32 0 
C 26 32 0 
C 28 32 0 
C 30 32 0 
C 32 32 0 
C 34 32 0 
C 36 32 0 
C 38 32 0 
C 40 32 0 
C 42 32 0 
C 44 32 0 
C 46 32 0 
C 48 32 0 
C 50 32 0 
C 52 32 0 
C 54 32 0 
C 56 32 0 
C 58 32 0 
C 60 32 0 
C 62 32 0 
C 64 32 0 
C 66 32 0 
C 68 32 0 
C 70 32 0 
C 72 32 0 
C 74 32 0 
C 76 32 0 
C 78 32 0 
C 80 32 0 
C 82 32 0 
C 84 32 0 
C 86 32 0 
C 88 32 0 
C 90 32 0 
C 92 32 0 
C 94 32 0 
C 96 32 0 
C 98 32 0 
C 100 32 0 
C 0 34 0 
C 2 34 0 
C 4 34 0 
C 6 34 0 
C 8 34 0 
C 10 34 0 
C 12 34 0 
C 14 34 0 
C 16 34 0 
C 18 34 0 
C 20 34 0 
C 22 34 0 
C 24 34 0 
C 26 34 0 
C 28 34 0 
C 30 34 0 
C 32 34 0 
C 34 34 0 
C 36 34 0 
C 38 34 0 
C 40 34 0 
C 42 34 0 
C 44 34 0 
C 46 34 0 
C 48 34 0 
C 50 34 0 
C 52 34 0 
C 54 34 0 
C 56 34 0 
C 58 34 0 
C 60 34 0 
C 62 34 0 
C 64 34 0 
C 66 34 0 
C 68 34 0 
C 70 34 0 
C 72 34 0 
C 74 34 0 
C 76 34 0 
C 78 34 0 
C 80 34 0 
C 82 34 0 
C 84 34 0 
C 86 34 0 
C 88 34 0 
C 90 34 0 
C 92 34 0 
C 94 34 0 
C 96 34 0 
C 98 34 0 
C 100 34 0 
C 0 36 0 
C 2 36 0 
C 4 36 0 
C 6 36 0 
C 8 36 0 
C 10 36 0 
C 12 36 0 
C 14 36 0 
C 16 36 0 
C 18 36 0 
C 20 36 0 
C 22 36 0 
C 24 36 0 
C 26 36 0 
C 28 36 0 
C 30 36 0 
C 32 36 0 
C 34 36 0 
C 36 36 0 
C 38 36 0 
C 40 36 0 
C 42 36 0 
C 44 36 0 
C 46 36 0 
C 48 36 0 
C 50 36 0 
C 52 36 0 
C 54 36 0 
C 56 36 0 
C 58 36 0 
C 60 36 0 
C 62 36 0 
C 64 36 0 
C 66 36 0 
C 68 36 0 
C 70 36 0 
C 72 36 0 
C 74 36 0 
C 76 36 0 
C 78 36 0 
C 80 36 0 
C 82 36 0 
C 84 36 0 
C 86 36 0 
C 88 36 0 
C 90 36 0 
C 92 36 0 
C 94 36 0 
C 96 36 0 
C 98 36 0 
C 100 36 0 
C 0 38 0 
C 2 38 0 
C 4 38 0 
C 6 38 0 
C 8 38 0 
C 10 38 0 
C 12 38 0 
C 14 38 0 
C 16 38 0 
C 18 38 0 
C 20 38 0 
C 22 38 0 
C 24 38 0 
C 26 38 0 
C 28 38 0 
C 30 38 0 
C 32 38 0 
C 34 38 0 
C 36 38 0 
C 38 38 0 
C 40 38 0 
C 42 38 0 
C 44 38 0 
C 46 38 0 
C 48 38 0 
C 50 38 0 
C 52 38 0 
C 54 38 0 
C 56 38 0 
C 58 38 0 
C 60 38 0 
C 62 38 0 
C 64 38 0 
C 66 38 0 
C 68 38 0 
C 70 38 0 
C 72 38 0 
C 74 38 0 
C 76 38 0 
C 78 38 0 
C 80 38 0 
C 82 38 0 
C 84 38 0 
C 86 38 0 
C 88 38 0 
C 90 38 0 
C 92 38 0 
C 94 38 0 
C 96 38 0 
C 98 38 0 
C 100 38 0 
C 0 40 0 
C 2 40 0 
C 4 40 0 
C 6 40 0 
C 8 40 0 
C 10 40 0 
C 12 40 0 
C 14 40 0 
C 16 40 0 
C 18 40 0 
C 20 40 0 
C 22 40 0 
C 24 40 0 
C 26 40 0 
C 28 40 0 
C 30 40 0 
C 32 40 0 
C 34 40 0 
C 36 40 0 
C 38 40 0 
C 40 40 0 
C 42 40 0 
C 44 40 0 
C 46 40 0 
C 48 40 0 
C 50 40 0 
C 52 40 0 
C 54 40 0 
C 56 40 0 
C 58 40 0 
C 60 40 0 
C 62 40 0 
C 64 40 0 
C 66 40 0 
C 68 40 0 
C 70 40 0 
C 72 40 0 
C 74 40 0 
C 76 40 0 
C 78 40 0 
C 80 40 0 
C 82 40 0 
C 84 40 0 
C 86 40 0 
C 88 40 0 
C 90 40 0 
C 92 40 0 
C 94 40 0 
C 96 40 0 
C 98 40 0 
C 100 40 0 
C 0 42 0 
C 2 42 0 
C 4 42 0 
C 6 42 0 
C 8 42 0 
C 10 42 0 
C 12 42 0 
C 14 42 0 
C 16 42 0 
C 18 42 0 
C 20 42 0 
C 22 42 0 
C 24 42 0 
C 26 42 0 
C 28 42 0 
C 30 42 0 
C 32 42 0 
C 34 42 0 
C 36 42 0 
C 38 42 0 
C 40 42 0 
C 42 42 0 
C 44 42 0 
C 46 42 0 
C 48 42 0 
C 50 42 0 
C 52 42 0 
C 54 42 0 
C 56 42 0 
C 58 42 0 
C 60 42 0 
C 62 42 0 
C 64 42 0 
C 66 42 0 
C 68 42 0 
C 70 42 0 
C 72 42 0 
C 74 42 0 
C 76 42 0 
C 78 42 0 
C 80 42 0 
C 82 42 0 
C 84 42 0 
C 86 42 0 
C 88 42 0 
C 90 42 0 
C 92 42 0 
C 94 42 0 
C 96 42 0 
C 98 42 0 
C 100 42 0 
C 0 44 0 
C 2 44 0 
C 4 44 0 
C 6 44 0 
C 8 44 0 
C 10 44 0 
C 12 44 0 
C 14 44 0 
C 16 44 0 
C 18 44 0 
C 20 44 0 
C 22 44 0 
C 24 44 0 
C 26 44 0 
C 28 44 0 
C 30 44 0 
C 32 44 0 
C 34 44 0 
C 36 44 0 
C 38 44 0 
C 40 44 0 
C 42 44 0 
C 44 44 0 
C 46 44 0 
C 48 44 0 
C 50 44 0 
C 52 44 0 
C 54 44 0 
C 56 44 0 
C 58 44 0 
C 60 44 0 
C 62 44 0 
C 64 44 0 
C 66 44 0 
C 68 44 0 
C 70 44 0 
C 72 44 0 
C 74 44 0 
C 76 44 0 
C 78 44 0 
C 80 44 0 
C 82 44 0 
C 84 44 0 
C 86 44 0 
C 88 44 0 
C 90 44 0 
C 92 44 0 
C 94 44 0 
C 96 44 0 
C 98 44 0 
C 100 44 0 
C 0 46 0 
C 2 46 0 
C 4 46 0 
C 6 46 0 
C 8 46 0 
C 10 46 0 
C 12 46 0 
C 14 46 0 
C 16 46 0 
C 18 46 0 
C 20 46 0 
C 22 46 0 
C 24 46 0 
C 26 46 0 
C 28 46 0 
C 30 46 0 
C 32 46 0 
C 34 46 0 
C 36 46 0 
C 38 46 0 
C 40 46 0 
C 42 46 0 
C 44 46 0 
C 46 46 0 
C 48 46 0 
C 50 46 0 
C 52 46 0 
C 54 46 0 
C 56 46 0 
C 58 46 0 
C 60 46 0 
C 62 46 0 
C 64 46 0 
C 66 46 0 
C 68 46 0 
C 70 46 0 
C 72 46 0 
C 74 46 0 
C 76 46 0 
C 78 46 0 
C 80 46 0 
C 82 46 0 
C 84 46 0 
C 86 46 0 
C 88 46 0 
C 90 46 0 
C 92 46 0 
C 94 46 0 
C 96 46 0 
C 98 46 0 
C 100 46 0 
C 0 48 0 
C 2 48 0 
C 4 48 0 
C 6 48 0 
C 8 48 0 
C 10 48 0 
C 12 48 0 
C 14 48 0 
C 16 48 0 
C 18 48 0 
C 20 48 0 
C 22 48 0 
C 24 48 0 
C 26 48 0 
C 28 48 0 
C 30 48 0 
C 32 48 0 
C 34 48 0 
C 36 48 0 
C 38 48 0 
C 40 48 0 
C 42 48 0 
C 44 48 0 
C 46 48 0 
C 48 48 0 
C 50 48 0 
C 52 48 0 
C 54 48 0 
C 56 48 0 
C 58 48 0 
C 60 48 0 
C 62 48 0 
C 64 48 0 
C 66 48 0 
C 68 48 0 
C 70 48 0 
C 72 48 0 
C 74 48 0 
C 76 48 0 
C 78 48 0 
C 80 48 0 
C 82 48 0 
C 84 48 0 
C 86 48 0 
C 88 48 0 
C 90 48 0 
C 92 48 0 
C 94 48 0 
C 96 48 0 
C 98 48 0 
C 100 48 0 
C 0 50 0 
C 2 50 0 
C 4 50 0 
C 6 50 0 
C 8 50 0 
C 10 50 0 
C 12 50 0 
C 14 50 0 
C 16 50 0 
C 18 50 0 
C 20 50 0 
C 22 50 0 
C 24 50 0 
C 26 50 0 
C 28 50 0 
C 30 50 0 
C 32 50 0 
C 34 50 0 
C 36 50 0 
C 38 50 0 
C 40 50 0 
C 42 50 0 
C 44 50 0 
C 46 50 0 
C 48 50 0 
C 50 50 0 
C 52 50 0 
C 54 50 0 
C 56 50 0 
C 58 50 0 
C 60 50 0 
C 62 50 0 
C 64 50 0 
C 66 50 0 
C 68 50 0 
C 70 50 0 
C 72 50 0 
C 74 50 0 
C 76 50 0 
C 78 50 0 
C 80 50 0 
C 82 50 0 
C 84 50 0 
C 86 50 0 
C 88 50 0 
C 90 50 0 
C 92 50 0 
C 94 50 0 
C 96 50 0 
C 98 50 0 
C 100 50 0 
C 0 52 0 
C 2 52 0 
C 4 52 0 
C 6 52 0 
C 8 52 0 
C 10 52 0 
C 12 52 0 
C 14 52 0 
C 16 52 0 
C 18 52 0 
C 20 52 0 
C 22 52 0 
C 24 52 0 
C 26 52 0 
C 28 52 0 
C 30 52 0 
C 32 52 0 
C 34 52 0 
C 36 52 0 
C 38 52 0 
C 40 52 0 
C 42 52 0 
C 44 52 0 
C 46 52 0 
C 48 52 0 
C 50 52 0 
C 52 52 0 
C 54 52 0 
C 56 52 0 
C 58 52 0 
C 60 52 0 
C 62 52 0 
C 64 52 0 
C 66 52 0 
C 68 52 0 
C 70 52 0 
C 72 52 0 
C 74 52 0 
C 76 52 0 
C 78 52 0 
C 80 52 0 
C 82 52 0 
C 84 52 0 
C 86 52 0 
C 88 52 0 
C 90 52 0 
C 92 52 0 
C 94 52 0 
C 96 52 0 
C 98 52 0 
C 100 52 0 
C 0 54 0 
C 2 54 0 
C 4 54 0 
C 6 54 0 
C 8 54 0 
C 10 54 0 
C 12 54 0 
C 14 54 0 
C 16 54 0 
C 18 54 0 
C 20 54 0 
C 22 54 0 
C 24 54 0 
C 26 54 0 
C 28 54 0 
C 30 54 0 
C 32 54 0 
C 34 54 0 
C 36 54 0 
C 38 54 0 
C 40 54 0 
C 42 54 0 
C 44 54 0 
C 46 54 0 
C 48 54 0 
C 50 54 0 
C 52 54 0 
C 54 54 0 
C 56 54 0 
C 58 54 0 
C 60 54 0 
C 62 54 0 
C 64 54 0 
C 66 54 0 
C 68 54 0 
C 70 54 0 
C 72 54 0 
C 74 54 0 
C 76 54 0 
C 78 54 0 
C 80 54 0 
C 82 54 0 
C 84 54 0 
C 86 54 0 
C 88 54 0 
C 90 54 0 
C 92 54 0 
C 94 54 0 
C 96 54 0 
C 98 54 0 
C 100 54 0 
C 0 56 0 
C 2 56 0 
C 4 56 0 
C 6 56 0 
C 8 56 0 
C 10 56 0 
C 12 56 0 
C 14 56 0 
C 16 56 0 
C 18 56 0 
C 20 56 0 
C 22 56 0 
C 24 56 0 
C 26 56 0 
C 28 56 0 
C 30 56 0 
C 32 56 0 
C 34 56 0 
C 36 56 0 
C 38 56 0 
C 40 56 0 
C 42 56 0 
C 44 56 0 
C 46 56 0 
C 48 56 0 
C 50 56 0 
C 52 56 0 
C 54 56 0 
C 56 56 0 
C 58 56 0 
C 60 56 0 
C 62 56 0 
C 64 56 0 
C 66 56 0 
C 68 56 0 
C 70 56 0 
C 72 56 0 
C 74 56 0 
C 76 56 0 
C 78 56 0 
C 80 56 0 
C 82 56 0 
C 84 56 0 
C 86 56 0 
C 88 56 0 
C 90 56 0 
C 92 56 0 
C 94 56 0 
C 96 56 0 
C 98 56 0 
C 100 56 0 
C 0 58 0 
C 2 58 0 
C 4 58 0 
C 6 58 0 
C 8 58 0 
C 10 58 0 
C 12 58 0 
C 14 58 0 
C 16 58 0 
C 18 58 0 
C 20 58 0 
C 22 58 0 
C 24 58 0 
C 26 58 0 
C 28 58 0 
C 30 58 0 
C 32 58 0 
C 34 58 0 
C 36 58 0 
C 38 58 0 
C 40 58 0 
C 42 58 0 
C 44 58 0 
C 46 58 0 
C 48 58 0 
C 50 58 0 
C 52 58 0 
C 54 58 0 
C 56 58 0 
C 58 58 0 
C 60 58 0 
C 62 58 0 
C 64 58 0 
C 66 58 0 
C 68 58 0 
C 70 58 0 
C 72 58 0 
C 74 58 0 
C 76 58 0 
C 78 58 0 
C 80 58 0 
C 82 58 0 
C 84 58 0 
C 86 58 0 
C 88 58 0 
C 90 58 0 
C 92 58 0 
C 94 58 0 
C 96 58 0 
C 98 58 0 
C 100 58 0 
C 0 60 0 
C 2 60 0 
C 4 60 0 
C 6 60 0 
C 8 60 0 
C 10 60 0 
C 12 60 0 
C 14 60 0 
C 16 60 0 
C 18 60 0 
C 20 60 0 
C 22 60 0 
C 24 60 0 
C 26 60 0 
C 28 60 0 
C 30 60 0 
C 32 60 0 
C 34 60 0 
C 36 60 0 
C 38 60 0 
C 40 60 0 
C 42 60 0 
C 44 60 0 
C 46 60 0 
C 48 60 0 
C 50 60 0 
C 52 60 0 
C 54 60 0 
C 56 60 0 
C 58 60 0 
C 60 60 0 
C 62 60 0 
C 64 60 0 
C 66 60 0 
C 68 60 0 
C 70 60 0 
C 72 60 0 
C 74 60 0 
C 76 60 0 
C 78 60 0 
C 80 60 0 
C 82 60 0 
C 84 60 0 
C 86 60 0 
C 88 60 0 
C 90 60 0 
C 92 60 0 
C 94 60 0 
C 96 60 0 
C 98 60 0 
C 100 60 0 
C 0 62 0 
C 2 62 0 
C 4 62 0 
C 6 62 0 
C 8 62 0 
C 10 62 0 
C 12 62 0 
C 14 62 0 
C 16 62 0 
C 18 62 0 
C 20 62 0 
C 22 62 0 
C 24 62 0 
C 26 62 0 
C 28 62 0 
C 30 62 0 
C 32 62 0 
C 34 62 0 
C 36 62 0 
C 38 62 0 
C 40 62 0 
C 42 62 0 
C 44 62 0 
C 46 62 0 
C 48 62 0 
C 50 62 0 
C 52 62 0 
C 54 62 0 
C 56 62 0 
C 58 62 0 
C 60 62 0 
C 62 62 0 
C 64 62 0 
C 66 62 0 
C 68 62 0 
C 70 62 0 
C 72 62 0 
C 74 62 0 
C 76 62 0 
C 78 62 0 
C 80 62 0 
C 82 62 0 
C 84 62 0 
C 86 62 0 
C 88 62 0 
C 90 62 0 
C 92 62 0 
C 94 62 0 
C 96 62 0 
C 98 62 0 
C 100 62 0 
C 0 64 0 
C 2 64 0 
C 4 64 0 
C 6 64 0 
C 8 64 0 
C 10 64 0 
C 12 64 0 
C 14 64 0 
C 16 64 0 
C 18 64 0 
C 20 64 0 
C 22 64 0 
C 24 64 0 
C 26 64 0 
C 28 64 0 
C 30 64 0 
C 32 64 0 
C 34 64 0 
C 36 64 0 
C 38 64 0 
C 40 64 0 
C 42 64 0 
C 44 64 0 
C 46 64 0 
C 48 64 0 
C 50 64 0 
C 52 64 0 
C 54 64 0 
C 56 64 0 
C 58 64 0 
C 60 64 0 
C 62 64 0 
C 64 64 0 
C 66 64 0 
C 68 64 0 
C 70 64 0 
C 72 64 0 
C 74 64 0 
C 76 64 0 
C 78 64 0 
C 80 64 0 
C 82 64 0 
C 84 64 0 
C 86 64 0 
C 88 64 0 
C 90 64 0 
C 92 64 0 
C 94 64 0 
C 96 64 0 
C 98 64 0 
C 100 64 0 
C 0 66 0 
C 2 66 0 
C 4 66 0 
C 6 66 0 
C 8 66 0 
C 10 66 0 
C 12 66 0 
C 14 66 0 
C 16 66 0 
C 18 66 0 
C 20 66 0 
C 22 66 0 
C 24 66 0 
C 26 66 0 
C 28 66 0 
C 30 66 0 
C 32 66 0 
C 34 66 0 
C 36 66 0 
C 38 66 0 
C 40 66 0 
C 42 66 0 
C 44 66 0 
C 46 66 0 
C 48 66 0 
C 50 66 0 
C 52 66 0 
C 54 66 0 
C 56 66 0 
C 58 66 0 
C 60 66 0 
C 62 66 0 
C 64 66 0 
C 66 66 0 
C 68 66 0 
C 70 66 0 
C 72 66 0 
C 74 66 0 
C 76 66 0 
C 78 66 0 
C 80 66 0 
C 82 66 0 
C 84 66 0 
C 86 66 0 
C 88 66 0 
C 90 66 0 
C 92 66 0 
C 94 66 0 
C 96 66 0 
C 98 66 0 
C 100 66 0 
C 0 68 0 
C 2 68 0 
C 4 68 0 
C 6 68 0 
C 8 68 0 
C 10 68 0 
C 12 68 0 
C 14 68 0 
C 16 68 0 
C 18 68 0 
C 20 68 0 
C 22 68 0 
C 24 68 0 
C 26 68 0 
C 28 68 0 
C 30 68 0 
C 32 68 0 
C 34 68 0 
C 36 68 0 
C 38 68 0 
C 40 68 0 
C 42 68 0 
C 44 68 0 
C 46 68 0 
C 48 68 0 
C 50 68 0 
C 52 68 0 
C 54 68 0 
C 56 68 0 
C 58 68 0 
C 60 68 0 
C 62 68 0 
C 64 68 0 
C 66 68 0 
C 68 68 0 
C 70 68 0 
C 72 68 0 
C 74 68 0 
C 76 68 0 
C 78 68 0 
C 80 68 0 
C 82 68 0 
C 84 68 0 
C 86 68 0 
C 88 68 0 
C 90 68 0 
C 92 68 0 
C 94 68 0 
C 96 68 0 
C 98 68 0 
C 100 68 0 
C 0 70 0 
C 2 70 0 
C 4 70 0 
C 6 70 0 
C 8 70 0 
C 10 70 0 
C 12 70 0 
C 14 70 0 
C 16 70 0 
C 18 70 0 
C 20 70 0 
C 22 70 0 
C 24 70 0 
C 26 70 0 
C 28 70 0 
C 30 70 0 
C 32 70 0 
C 34 70 0 
C 36 70 0 
C 38 70 0 
C 40 70 0 
C 42 70 0 
C 44 70 0 
C 46 70 0 
C 48 70 0 
C 50 70 0 
C 52 70 0 
C 54 70 0 
C 56 70 0 
C 58 70 0 
C 60 70 0 
C 62 70 0 
C 64 70 0 
C 66 70 0 
C 68 70 0 
C 70 70 0 
C 72 70 0 
C 74 70 0 
C 76 70 0 
C 78 70 0 
C 80 70 0 
C 82 70 0 
C 84 70 0 
C 86 70 0 
C 88 70 0 
C 90 70 0 
C 92 70 0 
C 94 70 0 
C 96 70 0 
C 98 70 0 
C 100 70 0 
C 0 72 0 
C 2 72 0 
C 4 72 0 
C 6 72 0 
C 8 72 0 
C 10 72 0 
C 12 72 0 
C 14 72 0 
C 16 72 0 
C 18 72 0 
C 20 72 0 
C 22 72 0 
C 24 72 0 
C 26 72 0 
C 28 72 0 
C 30 72 0 
C 32 72 0 
C 34 72 0 
C 36 72 0 
C 38 72 0 
C 40 72 0 
C 42 72 0 
C 44 72 0 
C 46 72 0 
C 48 72 0 
C 50 72 0 
C 52 72 0 
C 54 72 0 
C 56 72 0 
C 58 72 0 
C 60 72 0 
C 62 72 0 
C 64 72 0 
C 66 72 0 
C 68 72 0 
C 70 72 0 
C 72 72 0 
C 74 72 0 
C 76 72 0 
C 78 72 0 
C 80 72 0 
C 82 72 0 
C 84 72 0 
C 86 72 0 
C 88 72 0 
C 90 72 0 
C 92 72 0 
C 94 72 0 
C 96 72 0 
C 98 72 0 
C 100 72 0 
C 0 74 0 
C 2 74 0 
C 4 74 0 
C 6 74 0 
C 8 74 0 
C 10 74 0 
C 12 74 0 
C 14 74 0 
C 16 74 0 
C 18 74 0 
C 20 74 0 
C 22 74 0 
C 24 74 0 
C 26 74 0 
C 28 74 0 
C 30 74 0 
C 32 74 0 
C 34 74 0 
C 36 74 0 
C 38 74 0 
C 40 74 0 
C 42 74 0 
C 44 74 0 
C 46 74 0 
C 48 74 0 
C 50 74 0 
C 52 74 0 
C 54 74 0 
C 56 74 0 
C 58 74 0 
C 60 74 0 
C 62 74 0 
C 64 74 0 
C 66 74 0 
C 68 74 0 
C 70 74 0 
C 72 74 0 
C 74 74 0 
C 76 74 0 
C 78 74 0 
C 80 74 0 
C 82 74 0 
C 84 74 0 
C 86 74 0 
C 88 74 0 
C 90 74 0 
C 92 74 0 
C 94 74 0 
C 96 74 0 
C 98 74 0 
C 100 74 0 
C 0 76 0 
C 2 76 0 
C 4 76 0 
C 6 76 0 
C 8 76 0 
C 10 76 0 
C 12 76 0 
C 14 76 0 
C 16 76 0 
C 18 76 0 
C 20 76 0 
C 22 76 0 
C 24 76 0 
C 26 76 0 
C 28 76 0 
C 30 76 0 
C 32 76 0 
C 34 76 0 
C 36 76 0 
C 38 76 0 
C 40 76 0 
C 42 76 0 
C 44 76 0 
C 46 76 0 
C 48 76 0 
C 50 76 0 
C 52 76 0 
C 54 76 0 
C 56 76 0 
C 58 76 0 
C 60 76 0 
C 62 76 0 
C 64 76 0 
C 66 76 0 
C 68 76 0 
C 70 76 0 
C 72 76 0 
C 74 76 0 
C 76 76 0 
C 78 76 0 
C 80 76 0 
C 82 76 0 
C 84 76 0 
C 86 76 0 
C 88 76 0 
C 90 76 0 
C 92 76 0 
C 94 76 0 
C 96 76 0 
C 98 76 0 
C 100 76 0 
C 0 78 0 
C 2 78 0 
C 4 78 0 
C 6 78 0 
C 8 78 0 
C 10 78 0 
C 12 78 0 
C 14 78 0 
C 16 78 0 
C 18 78 0 
C 20 78 0 
C 22 78 0 
C 24 78 0 
C 26 78 0 
C 28 78 0 
C 30 78 0 
C 32 78 0 
C 34 78 0 
C 36 78 0 
C 38 78 0 
C 40 78 0 
C 42 78 0 
C 44 78 0 
C 46 78 0 
C 48 78 0 
C 50 78 0 
C 52 78 0 
C 54 78 0 
C 56 78 0 
C 58 78 0 
C 60 78 0 
C 62 78 0 
C 64 78 0 
C 66 78 0 
C 68 78 0 
C 70 78 0 
C 72 78 0 
C 74 78 0 
C 76 78 0 
C 78 78 0 
C 80 78 0 
C 82 78 0 
C 84 78 0 
C 86 78 0 
C 88 78 0 
C 90 78 0 
C 92 78 0 
C 94 78 0 
C 96 78 0 
C 98 78 0 
C 100 78 0 
C 0 80 0 
C 2 80 0 
C 4 80 0 
C 6 80 0 
C 8 80 0 
C 10 80 0 
C 12 80 0 
C 14 80 0 
C 16 80 0 
C 18 80 0 
C 20 80 0 
C 22 80 0 
C 24 80 0 
C 26 80 0 
C 28 80 0 
C 30 80 0 
C 32 80 0 
C 34 80 0 
C 36 80 0 
C 38 80 0 
C 40 80 0 
C 42 80 0 
C 44 80 0 
C 46 80 0 
C 48 80 0 
C 50 80 0 
C 52 80 0 
C 54 80 0 
C 56 80 0 
C 58 80 0 
C 60 80 0 
C 62 80 0 
C 64 80 0 
C 66 80 0 
C 68 80 0 
C 70 80 0 
C 72 80 0 
C 74 80 0 
C 76 80 0 
C 78 80 0 
C 80 80 0 
C 82 80 0 
C 84 80 0 
C 86 80 0 
C 88 80 0 
C 90 80 0 
C 92 80 0 
C 94 80 0 
C 96 80 0 
C 98 80 0 
C 100 80 0 
C 0 82 0 
C 2 82 0 
C 4 82 0 
C 6 82 0 
C 8 82 0 
C 10 82 0 
C 12 82 0 
C 14 82 0 
C 16 82 0 
C 18 82 0 
C 20 82 0 
C 22 82 0 
C 24 82 0 
C 26 82 0 
C 28 82 0 
C 30 82 0 
C 32 82 0 
C 34 82 0 
C 36 82 0 
C 38 82 0 
C 40 82 0 
C 42 82 0 
C 44 82 0 
C 46 82 0 
C 48 82 0 
C 50 82 0 
C 52 82 0 
C 54 82 0 
C 56 82 0 
C 58 82 0 
C 60 82 0 
C 62 82 0 
C 64 82 0 
C 66 82 0 
C 68 82 0 
C 70 82 0 
C 72 82 0 
C 74 82 0 
C 76 82 0 
C 78 82 0 
C 80 82 0 
C 82 82 0 
C 84 82 0 
C 86 82 0 
C 88 82 0 
C 90 82 0 
C 92 82 0 
C 94 82 0 
C 96 82 0 
C 98 82 0 
C 100 82 0 
C 0 84 0 
C 2 84 0 
C 4 84 0 
C 6 84 0 
C 8 84 0 
C 10 84 0 
C 12 84 0 
C 14 84 0 
C 16 84 0 
C 18 84 0 
C 20 84 0 
C 22 84 0 
C 24 84 0 
C 26 84 0 
C 28 84 0 
C 30 84 0 
C 32 84 0 
C 34 84 0 
C 36 84 0 
C 38 84 0 
C 40 84 0 
C 42 84 0 
C 44 84 0 
C 46 84 0 
C 48 84 0 
C 50 84 0 
C 52 84 0 
C 54 84 0 
C 56 84 0 
C 58 84 0 
C 60 84 0 
C 62 84 0 
C 64 84 0 
C 66 84 0 
C 68 84 0 
C 70 84 0 
C 72 84 0 
C 74 84 0 
C 76 84 0 
C 78 84 0 
C 80 84 0 
C 82 84 0 
C 84 84 0 
C 86 84 0 
C 88 84 0 
C 90 84 0 
C 92 84 0 
C 94 84 0 
C 96 84 0 
C 98 84 0 
C 100 84 0 
C 0 86 0 
C 2 86 0 
C 4 86 0 
C 6 86 0 
C 8 86 0 
C 10 86 0 
C 12 86 0 
C 14 86 0 
C 16 86 0 
C 18 86 0 
C 20 86 0 
C 22 86 0 
C 24 86 0 
C 26 86 0 
C 28 86 0 
C 30 86 0 
C 32 86 0 
C 34 86 0 
C 36 86 0 
C 38 86 0 
C 40 86 0 
C 42 86 0 
C 44 86 0 
C 46 86 0 
C 48 86 0 
C 50 86 0 
C 52 86 0 
C 54 86 0 
C 56 86 0 
C 58 86 0 
C 60 86 0 
C 62 86 0 
C 64 86 0 
C 66 86 0 
C 68 86 0 
C 70 86 0 
C 72 86 0 
C 74 86 0 
C 76 86 0 
C 78 86 0 
C 80 86 0 
C 82 86 0 
C 84 86 0 
C 86 86 0 
C 88 86 0 
C 90 86 0 
C 92 86 0 
C 94 86 0 
C 96 86 0 
C 98 86 0 
C 100 86 0 
C 0 88 0 
C 2 88 0 
C 4 88 0 
C 6 88 0 
C 8 88 0 
C 10 88 0 
C 12 88 0 
C 14 88 0 
C 16 88 0 
C 18 88 0 
C 20 88 0 
C 22 88 0 
C 24 88 0 
C 26 88 0 
C 28 88 0 
C 30 88 0 
C 32 88 0 
C 34 88 0 
C 36 88 0 
C 38 88 0 
C 40 88 0 
C 42 88 0 
C 44 88 0 
C 46 88 0 
C 48 88 0 
C 50 88 0 
C 52 88 0 
C 54 88 0 
C 56 88 0 
C 58 88 0 
C 60 88 0 
C 62 88 0 
C 64 88 0 
C 66 88 0 
C 68 88 0 
C 70 88 0 
C 72 88 0 
C 74 88 0 
C 76 88 0 
C 78 88 0 
C 80 88 0 
C 82 88 0 
C 84 88 0 
C 86 88 0 
C 88 88 0 
C 90 88 0 
C 92 88 0 
C 94 88 0 
C 96 88 0 
C 98 88 0 
C 100 88 0 
C 0 90 0 
C 2 90 0 
C 4 90 0 
C 6 90 0 
C 8 90 0 
C 10 90 0 
C 12 90 0 
C 14 90 0 
C 16 90 0 
C 18 90 0 
C 20 90 0 
C 22 90 0 
C 24 90 0 
C 26 90 0 
C 28 90 0 
C 30 90 0 
C 32 90 0 
C 34 90 0 
C 36 90 0 
C 38 90 0 
C 40 90 0 
C 42 90 0 
C 44 90 0 
C 46 90 0 
C 48 90 0 
C 50 90 0 
C 52 90 0 
C 54 90 0 
C 56 90 0 
C 58 90 0 
C 60 90 0 
C 62 90 0 
C 64 90 0 
C 66 90 0 
C 68 90 0 
C 70 90 0 
C 72 90 0 
C 74 90 0 
C 76 90 0 
C 78 90 0 
C 80 90 0 
C 82 90 0 
C 84 90 0 
C 86 90 0 
C 88 90 0 
C 90 90 0 
C 92 90 0 
C 94 90 0 
C 96 90 0 
C 98 90 0 
C 100 90 0 
C 0 92 0 
C 2 92 0 
C 4 92 0 
C 6 92 0 
C 8 92 0 
C 10 92 0 
C 12 92 0 
C 14 92 0 
C 16 92 0 
C 18 92 0 
C 20 92 0 
C 22 92 0 
C 24 92 0 
C 26 92 0 
C 28 92 0 
C 30 92 0 
C 32 92 0 
C 34 92 0 
C 36 92 0 
C 38 92 0 
C 40 92 0 
C 42 92 0 
C 44 92 0 
C 46 92 0 
C 48 92 0 
C 50 92 0 
C 52 92 0 
C 54 92 0 
C 56 92 0 
C 58 92 0 
C 60 92 0 
C 62 92 0 
C 64 92 0 
C 66 92 0 
C 68 92 0 
C 70 92 0 
C 72 92 0 
C 74 92 0 
C 76 92 0 
C 78 92 0 
C 80 92 0 
C 82 92 0 
C 84 92 0 
C 86 92 0 
C 88 92 0 
C 90 92 0 
C 92 92 0 
C 94 92 0 
C 96 92 0 
C 98 92 0 
C 100 92 0 
C 0 94 0 
C 2 94 0 
C 4 94 0 
C 6 94 0 
C 8 94 0 
C 10 94 0 
C 12 94 0 
C 14 94 0 
C 16 94 0 
C 18 94 0 
C 20 94 0 
C 22 94 0 
C 24 94 0 
C 26 94 0 
C 28 94 0 
C 30 94 0 
C 32 94 0 
C 34 94 0 
C 36 94 0 
C 38 94 0 
C 40 94 0 
C 42 94 0 
C 44 94 0 
C 46 94 0 
C 48 94 0 
C 50 94 0 
C 52 94 0 
C 54 94 0 
C 56 94 0 
C 58 94 0 
C 60 94 0 
C 62 94 0 
C 64 94 0 
C 66 94 0 
C 68 94 0 
C 70 94 0 
C 72 94 0 
C 74 94 0 
C 76 94 0 
C 78 94 0 
C 80 94 0 
C 82 94 0 
C 84 94 0 
C 86 94 0 
C 88 94 0 
C 90 94 0 
C 92 94 0 
C 94 94 0 
C 96 94 0 
C 98 94 0 
C 100 94 0 
C 0 96 0 
C 2 96 0 
C 4 96 0 
C 6 96 0 
C 8 96 0 
C 10 96 0 
C 12 96 0 
C 14 96 0 
C 16 96 0 
C 18 96 0 
C 20 96 0 
C 22 96 0 
C 24 96 0 
C 26 96 0 
C 28 96 0 
C 30 96 0 
C 32 96 0 
C 34 96 0 
C 36 96 0 
C 38 96 0 
C 40 96 0 
C 42 96 0 
C 44 96 0 
C 46 96 0 
C 48 96 0 
C 50 96 0 
C 52 96 0 
C 54 96 0 
C 56 96 0 
C 58 96 0 
C 60 96 0 
C 62 96 0 
C 64 96 0 
C 66 96 0 
C 68 96 0 
C 70 96 0 
C 72 96 0 
C 74 96 0 
C 76 96 0 
C 78 96 0 
C 80 96 0 
C 82 96 0 
C 84 96 0 
C 86 96 0 
C 88 96 0 
C 90 96 0 
C 92 96 0 
C 94 96 0 
C 96 96 0 
C 98 96 0 
C 100 96 0 
C 0 98 0 
C 2 98 0 
C 4 98 0 
C 6 98 0 
C 8 98 0 
C 10 98 0 
C 12 98 0 
C 14 98 0 
C 16 98 0 
C 18 98 0 
C 20 98 0 
C 22 98 0 
C 24 98 0 
C 26 98 0 
C 28 98 0 
C 30 98 0 
C 32 98 0 
C 34 98 0 
C 36 98 0 
C 38 98 0 
C 40 98 0 
C 42 98 0 
C 44 98 0 
C 46 98 0 
C 48 98 0 
C 50 98 0 
C 52 98 0 
C 54 98 0 
C 56 98 0 
C 58 98 0 
C 60 98 0 
C 62 98 0 
C 64 98 0 
C 66 98 0 
C 68 98 0 
C 70 98 0 
C 72 98 0 
C 74 98 0 
C 76 98 0 
C 78 98 0 
C 80 98 0 
C 82 98 0 
C 84 98 0 
C 86 98 0 
C 88 98 0 
C 90 98 0 
C 92 98 0 
C 94 98 0 
C 96 98 0 
C 98 98 0 
C 100 98 0 
C 0 100 0 
C 2 100 0 
C 4 100 0 
C 6 100 0 
C 8 100 0 
C 10 100 0 
C 12 100 0 
C 14 100 0 
C 16 100 0 
C 18 100 0 
C 20 100 0 
C 22 100 0 
C 24 100 0 
C 26 100 0 
C 28 100 0 
C 30 100 0 
C 32 100 0 
C 34 100 0 
C 36 100 0 
C 38 100 0 
C 40 100 0 
C 42 100 0 
C 44 100 0 
C 46 100 0 
C 48 100 0 
C 50 100 0 
C 52 100 0 
C 54 100 0 
C 56 100 0 
C 58 100 0 
C 60 100 0 
C 62 100 0 
C 64 100 0 
C 66 100 0 
C 68 100 0 
C 70 100 0 
C 72 100 0 
C 74 100 0 
C 76 100 0 
C 78 100 0 
C 80 100 0 
C 82 100 0 
C 84 100 0 
C 86 100 0 
C 88 100 0 
C 90 100 0 
C 92 100 0 
C 94 100 0 
C 96 100 0 
C 98 100 0 
C 100 100 0 
O 60 99 0 
O 87 45 0 
O 17 19 0 
O 79 65 0 
O 95 54 0 
O 16 15 0 
O 94 45 0 
O 51 59 0 
O 17 3 0 
3109
Atoms. Timestep: 2
N 90 19 0 
N 25 55 0 
N 16 71 0 
N 53 97 0 
N 33 19 0 
N 63 24 0 
N 86 65 0 
N 6 53 0 
N 11 52 0 
N 51 32 0 
N 15 3 0 
N 61 30 0 
N 61 11 0 
N 79 79 0 
N 53 85 0 
N 53 60 0 
N 38 71 0 
N 7 88 0 
N 6 13 0 
N 87 25 0 
N 17 36 0 
N 76 13 0 
N 21 27 0 
N 51 72 0 
N 60 97 0 
N 15 88 0 
N 93 8 0 
N 60 99 0 
N 2 39 0 
N 31 50 0 
N 75 32 0 
N 62 17 0 
N 26 63 0 
N 1 45 0 
N 27 19 0 
N 81 52 0 
N 95 68 0 
N 63 5 0 
N 62 87 0 
N 96 3 0 
N 50 13 0 
N 27 97 0 
N 91 28 0 
N 31 63 0 
N 54 47 0 
N 61 21 0 
N 60 77 0 
N 51 39 0 
N 91 77 0 
N 27 15 0 
N 58 23 0 
N 38 41 0 
N 10 21 0 
N 21 33 0 
N 97 73 0 
N 14 79 0 
N 53 64 0 
N 85 8 0 
N 3 19 0 
N 70 69 0 
N 98 61 0 
N 71 98 0 
N 9 32 0 
N 77 82 0 
N 66 13 0 
N 7 55 0 
N 75 62 0 
N 84 31 0 
N 39 21 0 
N 66 33 0 
N 41 21 0 
N 10 95 0 
N 3 45 0 
N 16 75 0 
N 39 80 0 
N 29 24 0 
N 57 85 0 
N 11 34 0 
N 28 51 0 
N 68 9 0 
N 65 45 0 
N 93 22 0 
N 77 95 0 
N 91 43 0 
N 2 37 0 
N 7 26 0 
N 35 68 0 
N 3 76 0 
N 23 27 0 
N 85 81 0 
N 61 81 0 
N 95 93 0 
N 18 19 0 
N 89 58 0 
N 91 4 0 
N 66 3 0 
N 70 55 0 
N 96 15 0 
N 64 65 0 
N 13 32 0 
N 48 63 0 
N 61 96 0 
N 50 41 0 
N 92 13 0 
N 93 96 0 
N 55 91 0 
N 71 63 0 
N 67 48 0 
N 27 91 0 
N 22 75 0 
N 27 45 0 
N 76 63 0 
N 17 77 0 
N 80 13 0 
N 46 67 0 
N 48 49 0 
N 17 55 0 
N 1 74 0 
N 69 94 0 
N 21 97 0 
N 31 31 0 
N 60 81 0 
N 45 26 0 
N 58 59 0 
N 17 29 0 
N 76 7 0 
N 5 72 0 
N 5 7 0 
N 30 15 0 
N 95 82 0 
N 3 85 0 
N 69 41 0 
N 15 39 0 
N 65 95 0 
N 19 12 0 
N 13 76 0 
N 31 56 0 
N 85 43 0 
N 97 44 0 
N 85 23 0 
N 13 44 0 
N 75 76 0 
N 75 2 0 
N 57 8 0 
N 81 87 0 
N 49 94 0 
N 99 52 0 
N 44 57 0 
N 99 77 0 
N 61 91 0 
N 95 40 0 
N 87 71 0 
N 21 35 0 
N 11 95 0 
N 51 70 0 
N 18 81 0 
N 99 81 0 
N 4 69 0 
N 8 3 0 
N 15 38 0 
N 88 39 0 
N 44 55 0 
N 91 39 0 
N 19 3 0 
N 35 88 0 
N 35 78 0 
N 68 13 0 
N 88 87 0 
N 98 21 0 
N 49 69 0 
N 11 97 0 
N 78 35 0 
N 23 37 0 
N 18 15 0 
N 71 28 0 
N 43 92 0 
N 91 61 0 
N 52 1 0 
N 80 75 0 
N 80 85 0 
N 73 33 0 
N 20 7 0 
N 83 54 0 
N 47 55 0 
N 2 69 0 
N 6 65 0 
N 97 53 0 
N 64 79 0 
N 89 69 0 
N 23 18 0 
N 17 72 0 
N 3 93 0 
N 67 65 0 
N 17 82 0 
N 57 66 0 
N 95 21 0 
N 65 72 0 
N 94 21 0 
N 47 38 0 
N 97 37 0 
N 79 7 0 
N 61 89 0 
N 65 32 0 
N 48 99 0 
N 61 8 0 
N 34 67 0 
N 71 30 0 
N 58 43 0 
N 91 84 0 
N 93 57 0 
N 25 60 0 
N 27 65 0 
N 17 5 0 
N 97 21 0 
N 29 19 0 
N 11 73 0 
N 61 69 0 
N 56 63 0 
N 91 80 0 
N 25 86 0 
N 1 56 0 
N 87 26 0 
N 99 69 0 
N 59 30 0 
N 25 47 0 
N 97 81 0 
N 75 38 0 
N 91 52 0 
N 81 26 0 
N 97 72 0 
N 84 81 0 
N 56 49 0 
N 39 22 0 
N 85 75 0 
N 65 58 0 
N 81 57 0 
N 23 33 0 
N 67 83 0 
N 8 39 0 
N 27 13 0 
N 73 58 0 
N 21 68 0 
N 91 53 0 
N 11 24 0 
N 52 51 0 
N 20 3 0 
N 26 13 0 
N 24 65 0 
N 19 64 0 
N 16 13 0 
N 81 94 0 
N 53 59 0 
N 40 85 0 
N 23 25 0 
N 17 32 0 
N 17 27 0 
N 81 43 0 
N 57 38 0 
N 53 25 0 
N 16 81 0 
N 16 63 0 
N 1 34 0 
N 97 46 0 
N 13 29 0 
N 42 77 0 
N 96 89 0 
N 53 40 0 
N 74 45 0 
N 87 70 0 
N 55 45 0 
N 92 99 0 
N 19 7 0 
N 39 92 0 
N 11 2 0 
N 42 47 0 
N 56 55 0 
N 6 27 0 
N 29 39 0 
N 51 65 0 
N 8 33 0 
N 57 71 0 
N 17 14 0 
N 35 70 0 
N 69 23 0 
N 26 77 0 
N 64 19 0 
N 85 86 0 
N 46 45 0 
N 89 9 0 
N 91 3 0 
N 53 5 0 
N 39 19 0 
N 60 87 0 
N 61 5 0 
N 46 1 0 
N 28 79 0 
N 42 45 0 
N 17 65 0 
N 19 39 0 
N 88 45 0 
N 77 94 0 
N 3 55 0 
N 27 85 0 
N 16 97 0 
N 51 55 0 
N 59 9 0 
N 69 74 0 
N 7 45 0 
N 70 1 0 
N 21 89 0 
N 95 72 0 
N 35 52 0 
N 44 99 0 
N 12 31 0 
N 35 97 0 
N 35 77 0 
N 27 8 0 
N 69 39 0 
N 1 3 0 
N 52 19 0 
N 74 75 0 
N 7 15 0 
N 91 47 0 
N 27 68 0 
N 35 8 0 
N 67 2 0 
N 65 24 0 
N 99 2 0 
N 53 88 0 
N 14 45 0 
N 49 37 0 
N 87 3 0 
N 92 43 0 
N 67 21 0 
N 91 50 0 
N 46 33 0 
N 17 99 0 
N 13 94 0 
N 81 3 0 
N 82 63 0 
N 37 35 0 
N 23 36 0 
N 57 1 0 
N 81 39 0 
N 12 17 0 
N 15 94 0 
N 92 3 0 
N 52 93 0 
N 79 94 0 
N 60 85 0 
N 77 30 0 
N 63 82 0 
N 17 53 0 
N 96 57 0 
N 17 20 0 
N 51 27 0 
N 49 39 0 
N 37 3 0 
N 23 93 0 
N 48 55 0 
N 79 23 0 
N 62 37 0 
N 39 77 0 
N 35 32 0 
N 30 37 0 
N 1 43 0 
N 75 18 0 
N 51 46 0 
N 93 41 0 
N 99 44 0 
N 28 81 0 
N 67 10 0 
N 37 79 0 
N 61 24 0 
N 31 66 0 
N 43 8 0 
N 51 49 0 
N 95 15 0 
N 58 29 0 
N 76 93 0 
N 26 5 0 
N 5 83 0 
N 42 7 0 
N 33 74 0 
N 31 65 0 
N 57 54 0 
N 63 53 0 
N 35 20 0 
N 80 41 0 
N 13 30 0 
N 84 99 0 
N 95 75 0 
N 53 96 0 
N 74 27 0 
N 99 45 0 
N 5 30 0 
N 53 4 0 
N 59 27 0 
N 79 81 0 
N 58 79 0 
N 81 86 0 
N 4 65 0 
N 1 50 0 
N 31 61 0 
N 17 80 0 
N 80 35 0 
N 34 65 0 
N 81 70 0 
N 87 47 0 
N 49 35 0 
N 70 9 0 
N 60 5 0 
N 91 7 0 
N 10 43 0 
N 93 7 0 
N 55 51 0 
N 17 54 0 
N 23 35 0 
N 69 46 0 
N 92 41 0 
N 90 75 0 
N 92 35 0 
N 13 82 0 
N 51 64 0 
N 91 66 0 
N 78 13 0 
N 41 50 0 
N 16 61 0 
N 77 27 0 
N 7 21 0 
N 21 81 0 
N 31 23 0 
N 80 15 0 
N 32 65 0 
N 65 53 0 
N 94 53 0 
N 84 45 0 
N 1 10 0 
N 57 88 0 
N 81 67 0 
N 62 1 0 
N 14 63 0 
N 28 5 0 
N 17 71 0 
N 19 41 0 
N 22 25 0 
N 73 78 0 
N 73 77 0 
N 23 61 0 
N 19 67 0 
N 62 77 0 
N 89 77 0 
N 97 29 0 
N 64 17 0 
N 71 33 0 
N 68 31 0 
N 37 57 0 
N 95 62 0 
N 78 67 0 
N 6 3 0 
N 38 83 0 
N 63 36 0 
N 15 31 0 
N 17 89 0 
N 27 62 0 
N 13 13 0 
N 2 27 0 
N 84 65 0 
N 59 78 0 
N 19 70 0 
N 43 80 0 
N 8 13 0 
N 14 1 0 
N 39 14 0 
N 91 22 0 
N 45 48 0 
N 1 62 0 
N 30 87 0 
N 37 66 0 
N 35 7 0 
N 54 59 0 
N 91 40 0 
N 91 97 0 
N 69 30 0 
N 55 43 0 
N 79 26 0 
N 19 93 0 
N 95 23 0 
N 73 26 0 
N 85 15 0 
N 39 82 0 
N 53 19 0 
N 39 18 0 
N 30 29 0 
N 37 77 0 
N 51 41 0 
N 0 61 0 
N 67 15 0 
N 33 71 0 
N 93 65 0 
C 0 0 0 
C 2 0 0 
C 4 0 0 
C 6 0 0 
C 8 0 0 
C 10 0 0 
C 12 0 0 
C 14 0 0 
C 16 0 0 
C 18 0 0 
C 20 0 0 
C 22 0 0 
C 24 0 0 
C 26 0 0 
C 28 0 0 
C 30 0 0 
C 32 0 0 
C 34 0 0 
C 36 0 0 
C 38 0 0 
C 40 0 0 
C 42 0 0 
C 44 0 0 
C 46 0 0 
C 48 0 0 
C 50 0 0 
C 52 0 0 
C 54 0 0 
C 56 0 0 
C 58 0 0 
C 60 0 0 
C 62 0 0 
C 64 0 0 
C 66 0 0 
C 68 0 0 
C 70 0 0 
C 72 0 0 
C 74 0 0 
C 76 0 0 
C 78 0 0 
C 80 0 0 
C 82 0 0 
C 84 0 0 
C 86 0 0 
C 88 0 0 
C 90 0 0 
C 92 0 0 
C 94 0 0 
C 96 0 0 
C 98 0 0 
C 100 0 0 
C 0 2 0 
C 2 2 0 
C 4 2 0 
C 6 2 0 
C 8 2 0 
C 10 2 0 
C 12 2 0 
C 14 2 0 
C 16 2 0 
C 18 2 0 
C 20 2 0 
C 22 2 0 
C 24 2 0 
C 26 2 0 
C 28 2 0 
C 30 2 0 
C 32 2 0 
C 34 2 0 
C 36 2 0 
C 38 2 0 
C 40 2 0 
C 42 2 0 
C 44 2 0 
C 46 2 0 
C 48 2 0 
C 50 2 0 
C 52 2 0 
C 54 2 0 
C 56 2 0 
C 58 2 0 
C 60 2 0 
C 62 2 0 
C 64 2 0 
C 66 2 0 
C 68 2 0 
C 70 2 0 
C 72 2 0 
C 74 2 0 
C 76 2 0 
C 78 2 0 
C 80 2 0 
C 82 2 0 
C 84 2 0 
C 86 2 0 
C 88 2 0 
C 90 2 0 
C 92 2 0 
C 94 2 0 
C 96 2 0 
C 98 2 0 
C 100 2 0 
C 0 4 0 
C 2 4 0 
C 4 4 0 
C 6 4 0 
C 8 4 0 
C 10 4 0 
C 12 4 0 
C 14 4 0 
C 16 4 0 
C 18 4 0 
C 20 4 0 
C 22 4 0 
C 24 4 0 
C 26 4 0 
C 28 4 0 
C 30 4 0 
C 32 4 0 
C 34 4 0 
C 36 4 0 
C 38 4 0 
C 40 4 0 
C 42 4 0 
C 44 4 0 
C 46 4 0 
C 48 4 0 
C 50 4 0 
C 52 4 0 
C 54 4 0 
C 56 4 0 
C 58 4 0 
C 60 4 0 
C 62 4 0 
C 64 4 0 
C 66 4 0 
C 68 4 0 
C 70 4 0 
C 72 4 0 
C 74 4 0 
C 76 4 0 
C 78 4 0 
C 80 4 0 
C 82 4 0 
C 84 4 0 
C 86 4 0 
C 88 4 0 
C 90 4 0 
C 92 4 0 
C 94 4 0 
C 96 4 0 
C 98 4 0 
C 100 4 0 
C 0 6 0 
C 2 6 0 
C 4 6 0 
C 6 6 0 
C 8 6 0 
C 10 6 0 
C 12 6 0 
C 14 6 0 
C 16 6 0 
C 18 6 0 
C 20 6 0 
C 22 6 0 
C 24 6 0 
C 26 6 0 
C 28 6 0 
C 30 6 0 
C 32 6 0 
C 34 6 0 
C 36 6 0 
C 38 6 0 
C 40 6 0 
C 42 6 0 
C 44 6 0 
C 46 6 0 
C 48 6 0 
C 50 6 0 
C 52 6 0 
C 54 6 0 
C 56 6 0 
C 58 6 0 
C 60 6 0 
C 62 6 0 
C 64 6 0 
C 66 6 0 
C 68 6 0 
C 70 6 0 
C 72 6 0 
C 74 6 0 
C 76 6 0 
C 78 6 0 
C 80 6 0 
C 82 6 0 
C 84 6 0 
C 86 6 0 
C 88 6 0 
C 90 6 0 
C 92 6 0 
C 94 6 0 
C 96 6 0 
C 98 6 0 
C 100 6 0 
C 0 8 0 
C 2 8 0 
C 4 8 0 
C 6 8 0 
C 8 8 0 
C 10 8 0 
C 12 8 0 
C 14 8 0 
C 16 8 0 
C 18 8 0 
C 20 8 0 
C 22 8 0 
C 24 8 0 
C 26 8 0 
C 28 8 0 
C 30 8 0 
C 32 8 0 
C 34 8 0 
C 36 8 0 
C 38 8 0 
C 40 8 0 
C 42 8 0 
C 44 8 0 
C 46 8 0 
C 48 8 0 
C 50 8 0 
C 52 8 0 
C 54 8 0 
C 56 8 0 
C 58 8 0 
C 60 8 0 
C 62 8 0 
C 64 8 0 
C 66 8 0 
C 68 8 0 
C 70 8 0 
C 72 8 0 
C 74 8 0 
C 76 8 0 
C 78 8 0 
C 80 8 0 
C 82 8 0 
C 84 8 0 
C 86 8 0 
C 88 8 0 
C 90 8 0 
C 92 8 0 
C 94 8 0 
C 96 8 0 
C 98 8 0 
C 100 8 0 
C 0 10 0 
C 2 10 0 
C 4 10 0 
C 6 10 0 
C 8 10 0 
C 10 10 0 
C 12 10 0 
C 14 10 0 
C 16 10 0 
C 18 10 0 
C 20 10 0 
C 22 10 0 
C 24 10 0 
C 26 10 0 
C 28 10 0 
C 30 10 0 
C 32 10 0 
C 34 10 0 
C 36 10 0 
C 38 10 0 
C 40 10 0 
C 42 10 0 
C 44 10 0 
C 46 10 0 
C 48 10 0 
C 50 10 0 
C 52 10 0 
C 54 10 0 
C 56 10 0 
C 58 10 0 
C 60 10 0 
C 62 10 0 
C 64 10 0 
C 66 10 0 
C 68 10 0 
C 70 10 0 
C 72 10 0 
C 74 10 0 
C 76 10 0 
C 78 10 0 
C 80 10 0 
C 82 10 0 
C 84 10 0 
C 86 10 0 
C 88 10 0 
C 90 10 0 
C 92 10 0 
C 94 10 0 
C 96 10 0 
C 98 10 0 
C 100 10 0 
C 0 12 0 
C 2 12 0 
C 4 12 0 
C 6 12 0 
C 8 12 0 
C 10 12 0 
C 12 12 0 
C 14 12 0 
C 16 12 0 
C 18 12 0 
C 20 12 0 
C 22 12 0 
C 24 12 0 
C 26 12 0 
C 28 12 0 
C 30 12 0 
C 32 12 0 
C 34 12 0 
C 36 12 0 
C 38 12 0 
C 40 12 0 
C 42 12 0 
C 44 12 0 
C 46 12 0 
C 48 12 0 
C 50 12 0 
C 52 12 0 
C 54 12 0 
C 56 12 0 
C 58 12 0 
C 60 12 0 
C 62 12 0 
C 64 12 0 
C 66 12 0 
C 68 12 0 
C 70 12 0 
C 72 12 0 
C 74 12 0 
C 76 12 0 
C 78 12 0 
C 80 12 0 
C 82 12 0 
C 84 12 0 
C 86 12 0 
C 88 12 0 
C 90 12 0 
C 92 12 0 
C 94 12 0 
C 96 12 0 
C 98 12 0 
C 100 12 0 
C 0 14 0 
C 2 14 0 
C 4 14 0 
C 6 14 0 
C 8 14 0 
C 10 14 0 
C 12 14 0 
C 14 14 0 
C 16 14 0 
C 18 14 0 
C 20 14 0 
C 22 14 0 
C 24 14 0 
C 26 14 0 
C 28 14 0 
C 30 14 0 
C 32 14 0 
C 34 14 0 
C 36 14 0 
C 38 14 0 
C 40 14 0 
C 42 14 0 
C 44 14 0 
C 46 14 0 
C 48 14 0 
C 50 14 0 
C 52 14 0 
C 54 14 0 
C 56 14 0 
C 58 14 0 
C 60 14 0 
C 62 14 0 
C 64 14 0 
C 66 14 0 
C 68 14 0 
C 70 14 0 
C 72 14 0 
C 74 14 0 
C 76 14 0 
C 78 14 0 
C 80 14 0 
C 82 14 0 
C 84 14 0 
C 86 14 0 
C 88 14 0 
C 90 14 0 
C 92 14 0 
C 94 14 0 
C 96 14 0 
C 98 14 0 
C 100 14 0 
C 0 16 0 
C 2 16 0 
C 4 16 0 
C 6 16 0 
C 8 16 0 
C 10 16 0 
C 12 16 0 
C 14 16 0 
C 16 16 0 
C 18 16 0 
C 20 16 0 
C 22 16 0 
C 24 16 0 
C 26 16 0 
C 28 16 0 
C 30 16 0 
C 32 16 0 
C 34 16 0 
C 36 16 0 
C 38 16 0 
C 40 16 0 
C 42 16 0 
C 44 16 0 
C 46 16 0 
C 48 16 0 
C 50 16 0 
C 52 16 0 
C 54 16 0 
C 56 16 0 
C 58 16 0 
C 60 16 0 
C 62 16 0 
C 64 16 0 
C 66 16 0 
C 68 16 0 
C 70 16 0 
C 72 16 0 
C 74 16 0 
C 76 16 0 
C 78 16 0 
C 80 16 0 
C 82 16 0 
C 84 16 0 
C 86 16 0 
C 88 16 0 
C 90 16 0 
C 92 16 0 
C 94 16 0 
C 96 16 0 
C 98 16 0 
C 100 16 0 
C 0 18 0 
C 2 18 0 
C 4 18 0 
C 6 18 0 
C 8 18 0 
C 10 18 0 
C 12 18 0 
C 14 18 0 
C 16 18 0 
C 18 18 0 
C 20 18 0 
C 22 18 0 
C 24 18 0 
C 26 18 0 
C 28 18 0 
C 30 18 0 
C 32 18 0 
C 34 18 0 
C 36 18 0 
C 38 18 0 
C 40 18 0 
C 42 18 0 
C 44 18 0 
C 46 18 0 
C 48 18 0 
C 50 18 0 
C 52 18 0 
C 54 18 0 
C 56 18 0 
C 58 18 0 
C 60 18 0 
C 62 18 0 
C 64 18 0 
C 66 18 0 
C 68 18 0 
C 70 18 0 
C 72 18 0 
C 74 18 0 
C 76 18 0 
C 78 18 0 
C 80 18 0 
C 82 18 0 
C 84 18 0 
C 86 18 0 
C 88 18 0 
C 90 18 0 
C 92 18 0 
C 94 18 0 
C 96 18 0 
C 98 18 0 
C 100 18 0 
C 0 20 0 
C 2 20 0 
C 4 20 0 
C 6 20 0 
C 8 20 0 
C 10 20 0 
C 12 20 0 
C 14 20 0 
C 16 20 0 
C 18 20 0 
C 20 20 0 
C 22 20 0 
C 24 20 0 
C 26 20 0 
C 28 20 0 
C 30 20 0 
C 32 20 0 
C 34 20 0 
C 36 20 0 
C 38 20 0 
C 40 20 0 
C 42 20 0 
C 44 20 0 
C 46 20 0 
C 48 20 0 
C 50 20 0 
C 52 20 0 
C 54 20 0 
C 56 20 0 
C 58 20 0 
C 60 20 0 
C 62 20 0 
C 64 20 0 
C 66 20 0 
C 68 20 0 
C 70 20 0 
C 72 20 0 
C 74 20 0 
C 76 20 0 
C 78 20 0 
C 80 20 0 
C 82 20 0 
C 84 20 0 
C 86 20 0 
C 88 20 0 
C 90 20 0 
C 92 20 0 
C 94 20 0 
C 96 20 0 
C 98 20 0 
C 100 20 0 
C 0 22 0 
C 2 22 0 
C 4 22 0 
C 6 22 0 
C 8 22 0 
C 10 22 0 
C 12 22 0 
C 14 22 0 
C 16 22 0 
C 18 22 0 
C 20 22 0 
C 22 22 0 
C 24 22 0 
C 26 22 0 
C 28 22 0 
C 30 22 0 
C 32 22 0 
C 34 22 0 
C 36 22 0 
C 38 22 0 
C 40 22 0 
C 42 22 0 
C 44 22 0 
C 46 22 0 
C 48 22 0 
C 50 22 0 
C 52 22 0 
C 54 22 0 
C 56 22 0 
C 58 22 0 
C 60 22 0 
C 62 22 0 
C 64 22 0 
C 66 22 0 
C 68 22 0 
C 70 22 0 
C 72 22 0 
C 74 22 0 
C 76 22 0 
C 78 22 0 
C 80 22 0 
C 82 22 0 
C 84 22 0 
C 86 22 0 
C 88 22 0 
C 90 22 0 
C 92 22 0 
C 94 22 0 
C 96 22 0 
C 98 22 0 
C 100 22 0 
C 0 24 0 
C 2 24 0 
C 4 24 0 
C 6 24 0 
C 8 24 0 
C 10 24 0 
C 12 24 0 
C 14 24 0 
C 16 24 0 
C 18 24 0 
C 20 24 0 
C 22 24 0 
C 24 24 0 
C 26 24 0 
C 28 24 0 
C 30 24 0 
C 32 24 0 
C 34 24 0 
C 36 24 0 
C 38 24 0 
C 40 24 0 
C 42 24 0 
C 44 24 0 
C 46 24 0 
C 48 24 0 
C 50 24 0 
C 52 24 0 
C 54 24 0 
C 56 24 0 
C 58 24 0 
C 60 24 0 
C 62 24 0 
C 64 24 0 
C 66 24 0 
C 68 24 0 
C 70 24 0 
C 72 24 0 
C 74 24 0 
C 76 24 0 
C 78 24 0 
C 80 24 0 
C 82 24 0 
C 84 24 0 
C 86 24 0 
C 88 24 0 
C 90 24 0 
C 92 24 0 
C 94 24 0 
C 96 24 0 
C 98 24 0 
C 100 24 0 
C 0 26 0 
C 2 26 0 
C 4 26 0 
C 6 26 0 
C 8 26 0 
C 10 26 0 
C 12 26 0 
C 14 26 0 
C 16 26 0 
C 18 26 0 
C 20 26 0 
C 22 26 0 
C 24 26 0 
C 26 26 0 
C 28 26 0 
C 30 26 0 
C 32 26 0 
C 34 26 0 
C 36 26 0 
C 38 26 0 
C 40 26 0 
C 42 26 0 
C 44 26 0 
C 46 26 0 
C 48 26 0 
C 50 26 0 
C 52 26 0 
C 54 26 0 
C 56 26 0 
C 58 26 0 
C 60 26 0 
C 62 26 0 
C 64 26 0 
C 66 26 0 
C 68 26 0 
C 70 26 0 
C 72 26 0 
C 74 26 0 
C 76 26 0 
C 78 26 0 
C 80 26 0 
C 82 26 0 
C 84 26 0 
C 86 26 0 
C 88 26 0 
C 90 26 0 
C 92 26 0 
C 94 26 0 
C 96 26 0 
C 98 26 0 
C 100 26 0 
C 0 28 0 
C 2 28 0 
C 4 28 0 
C 6 28 0 
C 8 28 0 
C 10 28 0 
C 12 28 0 
C 14 28 0 
C 16 28 0 
C 18 28 0 
C 20 28 0 
C 22 28 0 
C 24 28 0 
C 26 28 0 
C 28 28 0 
C 30 28 0 
C 32 28 0 
C 34 28 0 
C 36 28 0 
C 38 28 0 
C 40 28 0 
C 42 28 0 
C 44 28 0 
C 46 28 0 
C 48 28 0 
C 50 28 0 
C 52 28 0 
C 54 28 0 
C 56 28 0 
C 58 28 0 
C 60 28 0 
C 62 28 0 
C 64 28 0 
C 66 28 0 
C 68 28 0 
C 70 28 0 
C 72 28 0 
C 74 28 0 
C 76 28 0 
C 78 28 0 
C 80 28 0 
C 82 28 0 
C 84 28 0 
C 86 28 0 
C 88 28 0 
C 90 28 0 
C 92 28 0 
C 94 28 0 
C 96 28 0 
C 98 28 0 
C 100 28 0 
C 0 30 0 
C 2 30 0 
C 4 30 0 
C 6 30 0 
C 8 30 0 
C 10 30 0 
C 12 30 0 
C 14 30 0 
C 16 30 0 
C 18 30 0 
C 20 30 0 
C 22 30 0 
C 24 30 0 
C 26 30 0 
C 28 30 0 
C 30 30 0 
C 32 30 0 
C 34 30 0 
C 36 30 0 
C 38 30 0 
C 40 30 0 
C 42 30 0 
C 44 30 0 
C 46 30 0 
C 48 30 0 
C 50 30 0 
C 52 30 0 
C 54 30 0 
C 56 30 0 
C 58 30 0 
C 60 30 0 
C 62 30 0 
C 64 30 0 
C 66 30 0 
C 68 30 0 
C 70 30 0 
C 72 30 0 
C 74 30 0 
C 76 30 0 
C 78 30 0 
C 80 30 0 
C 82 30 0 
C 84 30 0 
C 86 30 0 
C 88 30 0 
C 90 30 0 
C 92 30 0 
C 94 30 0 
C 96 30 0 
C 98 30 0 
C 100 30 0 
C 0 32 0 
C 2 32 0 
C 4 32 0 
C 6 32 0 
C 8 32 0 
C 10 32 0 
C 12 32 0 
C 14 32 0 
C 16 32 0 
C 18 32 0 
C 20 32 0 
C 22 32 0 
C 24 32 0 
C 26 32 0 
C 28 32 0 
C 30 32 0 
C 32 32 0 
C 34 32 0 
C 36 32 0 
C 38 32 0 
C 40 32 0 
C 42 32 0 
C 44 32 0 
C 46 32 0 
C 48 32 0 
C 50 32 0 
C 52 32 0 
C 54 32 0 
C 56 32 0 
C 58 32 0 
C 60 32 0 
C 62 32 0 
C 64 32 0 
C 66 32 0 
C 68 32 0 
C 70 32 0 
C 72 32 0 
C 74 32 0 
C 76 32 0 
C 78 32 0 
C 80 32 0 
C 82 32 0 
C 84 32 0 
C 86 32 0 
C 88 32 0 
C 90 32 0 
C 92 32 0 
C 94 32 0 
C 96 32 0 
C 98 32 0 
C 100 32 0 
C 0 34 0 
C 2 34 0 
C 4 34 0 
C 6 34 0 
C 8 34 0 
C 10 34 0 
C 12 34 0 
C 14 34 0 
C 16 34 0 
C 18 34 0 
C 20 34 0 
C 22 34 0 
C 24 34 0 
C 26 34 0 
C 28 34 0 
C 30 34 0 
C 32 34 0 
C 34 34 0 
C 36 34 0 
C 38 34 0 
C 40 34 0 
C 42 34 0 
C 44 34 0 
C 46 34 0 
C 48 34 0 
C 50 34 0 
C 52 34 0 
C 54 34 0 
C 56 34 0 
C 58 34 0 
C 60 34 0 
C 62 34 0 
C 64 34 0 
C 66 34 0 
C 68 34 0 
C 70 34 0 
C 72 34 0 
C 74 34 0 
C 76 34 0 
C 78 34 0 
C 80 34 0 
C 82 34 0 
C 84 34 0 
C 86 34 0 
C 88 34 0 
C 90 34 0 
C 92 34 0 
C 94 34 0 
C 96 34 0 
C 98 34 0 
C 100 34 0 
C 0 36 0 
C 2 36 0 
C 4 36 0 
C 6 36 0 
C 8 36 0 
C 10 36 0 
C 12 36 0 
C 14 36 0 
C 16 36 0 
C 18 36 0 
C 20 36 0 
C 22 36 0 
C 24 36 0 
C 26 36 0 
C 28 36 0 
C 30 36 0 
C 32 36 0 
C 34 36 0 
C 36 36 0 
C 38 36 0 
C 40 36 0 
C 42 36 0 
C 44 36 0 
C 46 36 0 
C 48 36 0 
C 50 36 0 
C 52 36 0 
C 54 36 0 
C 56 36 0 
C 58 36 0 
C 60 36 0 
C 62 36 0 
C 64 36 0 
C 66 36 0 
C 68 36 0 
C 70 36 0 
C 72 36 0 
C 74 36 0 
C 76 36 0 
C 78 36 0 
C 80 36 0 
C 82 36 0 
C 84 36 0 
C 86 36 0 
C 88 36 0 
C 90 36 0 
C 92 36 0 
C 94 36 0 
C 96 36 0 
C 98 36 0 
C 100 36 0 
C 0 38 0 
C 2 38 0 
C 4 38 0 
C 6 38 0 
C 8 38 0 
C 10 38 0 
C 12 38 0 
C 14 38 0 
C 16 38 0 
C 18 38 0 
C 20 38 0 
C 22 38 0 
C 24 38 0 
C 26 38 0 
C 28 38 0 
C 30 38 0 
C 32 38 0 
C 34 38 0 
C 36 38 0 
C 38 38 0 
C 40 38 0 
C 42 38 0 
C 44 38 0 
C 46 38 0 
C 48 38 0 
C 50 38 0 
C 52 38 0 
C 54 38 0 
C 56 38 0 
C 58 38 0 
C 60 38 0 
C 62 38 0 
C 64 38 0 
C 66 38 0 
C 68 38 0 
C 70 38 0 
C 72 38 0 
C 74 38 0 
C 76 38 0 
C 78 38 0 
C 80 38 0 
C 82 38 0 
C 84 38 0 
C 86 38 0 
C 88 38 0 
C 90 38 0 
C 92 38 0 
C 94 38 0 
C 96 38 0 
C 98 38 0 
C 100 38 0 
C 0 40 0 
C 2 40 0 
C 4 40 0 
C 6 40 0 
C 8 40 0 
C 10 40 0 
C 12 40 0 
C 14 40 0 
C 16 40 0 
C 18 40 0 
C 20 40 0 
C 22 40 0 
C 24 40 0 
C 26 40 0 
C 28 40 0 
C 30 40 0 
C 32 40 0 
C 34 40 0 
C 36 40 0 
C 38 40 0 
C 40 40 0 
C 42 40 0 
C 44 40 0 
C 46 40 0 
C 48 40 0 
C 50 40 0 
C 52 40 0 
C 54 40 0 
C 56 40 0 
C 58 40 0 
C 60 40 0 
C 62 40 0 
C 64 40 0 
C 66 40 0 
C 68 40 0 
C 70 40 0 
C 72 40 0 
C 74 40 0 
C 76 40 0 
C 78 40 0 
C 80 40 0 
C 82 40 0 
C 84 40 0 
C 86 40 0 
C 88 40 0 
C 90 40 0 
C 92 40 0 
C 94 40 0 
C 96 40 0 
C 98 40 0 
C 100 40 0 
C 0 42 0 
C 2 42 0 
C 4 42 0 
C 6 42 0 
C 8 42 0 
C 10 42 0 
C 12 42 0 
C 14 42 0 
C 16 42 0 
C 18 42 0 
C 20 42 0 
C 22 42 0 
C 24 42 0 
C 26 42 0 
C 28 42 0 
C 30 42 0 
C 32 42 0 
C 34 42 0 
C 36 42 0 
C 38 42 0 
C 40 42 0 
C 42 42 0 
C 44 42 0 
C 46 42 0 
C 48 42 0 
C 50 42 0 
C 52 42 0 
C 54 42 0 
C 56 42 0 
C 58 42 0 
C 60 42 0 
C 62 42 0 
C 64 42 0 
C 66 42 0 
C 68 42 0 
C 70 42 0 
C 72 42 0 
C 74 42 0 
C 76 42 0 
C 78 42 0 
C 80 42 0 
C 82 42 0 
C 84 42 0 
C 86 42 0 
C 88 42 0 
C 90 42 0 
C 92 42 0 
C 94 42 0 
C 96 42 0 
C 98 42 0 
C 100 42 0 
C 0 44 0 
C 2 44 0 
C 4 44 0 
C 6 44 0 
C 8 44 0 
C 10 44 0 
C 12 44 0 
C 14 44 0 
C 16 44 0 
C 18 44 0 
C 20 44 0 
C 22 44 0 
C 24 44 0 
C 26 44 0 
C 28 44 0 
C 30 44 0 
C 32 44 0 
C 34 44 0 
C 36 44 0 
C 38 44 0 
C 40 44 0 
C 42 44 0 
C 44 44 0 
C 46 44 0 
C 48 44 0 
C 50 44 0 
C 52 44 0 
C 54 44 0 
C 56 44 0 
C 58 44 0 
C 60 44 0 
C 62 44 0 
C 64 44 0 
C 66 44 0 
C 68 44 0 
C 70 44 0 
C 72 44 0 
C 74 44 0 
C 76 44 0 
C 78 44 0 
C 80 44 0 
C 82 44 0 
C 84 44 0 
C 86 44 0 
C 88 44 0 
C 90 44 0 
C 92 44 0 
C 94 44 0 
C 96 44 0 
C 98 44 0 
C 100 44 0 
C 0 46 0 
C 2 46 0 
C 4 46 0 
C 6 46 0 
C 8 46 0 
C 10 46 0 
C 12 46 0 
C 14 46 0 
C 16 46 0 
C 18 46 0 
C 20 46 0 
C 22 46 0 
C 24 46 0 
C 26 46 0 
C 28 46 0 
C 30 46 0 
C 32 46 0 
C 34 46 0 
C 36 46 0 
C 38 46 0 
C 40 46 0 
C 42 46 0 
C 44 46 0 
C 46 46 0 
C 48 46 0 
C 50 46 0 
C 52 46 0 
C 54 46 0 
C 56 46 0 
C 58 46 0 
C 60 46 0 
C 62 46 0 
C 64 46 0 
C 66 46 0 
C 68 46 0 
C 70 46 0 
C 72 46 0 
C 74 46 0 
C 76 46 0 
C 78 46 0 
C 80 46 0 
C 82 46 0 
C 84 46 0 
C 86 46 0 
C 88 46 0 
C 90 46 0 
C 92 46 0 
C 94 46 0 
C 96 46 0 
C 98 46 0 
C 100 46 0 
C 0 48 0 
C 2 48 0 
C 4 48 0 
C 6 48 0 
C 8 48 0 
C 10 48 0 
C 12 48 0 
C 14 48 0 
C 16 48 0 
C 18 48 0 
C 20 48 0 
C 22 48 0 
C 24 48 0 
C 26 48 0 
C 28 48 0 
C 30 48 0 
C 32 48 0 
C 34 48 0 
C 36 48 0 
C 38 48 0 
C 40 48 0 
C 42 48 0 
C 44 48 0 
C 46 48 0 
C 48 48 0 
C 50 48 0 
C 52 48 0 
C 54 48 0 
C 56 48 0 
C 58 48 0 
C 60 48 0 
C 62 48 0 
C 64 48 0 
C 66 48 0 
C 68 48 0 
C 70 48 0 
C 72 48 0 
C 74 48 0 
C 76 48 0 
C 78 48 0 
C 80 48 0 
C 82 48 0 
C 84 48 0 
C 86 48 0 
C 88 48 0 
C 90 48 0 
C 92 48 0 
C 94 48 0 
C 96 48 0 
C 98 48 0 
C 100 48 0 
C 0 50 0 
C 2 50 0 
C 4 50 0 
C 6 50 0 
C 8 50 0 
C 10 50 0 
C 12 50 0 
C 14 50 0 
C 16 50 0 
C 18 50 0 
C 20 50 0 
C 22 50 0 
C 24 50 0 
C 26 50 0 
C 28 50 0 
C 30 50 0 
C 32 50 0 
C 34 50 0 
C 36 50 0 
C 38 50 0 
C 40 50 0 
C 42 50 0 
C 44 50 0 
C 46 50 0 
C 48 50 0 
C 50 50 0 
C 52 50 0 
C 54 50 0 
C 56 50 0 
C 58 50 0 
C 60 50 0 
C 62 50 0 
C 64 50 0 
C 66 50 0 
C 68 50 0 
C 70 50 0 
C 72 50 0 
C 74 50 0 
C 76 50 0 
C 78 50 0 
C 80 50 0 
C 82 50 0 
C 84 50 0 
C 86 50 0 
C 88 50 0 
C 90 50 0 
C 92 50 0 
C 94 50 0 
C 96 50 0 
C 98 50 0 
C 100 50 0 
C 0 52 0 
C 2 52 0 
C 4 52 0 
C 6 52 0 
C 8 52 0 
C 10 52 0 
C 12 52 0 
C 14 52 0 
C 16 52 0 
C 18 52 0 
C 20 52 0 
C 22 52 0 
C 24 52 0 
C 26 52 0 
C 28 52 0 
C 30 52 0 
C 32 52 0 
C 34 52 0 
C 36 52 0 
C 38 52 0 
C 40 52 0 
C 42 52 0 
C 44 52 0 
C 46 52 0 
C 48 52 0 
C 50 52 0 
C 52 52 0 
C 54 52 0 
C 56 52 0 
C 58 52 0 
C 60 52 0 
C 62 52 0 
C 64 52 0 
C 66 52 0 
C 68 52 0 
C 70 52 0 
C 72 52 0 
C 74 52 0 
C 76 52 0 
C 78 52 0 
C 80 52 0 
C 82 52 0 
C 84 52 0 
C 86 52 0 
C 88 52 0 
C 90 52 0 
C 92 52 0 
C 94 52 0 
C 96 52 0 
C 98 52 0 
C 100 52 0 
C 0 54 0 
C 2 54 0 
C 4 54 0 
C 6 54 0 
C 8 54 0 
C 10 54 0 
C 12 54 0 
C 14 54 0 
C 16 54 0 
C 18 54 0 
C 20 54 0 
C 22 54 0 
C 24 54 0 
C 26 54 0 
C 28 54 0 
C 30 54 0 
C 32 54 0 
C 34 54 0 
C 36 54 0 
C 38 54 0 
C 40 54 0 
C 42 54 0 
C 44 54 0 
C 46 54 0 
C 48 54 0 
C 50 54 0 
C 52 54 0 
C 54 54 0 
C 56 54 0 
C 58 54 0 
C 60 54 0 
C 62 54 0 
C 64 54 0 
C 66 54 0 
C 68 54 0 
C 70 54 0 
C 72 54 0 
C 74 54 0 
C 76 54 0 
C 78 54 0 
C 80 54 0 
C 82 54 0 
C 84 54 0 
C 86 54 0 
C 88 54 0 
C 90 54 0 
C 92 54 0 
C 94 54 0 
C 96 54 0 
C 98 54 0 
C 100 54 0 
C 0 56 0 
C 2 56 0 
C 4 56 0 
C 6 56 0 
C 8 56 0 
C 10 56 0 
C 12 56 0 
C 14 56 0 
C 16 56 0 
C 18 56 0 
C 20 56 0 
C 22 56 0 
C 24 56 0 
C 26 56 0 
C 28 56 0 
C 30 56 0 
C 32 56 0 
C 34 56 0 
C 36 56 0 
C 38 56 0 
C 40 56 0 
C 42 56 0 
C 44 56 0 
C 46 56 0 
C 48 56 0 
C 50 56 0 
C 52 56 0 
C 54 56 0 
C 56 56 0 
C 58 56 0 
C 60 56 0 
C 62 56 0 
C 64 56 0 
C 66 56 0 
C 68 56 0 
C 70 56 0 
C 72 56 0 
C 74 56 0 
C 76 56 0 
C 78 56 0 
C 80 56 0 
C 82 56 0 
C 84 56 0 
C 86 56 0 
C 88 56 0 
C 90 56 0 
C 92 56 0 
C 94 56 0 
C 96 56 0 
C 98 56 0 
C 100 56 0 
C 0 58 0 
C 2 58 0 
C 4 58 0 
C 6 58 0 
C 8 58 0 
C 10 58 0 
C 12 58 0 
C 14 58 0 
C 16 58 0 
C 18 58 0 
C 20 58 0 
C 22 58 0 
C 24 58 0 
C 26 58 0 
C 28 58 0 
C 30 58 0 
C 32 58 0 
C 34 58 0 
C 36 58 0 
C 38 58 0 
C 40 58 0 
C 42 58 0 
C 44 58 0 
C 46 58 0 
C 48 58 0 
C 50 58 0 
C 52 58 0 
C 54 58 0 
C 56 58 0 
C 58 58 0 
C 60 58 0 
C 62 58 0 
C 64 58 0 
C 66 58 0 
C 68 58 0 
C 70 58 0 
C 72 58 0 
C 74 58 0 
C 76 58 0 
C 78 58 0 
C 80 58 0 
C 82 58 0 
C 84 58 0 
C 86 58 0 
C 88 58 0 
C 90 58 0 
C 92 58 0 
C 94 58 0 
C 96 58 0 
C 98 58 0 
C 100 58 0 
C 0 60 0 
C 2 60 0 
C 4 60 0 
C 6 60 0 
C 8 60 0 
C 10 60 0 
C 12 60 0 
C 14 60 0 
C 16 60 0 
C 18 60 0 
C 20 60 0 
C 22 60 0 
C 24 60 0 
C 26 60 0 
C 28 60 0 
C 30 60 0 
C 32 60 0 
C 34 60 0 
C 36 60 0 
C 38 60 0 
C 40 60 0 
C 42 60 0 
C 44 60 0 
C 46 60 0 
C 48 60 0 
C 50 60 0 
C 52 60 0 
C 54 60 0 
C 56 60 0 
C 58 60 0 
C 60 60 0 
C 62 60 0 
C 64 60 0 
C 66 60 0 
C 68 60 0 
C 70 60 0 
C 72 60 0 
C 74 60 0 
C 76 60 0 
C 78 60 0 
C 80 60 0 
C 82 60 0 
C 84 60 0 
C 86 60 0 
C 88 60 0 
C 90 60 0 
C 92 60 0 
C 94 60 0 
C 96 60 0 
C 98 60 0 
C 100 60 0 
C 0 62 0 
C 2 62 0 
C 4 62 0 
C 6 62 0 
C 8 62 0 
C 10 62 0 
C 12 62 0 
C 14 62 0 
C 16 62 0 
C 18 62 0 
C 20 62 0 
C 22 62 0 
C 24 62 0 
C 26 62 0 
C 28 62 0 
C 30 62 0 
C 32 62 0 
C 34 62 0 
C 36 62 0 
C 38 62 0 
C 40 62 0 
C 42 62 0 
C 44 62 0 
C 46 62 0 
C 48 62 0 
C 50 62 0 
C 52 62 0 
C 54 62 0 
C 56 62 0 
C 58 62 0 
C 60 62 0 
C 62 62 0 
C 64 62 0 
C 66 62 0 
C 68 62 0 
C 70 62 0 
C 72 62 0 
C 74 62 0 
C 76 62 0 
C 78 62 0 
C 80 62 0 
C 82 62 0 
C 84 62 0 
C 86 62 0 
C 88 62 0 
C 90 62 0 
C 92 62 0 
C 94 62 0 
C 96 62 0 
C 98 62 0 
C 100 62 0 
C 0 64 0 
C 2 64 0 
C 4 64 0 
C 6 64 0 
C 8 64 0 
C 10 64 0 
C 12 64 0 
C 14 64 0 
C 16 64 0 
C 18 64 0 
C 20 64 0 
C 22 64 0 
C 24 64 0 
C 26 64 0 
C 28 64 0 
C 30 64 0 
C 32 64 0 
C 34 64 0 
C 36 64 0 
C 38 64 0 
C 40 64 0 
C 42 64 0 
C 44 64 0 
C 46 64 0 
C 48 64 0 
C 50 64 0 
C 52 64 0 
C 54 64 0 
C 56 64 0 
C 58 64 0 
C 60 64 0 
C 62 64 0 
C 64 64 0 
C 66 64 0 
C 68 64 0 
C 70 64 0 
C 72 64 0 
C 74 64 0 
C 76 64 0 
C 78 64 0 
C 80 64 0 
C 82 64 0 
C 84 64 0 
C 86 64 0 
C 88 64 0 
C 90 64 0 
C 92 64 0 
C 94 64 0 
C 96 64 0 
C 98 64 0 
C 100 64 0 
C 0 66 0 
C 2 66 0 
C 4 66 0 
C 6 66 0 
C 8 66 0 
C 10 66 0 
C 12 66 0 
C 14 66 0 
C 16 66 0 
C 18 66 0 
C 20 66 0 
C 22 66 0 
C 24 66 0 
C 26 66 0 
C 28 66 0 
C 30 66 0 
C 32 66 0 
C 34 66 0 
C 36 66 0 
C 38 66 0 
C 40 66 0 
C 42 66 0 
C 44 66 0 
C 46 66 0 
C 48 66 0 
C 50 66 0 
C 52 66 0 
C 54 66 0 
C 56 66 0 
C 58 66 0 
C 60 66 0 
C 62 66 0 
C 64 66 0 
C 66 66 0 
C 68 66 0 
C 70 66 0 
C 72 66 0 
C 74 66 0 
C 76 66 0 
C 78 66 0 
C 80 66 0 
C 82 66 0 
C 84 66 0 
C 86 66 0 
C 88 66 0 
C 90 66 0 
C 92 66 0 
C 94 66 0 
C 96 66 0 
C 98 66 0 
C 100 66 0 
C 0 68 0 
C 2 68 0 
C 4 68 0 
C 6 68 0 
C 8 68 0 
C 10 68 0 
C 12 68 0 
C 14 68 0 
C 16 68 0 
C 18 68 0 
C 20 68 0 
C 22 68 0 
C 24 68 0 
C 26 68 0 
C 28 68 0 
C 30 68 0 
C 32 68 0 
C 34 68 0 
C 36 68 0 
C 38 68 0 
C 40 68 0 
C 42 68 0 
C 44 68 0 
C 46 68 0 
C 48 68 0 
C 50 68 0 
C 52 68 0 
C 54 68 0 
C 56 68 0 
C 58 68 0 
C 60 68 0 
C 62 68 0 
C 64 68 0 
C 66 68 0 
C 68 68 0 
C 70 68 0 
C 72 68 0 
C 74 68 0 
C 76 68 0 
C 78 68 0 
C 80 68 0 
C 82 68 0 
C 84 68 0 
C 86 68 0 
C 88 68 0 
C 90 68 0 
C 92 68 0 
C 94 68 0 
C 96 68 0 
C 98 68 0 
C 100 68 0 
C 0 70 0 
C 2 70 0 
C 4 70 0 
C 6 70 0 
C 8 70 0 
C 10 70 0 
C 12 70 0 
C 14 70 0 
C 16 70 0 
C 18 70 0 
C 20 70 0 
C 22 70 0 
C 24 70 0 
C 26 70 0 
C 28 70 0 
C 30 70 0 
C 32 70 0 
C 34 70 0 
C 36 70 0 
C 38 70 0 
C 40 70 0 
C 42 70 0 
C 44 70 0 
C 46 70 0 
C 48 70 0 
C 50 70 0 
C 52 70 0 
C 54 70 0 
C 56 70 0 
C 58 70 0 
C 60 70 0 
C 62 70 0 
C 64 70 0 
C 66 70 0 
C 68 70 0 
C 70 70 0 
C 72 70 0 
C 74 70 0 
C 76 70 0 
C 78 70 0 
C 80 70 0 
C 82 70 0 
C 84 70 0 
C 86 70 0 
C 88 70 0 
C 90 70 0 
C 92 70 0 
C 94 70 0 
C 96 70 0 
C 98 70 0 
C 100 70 0 
C 0 72 0 
C 2 72 0 
C 4 72 0 
C 6 72 0 
C 8 72 0 
C 10 72 0 
C 12 72 0 
C 14 72 0 
C 16 72 0 
C 18 72 0 
C 20 72 0 
C 22 72 0 
C 24 72 0 
C 26 72 0 
C 28 72 0 
C 30 72 0 
C 32 72 0 
C 34 72 0 
C 36 72 0 
C 38 72 0 
C 40 72 0 
C 42 72 0 
C 44 72 0 
C 46 72 0 
C 48 72 0 
C 50 72 0 
C 52 72 0 
C 54 72 0 
C 56 72 0 
C 58 72 0 
C 60 72 0 
C 62 72 0 
C 64 72 0 
C 66 72 0 
C 68 72 0 
C 70 72 0 
C 72 72 0 
C 74 72 0 
C 76 72 0 
C 78 72 0 
C 80 72 0 
C 82 72 0 
C 84 72 0 
C 86 72 0 
C 88 72 0 
C 90 72 0 
C 92 72 0 
C 94 72 0 
C 96 72 0 
C 98 72 0 
C 100 72 0 
C 0 74 0 
C 2 74 0 
C 4 74 0 
C 6 74 0 
C 8 74 0 
C 10 74 0 
C 12 74 0 
C 14 74 0 
C 16 74 0 
C 18 74 0 
C 20 74 0 
C 22 74 0 
C 24 74 0 
C 26 74 0 
C 28 74 0 
C 30 74 0 
C 32 74 0 
C 34 74 0 
C 36 74 0 
C 38 74 0 
C 40 74 0 
C 42 74 0 
C 44 74 0 
C 46 74 0 
C 48 74 0 
C 50 74 0 
C 52 74 0 
C 54 74 0 
C 56 74 0 
C 58 74 0 
C 60 74 0 
C 62 74 0 
C 64 74 0 
C 66 74 0 
C 68 74 0 
C 70 74 0 
C 72 74 0 
C 74 74 0 
C 76 74 0 
C 78 74 0 
C 80 74 0 
C 82 74 0 
C 84 74 0 
C 86 74 0 
C 88 74 0 
C 90 74 0 
C 92 74 0 
C 94 74 0 
C 96 74 0 
C 98 74 0 
C 100 74 0 
C 0 76 0 
C 2 76 0 
C 4 76 0 
C 6 76 0 
C 8 76 0 
C 10 76 0 
C 12 76 0 
C 14 76 0 
C 16 76 0 
C 18 76 0 
C 20 76 0 
C 22 76 0 
C 24 76 0 
C 26 76 0 
C 28 76 0 
C 30 76 0 
C 32 76 0 
C 34 76 0 
C 36 76 0 
C 38 76 0 
C 40 76 0 
C 42 76 0 
C 44 76 0 
C 46 76 0 
C 48 76 0 
C 50 76 0 
C 52 76 0 
C 54 76 0 
C 56 76 0 
C 58 76 0 
C 60 76 0 
C 62 76 0 
C 64 76 0 
C 66 76 0 
C 68 76 0 
C 70 76 0 
C 72 76 0 
C 74 76 0 
C 76 76 0 
C 78 76 0 
C 80 76 0 
C 82 76 0 
C 84 76 0 
C 86 76 0 
C 88 76 0 
C 90 76 0 
C 92 76 0 
C 94 76 0 
C 96 76 0 
C 98 76 0 
C 100 76 0 
C 0 78 0 
C 2 78 0 
C 4 78 0 
C 6 78 0 
C 8 78 0 
C 10 78 0 
C 12 78 0 
C 14 78 0 
C 16 78 0 
C 18 78 0 
C 20 78 0 
C 22 78 0 
C 24 78 0 
C 26 78 0 
C 28 78 0 
C 30 78 0 
C 32 78 0 
C 34 78 0 
C 36 78 0 
C 38 78 0 
C 40 78 0 
C 42 78 0 
C 44 78 0 
C 46 78 0 
C 48 78 0 
C 50 78 0 
C 52 78 0 
C 54 78 0 
C 56 78 0 
C 58 78 0 
C 60 78 0 
C 62 78 0 
C 64 78 0 
C 66 78 0 
C 68 78 0 
C 70 78 0 
C 72 78 0 
C 74 78 0 
C 76 78 0 
C 78 78 0 
C 80 78 0 
C 82 78 0 
C 84 78 0 
C 86 78 0 
C 88 78 0 
C 90 78 0 
C 92 78 0 
C 94 78 0 
C 96 78 0 
C 98 78 0 
C 100 78 0 
C 0 80 0 
C 2 80 0 
C 4 80 0 
C 6 80 0 
C 8 80 0 
C 10 80 0 
C 12 80 0 
C 14 80 0 
C 16 80 0 
C 18 80 0 
C 20 80 0 
C 22 80 0 
C 24 80 0 
C 26 80 0 
C 28 80 0 
C 30 80 0 
C 32 80 0 
C 34 80 0 
C 36 80 0 
C 38 80 0 
C 40 80 0 
C 42 80 0 
C 44 80 0 
C 46 80 0 
C 48 80 0 
C 50 80 0 
C 52 80 0 
C 54 80 0 
C 56 80 0 
C 58 80 0 
C 60 80 0 
C 62 80 0 
C 64 80 0 
C 66 80 0 
C 68 80 0 
C 70 80 0 
C 72 80 0 
C 74 80 0 
C 76 80 0 
C 78 80 0 
C 80 80 0 
C 82 80 0 
C 84 80 0 
C 86 80 0 
C 88 80 0 
C 90 80 0 
C 92 80 0 
C 94 80 0 
C 96 80 0 
C 98 80 0 
C 100 80 0 
C 0 82 0 
C 2 82 0 
C 4 82 0 
C 6 82 0 
C 8 82 0 
C 10 82 0 
C 12 82 0 
C 14 82 0 
C 16 82 0 
C 18 82 0 
C 20 82 0 
C 22 82 0 
C 24 82 0 
C 26 82 0 
C 28 82 0 
C 30 82 0 
C 32 82 0 
C 34 82 0 
C 36 82 0 
C 38 82 0 
C 40 82 0 
C 42 82 0 
C 44 82 0 
C 46 82 0 
C 48 82 0 
C 50 82 0 
C 52 82 0 
C 54 82 0 
C 56 82 0 
C 58 82 0 
C 60 82 0 
C 62 82 0 
C 64 82 0 
C 66 82 0 
C 68 82 0 
C 70 82 0 
C 72 82 0 
C 74 82 0 
C 76 82 0 
C 78 82 0 
C 80 82 0 
C 82 82 0 
C 84 82 0 
C 86 82 0 
C 88 82 0 
C 90 82 0 
C 92 82 0 
C 94 82 0 
C 96 82 0 
C 98 82 0 
C 100 82 0 
C 0 84 0 
C 2 84 0 
C 4 84 0 
C 6 84 0 
C 8 84 0 
C 10 84 0 
C 12 84 0 
C 14 84 0 
C 16 84 0 
C 18 84 0 
C 20 84 0 
C 22 84 0 
C 24 84 0 
C 26 84 0 
C 28 84 0 
C 30 84 0 
C 32 84 0 
C 34 84 0 
C 36 84 0 
C 38 84 0 
C 40 84 0 
C 42 84 0 
C 44 84 0 
C 46 84 0 
C 48 84 0 
C 50 84 0 
C 52 84 0 
C 54 84 0 
C 56 84 0 
C 58 84 0 
C 60 84 0 
C 62 84 0 
C 64 84 0 
C 66 84 0 
C 68 84 0 
C 70 84 0 
C 72 84 0 
C 74 84 0 
C 76 84 0 
C 78 84 0 
C 80 84 0 
C 82 84 0 
C 84 84 0 
C 86 84 0 
C 88 84 0 
C 90 84 0 
C 92 84 0 
C 94 84 0 
C 96 84 0 
C 98 84 0 
C 100 84 0 
C 0 86 0 
C 2 86 0 
C 4 86 0 
C 6 86 0 
C 8 86 0 
C 10 86 0 
C 12 86 0 
C 14 86 0 
C 16 86 0 
C 18 86 0 
C 20 86 0 
C 22 86 0 
C 24 86 0 
C 26 86 0 
C 28 86 0 
C 30 86 0 
C 32 86 0 
C 34 86 0 
C 36 86 0 
C 38 86 0 
C 40 86 0 
C 42 86 0 
C 44 86 0 
C 46 86 0 
C 48 86 0 
C 50 86 0 
C 52 86 0 
C 54 86 0 
C 56 86 0 
C 58 86 0 
C 60 86 0 
C 62 86 0 
C 64 86 0 
C 66 86 0 
C 68 86 0 
C 70 86 0 
C 72 86 0 
C 74 86 0 
C 76 86 0 
C 78 86 0 
C 80 86 0 
C 82 86 0 
C 84 86 0 
C 86 86 0 
C 88 86 0 
C 90 86 0 
C 92 86 0 
C 94 86 0 
C 96 86 0 
C 98 86 0 
C 100 86 0 
C 0 88 0 
C 2 88 0 
C 4 88 0 
C 6 88 0 
C 8 88 0 
C 10 88 0 
C 12 88 0 
C 14 88 0 
C 16 88 0 
C 18 88 0 
C 20 88 0 
C 22 88 0 
C 24 88 0 
C 26 88 0 
C 28 88 0 
C 30 88 0 
C 32 88 0 
C 34 88 0 
C 36 88 0 
C 38 88 0 
C 40 88 0 
C 42 88 0 
C 44 88 0 
C 46 88 0 
C 48 88 0 
C 50 88 0 
C 52 88 0 
C 54 88 0 
C 56 88 0 
C 58 88 0 
C 60 88 0 
C 62 88 0 
C 64 88 0 
C 66 88 0 
C 68 88 0 
C 70 88 0 
C 72 88 0 
C 74 88 0 
C 76 88 0 
C 78 88 0 
C 80 88 0 
C 82 88 0 
C 84 88 0 
C 86 88 0 
C 88 88 0 
C 90 88 0 
C 92 88 0 
C 94 88 0 
C 96 88 0 
C 98 88 0 
C 100 88 0 
C 0 90 0 
C 2 90 0 
C 4 90 0 
C 6 90 0 
C 8 90 0 
C 10 90 0 
C 12 90 0 
C 14 90 0 
C 16 90 0 
C 18 90 0 
C 20 90 0 
C 22 90 0 
C 24 90 0 
C 26 90 0 
C 28 90 0 
C 30 90 0 
C 32 90 0 
C 34 90 0 
C 36 90 0 
C 38 90 0 
C 40 90 0 
C 42 90 0 
C 44 90 0 
C 46 90 0 
C 48 90 0 
C 50 90 0 
C 52 90 0 
C 54 90 0 
C 56 90 0 
C 58 90 0 
C 60 90 0 
C 62 90 0 
C 64 90 0 
C 66 90 0 
C 68 90 0 
C 70 90 0 
C 72 90 0 
C 74 90 0 
C 76 90 0 
C 78 90 0 
C 80 90 0 
C 82 90 0 
C 84 90 0 
C 86 90 0 
C 88 90 0 
C 90 90 0 
C 92 90 0 
C 94 90 0 
C 96 90 0 
C 98 90 0 
C 100 90 0 
C 0 92 0 
C 2 92 0 
C 4 92 0 
C 6 92 0 
C 8 92 0 
C 10 92 0 
C 12 92 0 
C 14 92 0 
C 16 92 0 
C 18 92 0 
C 20 92 0 
C 22 92 0 
C 24 92 0 
C 26 92 0 
C 28 92 0 
C 30 92 0 
C 32 92 0 
C 34 92 0 
C 36 92 0 
C 38 92 0 
C 40 92 0 
C 42 92 0 
C 44 92 0 
C 46 92 0 
C 48 92 0 
C 50 92 0 
C 52 92 0 
C 54 92 0 
C 56 92 0 
C 58 92 0 
C 60 92 0 
C 62 92 0 
C 64 92 0 
C 66 92 0 
C 68 92 0 
C 70 92 0 
C 72 92 0 
C 74 92 0 
C 76 92 0 
C 78 92 0 
C 80 92 0 
C 82 92 0 
C 84 92 0 
C 86 92 0 
C 88 92 0 
C 90 92 0 
C 92 92 0 
C 94 92 0 
C 96 92 0 
C 98 92 0 
C 100 92 0 
C 0 94 0 
C 2 94 0 
C 4 94 0 
C 6 94 0 
C 8 94 0 
C 10 94 0 
C 12 94 0 
C 14 94 0 
C 16 94 0 
C 18 94 0 
C 20 94 0 
C 22 94 0 
C 24 94 0 
C 26 94 0 
C 28 94 0 
C 30 94 0 
C 32 94 0 
C 34 94 0 
C 36 94 0 
C 38 94 0 
C 40 94 0 
C 42 94 0 
C 44 94 0 
C 46 94 0 
C 48 94 0 
C 50 94 0 
C 52 94 0 
C 54 94 0 
C 56 94 0 
C 58 94 0 
C 60 94 0 
C 62 94 0 
C 64 94 0 
C 66 94 0 
C 68 94 0 
C 70 94 0 
C 72 94 0 
C 74 94 0 
C 76 94 0 
C 78 94 0 
C 80 94 0 
C 82 94 0 
C 84 94 0 
C 86 94 0 
C 88 94 0 
C 90 94 0 
C 92 94 0 
C 94 94 0 
C 96 94 0 
C 98 94 0 
C 100 94 0 
C 0 96 0 
C 2 96 0 
C 4 96 0 
C 6 96 0 
C 8 96 0 
C 10 96 0 
C 12 96 0 
C 14 96 0 
C 16 96 0 
C 18 96 0 
C 20 96 0 
C 22 96 0 
C 24 96 0 
C 26 96 0 
C 28 96 0 
C 30 96 0 
C 32 96 0 
C 34 96 0 
C 36 96 0 
C 38 96 0 
C 40 96 0 
C 42 96 0 
C 44 96 0 
C 46 96 0 
C 48 96 0 
C 50 96 0 
C 52 96 0 
C 54 96 0 
C 56 96 0 
C 58 96 0 
C 60 96 0 
C 62 96 0 
C 64 96 0 
C 66 96 0 
C 68 96 0 
C 70 96 0 
C 72 96 0 
C 74 96 0 
C 76 96 0 
C 78 96 0 
C 80 96 0 
C 82 96 0 
C 84 96 0 
C 86 96 0 
C 88 96 0 
C 90 96 0 
C 92 96 0 
C 94 96 0 
C 96 96 0 
C 98 96 0 
C 100 96 0 
C 0 98 0 
C 2 98 0 
C 4 98 0 
C 6 98 0 
C 8 98 0 
C 10 98 0 
C 12 98 0 
C 14 98 0 
C 16 98 0 
C 18 98 0 
C 20 98 0 
C 22 98 0 
C 24 98 0 
C 26 98 0 
C 28 98 0 
C 30 98 0 
C 32 98 0 
C 34 98 0 
C 36 98 0 
C 38 98 0 
C 40 98 0 
C 42 98 0 
C 44 98 0 
C 46 98 0 
C 48 98 0 
C 50 98 0 
C 52 98 0 
C 54 98 0 
C 56 98 0 
C 58 98 0 
C 60 98 0 
C 62 98 0 
C 64 98 0 
C 66 98 0 
C 68 98 0 
C 70 98 0 
C 72 98 0 
C 74 98 0 
C 76 98 0 
C 78 98 0 
C 80 98 0 
C 82 98 0 
C 84 98 0 
C 86 98 0 
C 88 98 0 
C 90 98 0 
C 92 98 0 
C 94 98 0 
C 96 98 0 
C 98 98 0 
C 100 98 0 
C 0 100 0 
C 2 100 0 
C 4 100 0 
C 6 100 0 
C 8 100 0 
C 10 100 0 
C 12 100 0 
C 14 100 0 
C 16 100 0 
C 18 100 0 
C 20 100 0 
C 22 100 0 
C 24 100 0 
C 26 100 0 
C 28 100 0 
C 30 100 0 
C 32 100 0 
C 34 100 0 
C 36 100 0 
C 38 100 0 
C 40 100 0 
C 42 100 0 
C 44 100 0 
C 46 100 0 
C 48 100 0 
C 50 100 0 
C 52 100 0 
C 54 100 0 
C 56 100 0 
C 58 100 0 
C 60 100 0 
C 62 100 0 
C 64 100 0 
C 66 100 0 
C 68 100 0 
C 70 100 0 
C 72 100 0 
C 74 100 0 
C 76 100 0 
C 78 100 0 
C 80 100 0 
C 82 100 0 
C 84 100 0 
C 86 100 0 
C 88 100 0 
C 90 100 0 
C 92 100 0 
C 94 100 0 
C 96 100 0 
C 98 100 0 
C 100 100 0 
O 86 45 0 
O 17 18 0 
O 79 64 0 
O 95 53 0 
O 15 15 0 
O 95 45 0 
O 50 59 0 
O 18 3 0 
3108
Atoms. Timestep: 3
N 89 19 0 
N 26 55 0 
N 16 71 0 
N 53 96 0 
N 32 19 0 
N 63 25 0 
N 85 65 0 
N 7 53 0 
N 11 51 0 
N 51 33 0 
N 16 3 0 
N 61 31 0 
N 60 11 0 
N 79 78 0 
N 52 85 0 
N 53 59 0 
N 39 71 0 
N 7 89 0 
N 7 13 0 
N 87 26 0 
N 17 35 0 
N 75 13 0 
N 20 27 0 
N 51 71 0 
N 59 97 0 
N 15 87 0 
N 93 9 0 
N 59 99 0 
N 3 39 0 
N 31 51 0 
N 75 33 0 
N 61 17 0 
N 27 63 0 
N 2 45 0 
N 27 18 0 
N 81 51 0 
N 95 67 0 
N 63 4 0 
N 63 87 0 
N 95 3 0 
N 49 13 0 
N 27 96 0 
N 91 29 0 
N 31 64 0 
N 53 47 0 
N 60 21 0 
N 60 77 0 
N 51 40 0 
N 90 77 0 
N 26 15 0 
N 57 23 0 
N 39 41 0 
N 11 21 0 
N 20 33 0 
N 97 72 0 
N 15 79 0 
N 53 63 0 
N 85 9 0 
N 3 18 0 
N 71 69 0 
N 99 61 0 
N 71 97 0 
N 9 31 0 
N 77 81 0 
N 65 13 0 
N 8 55 0 
N 75 63 0 
N 85 31 0 
N 39 20 0 
N 67 33 0 
N 40 21 0 
N 11 95 0 
N 4 45 0 
N 17 75 0 
N 39 79 0 
N 29 23 0 
N 56 85 0 
N 11 33 0 
N 29 51 0 
N 69 9 0 
N 66 45 0 
N 93 23 0 
N 78 95 0 
N 91 44 0 
N 3 37 0 
N 7 25 0 
N 35 68 0 
N 3 75 0 
N 23 26 0 
N 84 81 0 
N 61 80 0 
N 95 92 0 
N 17 19 0 
N 89 57 0 
N 91 5 0 
N 65 3 0 
N 71 55 0 
N 95 15 0 
N 65 65 0 
N 13 32 0 
N 49 63 0 
N 61 95 0 
N 50 41 0 
N 91 13 0 
N 93 95 0 
N 54 91 0 
N 72 63 0 
N 67 47 0 
N 27 90 0 
N 21 75 0 
N 28 45 0 
N 77 63 0 
N 18 77 0 
N 79 13 0 
N 47 67 0 
N 49 49 0 
N 18 55 0 
N 1 73 0 
N 69 93 0 
N 20 97 0 
N 30 31 0 
N 59 81 0 
N 45 25 0 
N 57 59 0 
N 17 28 0 
N 77 7 0 
N 5 71 0 
N 5 6 0 
N 29 15 0 
N 95 81 0 
N 4 85 0 
N 69 42 0 
N 15 38 0 
N 65 94 0 
N 19 13 0 
N 13 75 0 
N 31 57 0 
N 86 43 0 
N 97 43 0 
N 85 24 0 
N 13 43 0 
N 75 76 0 
N 75 3 0 
N 57 7 0 
N 80 87 0 
N 49 93 0 
N 99 51 0 
N 45 57 0 
N 98 77 0 
N 60 91 0 
N 95 41 0 
N 86 71 0 
N 20 35 0 
N 11 94 0 
N 51 69 0 
N 18 81 0 
N 99 80 0 
N 5 69 0 
N 9 3 0 
N 15 37 0 
N 87 39 0 
N 45 55 0 
N 91 40 0 
N 19 2 0 
N 35 87 0 
N 35 77 0 
N 67 13 0 
N 87 87 0 
N 97 21 0 
N 49 68 0 
N 12 97 0 
N 79 35 0 
N 22 37 0 
N 19 15 0 
N 71 29 0 
N 43 93 0 
N 91 62 0 
N 51 1 0 
N 79 75 0 
N 79 85 0 
N 73 34 0 
N 19 7 0 
N 83 53 0 
N 47 56 0 
N 3 69 0 
N 7 65 0 
N 96 53 0 
N 65 79 0 
N 88 69 0 
N 23 18 0 
N 17 71 0 
N 3 92 0 
N 68 65 0 
N 17 82 0 
N 57 65 0 
N 95 22 0 
N 65 71 0 
N 94 21 0 
N 47 39 0 
N 97 38 0 
N 79 8 0 
N 61 88 0 
N 65 33 0 
N 47 99 0 
N 61 7 0 
N 35 67 0 
N 71 31 0 
N 57 43 0 
N 91 83 0 
N 94 57 0 
N 25 59 0 
N 27 64 0 
N 18 5 0 
N 96 21 0 
N 29 18 0 
N 12 73 0 
N 61 68 0 
N 55 63 0 
N 91 79 0 
N 25 85 0 
N 1 55 0 
N 87 27 0 
N 98 69 0 
N 59 31 0 
N 26 47 0 
N 96 81 0 
N 75 39 0 
N 91 51 0 
N 81 27 0 
N 97 71 0 
N 83 81 0 
N 55 49 0 
N 39 22 0 
N 84 75 0 
N 65 59 0 
N 81 58 0 
N 23 32 0 
N 68 83 0 
N 9 39 0 
N 26 13 0 
N 73 59 0 
N 21 67 0 
N 92 53 0 
N 11 23 0 
N 51 51 0 
N 20 3 0 
N 25 13 0 
N 25 65 0 
N 19 63 0 
N 15 13 0 
N 81 93 0 
N 52 59 0 
N 41 85 0 
N 23 24 0 
N 17 31 0 
N 17 26 0 
N 81 44 0 
N 57 39 0 
N 53 26 0 
N 17 81 0 
N 17 63 0 
N 1 35 0 
N 97 45 0 
N 14 29 0 
N 43 77 0 
N 95 89 0 
N 53 41 0 
N 75 45 0 
N 87 69 0 
N 54 45 0 
N 91 99 0 
N 18 7 0 
N 39 91 0 
N 11 3 0 
N 43 47 0 
N 55 55 0 
N 7 27 0 
N 28 39 0 
N 50 65 0 
N 9 33 0 
N 57 70 0 
N 17 15 0 
N 35 69 0 
N 69 24 0 
N 25 77 0 
N 65 19 0 
N 85 85 0 
N 47 45 0 
N 88 9 0 
N 90 3 0 
N 53 4 0 
N 38 19 0 
N 61 87 0 
N 61 4 0 
N 45 1 0 
N 27 79 0 
N 43 45 0 
N 17 64 0 
N 18 39 0 
N 87 45 0 
N 77 94 0 
N 4 55 0 
N 26 85 0 
N 17 97 0 
N 51 56 0 
N 59 8 0 
N 69 75 0 
N 8 45 0 
N 71 1 0 
N 21 88 0 
N 95 71 0 
N 35 53 0 
N 43 99 0 
N 13 31 0 
N 35 96 0 
N 35 76 0 
N 27 7 0 
N 69 40 0 
N 2 3 0 
N 51 19 0 
N 75 75 0 
N 8 15 0 
N 92 47 0 
N 27 67 0 
N 35 7 0 
N 67 3 0 
N 65 25 0 
N 99 3 0 
N 53 87 0 
N 15 45 0 
N 49 38 0 
N 86 3 0 
N 93 43 0 
N 68 21 0 
N 91 49 0 
N 47 33 0 
N 18 99 0 
N 13 93 0 
N 80 3 0 
N 81 63 0 
N 37 34 0 
N 23 35 0 
N 57 2 0 
N 82 39 0 
N 13 17 0 
N 15 93 0 
N 92 3 0 
N 51 93 0 
N 79 93 0 
N 59 85 0 
N 77 31 0 
N 63 81 0 
N 18 53 0 
N 95 57 0 
N 17 21 0 
N 50 27 0 
N 49 40 0 
N 36 3 0 
N 23 92 0 
N 49 55 0 
N 80 23 0 
N 62 37 0 
N 40 77 0 
N 35 31 0 
N 29 37 0 
N 1 42 0 
N 75 19 0 
N 51 47 0 
N 94 41 0 
N 99 45 0 
N 27 81 0 
N 67 9 0 
N 37 78 0 
N 61 25 0 
N 31 65 0 
N 43 7 0 
N 50 49 0 
N 94 15 0 
N 57 29 0 
N 77 93 0 
N 25 5 0 
N 5 82 0 
N 41 7 0 
N 33 73 0 
N 32 65 0 
N 57 55 0 
N 62 53 0 
N 35 19 0 
N 81 41 0 
N 13 30 0 
N 83 99 0 
N 94 75 0 
N 53 95 0 
N 75 27 0 
N 98 45 0 
N 5 29 0 
N 53 3 0 
N 59 28 0 
N 79 80 0 
N 57 79 0 
N 81 85 0 
N 5 65 0 
N 1 49 0 
N 32 61 0 
N 17 79 0 
N 81 35 0 
N 35 65 0 
N 81 69 0 
N 87 46 0 
N 49 36 0 
N 71 9 0 
N 59 5 0 
N 90 7 0 
N 11 43 0 
N 93 6 0 
N 55 52 0 
N 17 54 0 
N 22 35 0 
N 69 45 0 
N 92 41 0 
N 89 75 0 
N 93 35 0 
N 13 81 0 
N 51 63 0 
N 91 65 0 
N 77 13 0 
N 41 51 0 
N 17 61 0 
N 77 28 0 
N 7 20 0 
N 21 80 0 
N 31 22 0 
N 79 15 0 
N 33 65 0 
N 64 53 0 
N 95 53 0 
N 85 45 0 
N 1 11 0 
N 57 87 0 
N 80 67 0 
N 63 1 0 
N 15 63 0 
N 27 5 0 
N 18 71 0 
N 18 41 0 
N 21 25 0 
N 73 77 0 
N 73 76 0 
N 23 62 0 
N 19 66 0 
N 63 77 0 
N 88 77 0 
N 96 29 0 
N 63 17 0 
N 71 34 0 
N 68 31 0 
N 38 57 0 
N 95 61 0 
N 79 67 0 
N 7 3 0 
N 39 83 0 
N 63 37 0 
N 16 31 0 
N 18 89 0 
N 27 61 0 
N 13 14 0 
N 3 27 0 
N 83 65 0 
N 59 77 0 
N 19 69 0 
N 43 79 0 
N 9 13 0 
N 15 1 0 
N 39 15 0 
N 91 23 0 
N 45 49 0 
N 1 62 0 
N 29 87 0 
N 37 65 0 
N 35 6 0 
N 54 59 0 
N 91 41 0 
N 91 96 0 
N 69 31 0 
N 55 44 0 
N 79 27 0 
N 19 92 0 
N 95 24 0 
N 73 27 0 
N 84 15 0 
N 39 81 0 
N 53 18 0 
N 39 18 0 
N 29 29 0 
N 37 76 0 
N 51 42 0 
N 1 61 0 
N 66 15 0 
N 34 71 0 
N 93 64 0 
C 0 0 0 
C 2 0 0 
C 4 0 0 
C 6 0 0 
C 8 0 0 
C 10 0 0 
C 12 0 0 
C 14 0 0 
C 16 0 0 
C 18 0 0 
C 20 0 0 
C 22 0 0 
C 24 0 0 
C 26 0 0 
C 28 0 0 
C 30 0 0 
C 32 0 0 
C 34 0 0 
C 36 0 0 
C 38 0 0 
C 40 0 0 
C 42 0 0 
C 44 0 0 
C 46 0 0 
C 48 0 0 
C 50 0 0 
C 52 0 0 
C 54 0 0 
C 56 0 0 
C 58 0 0 
C 60 0 0 
C 62 0 0 
C 64 0 0 
C 66 0 0 
C 68 0 0 
C 70 0 0 
C 72 0 0 
C 74 0 0 
C 76 0 0 
C 78 0 0 
C 80 0 0 
C 82 0 0 
C 84 0 0 
C 86 0 0 
C 88 0 0 
C 90 0 0 
C 92 0 0 
C 94 0 0 
C 96 0 0 
C 98 0 0 
C 100 0 0 
C 0 2 0 
C 2 2 0 
C 4 2 0 
C 6 2 0 
C 8 2 0 
C 10 2 0 
C 12 2 0 
C 14 2 0 
C 16 2 0 
C 18 2 0 
C 20 2 0 
C 22 2 0 
C 24 2 0 
C 26 2 0 
C 28 2 0 
C 30 2 0 
C 32 2 0 
C 34 2 0 
C 36 2 0 
C 38 2 0 
C 40 2 0 
C 42 2 0 
C 44 2 0 
C 46 2 0 
C 48 2 0 
C 50 2 0 
C 52 2 0 
C 54 2 0 
C 56 2 0 
C 58 2 0 
C 60 2 0 
C 62 2 0 
C 64 2 0 
C 66 2 0 
C 68 2 0 
C 70 2 0 
C 72 2 0 
C 74 2 0 
C 76 2 0 
C 78 2 0 
C 80 2 0 
C 82 2 0 
C 84 2 0 
C 86 2 0 
C 88 2 0 
C 90 2 0 
C 92 2 0 
C 94 2 0 
C 96 2 0 
C 98 2 0 
C 100 2 0 
C 0 4 0 
C 2 4 0 
C 4 4 0 
C 6 4 0 
C 8 4 0 
C 10 4 0 
C 12 4 0 
C 14 4 0 
C 16 4 0 
C 18 4 0 
C 20 4 0 
C 22 4 0 
C 24 4 0 
C 26 4 0 
C 28 4 0 
C 30 4 0 
C 32 4 0 
C 34 4 0 
C 36 4 0 
C 38 4 0 
C 40 4 0 
C 42 4 0 
C 44 4 0 
C 46 4 0 
C 48 4 0 
C 50 4 0 
C 52 4 0 
C 54 4 0 
C 56 4 0 
C 58 4 0 
C 60 4 0 
C 62 4 0 
C 64 4 0 
C 66 4 0 
C 68 4 0 
C 70 4 0 
C 72 4 0 
C 74 4 0 
C 76 4 0 
C 78 4 0 
C 80 4 0 
C 82 4 0 
C 84 4 0 
C 86 4 0 
C 88 4 0 
C 90 4 0 
C 92 4 0 
C 94 4 0 
C 96 4 0 
C 98 4 0 
C 100 4 0 
C 0 6 0 
C 2 6 0 
C 4 6 0 
C 6 6 0 
C 8 6 0 
C 10 6 0 
C 12 6 0 
C 14 6 0 
C 16 6 0 
C 18 6 0 
C 20 6 0 
C 22 6 0 
C 24 6 0 
C 26 6 0 
C 28 6 0 
C 30 6 0 
C 32 6 0 
C 34 6 0 
C 36 6 0 
C 38 6 0 
C 40 6 0 
C 42 6 0 
C 44 6 0 
C 46 6 0 
C 48 6 0 
C 50 6 0 
C 52 6 0 
C 54 6 0 
C 56 6 0 
C 58 6 0 
C 60 6 0 
C 62 6 0 
C 64 6 0 
C 66 6 0 
C 68 6 0 
C 70 6 0 
C 72 6 0 
C 74 6 0 
C 76 6 0 
C 78 6 0 
C 80 6 0 
C 82 6 0 
C 84 6 0 
C 86 6 0 
C 88 6 0 
C 90 6 0 
C 92 6 0 
C 94 6 0 
C 96 6 0 
C 98 6 0 
C 100 6 0 
C 0 8 0 
C 2 8 0 
C 4 8 0 
C 6 8 0 
C 8 8 0 
C 10 8 0 
C 12 8 0 
C 14 8 0 
C 16 8 0 
C 18 8 0 
C 20 8 0 
C 22 8 0 
C 24 8 0 
C 26 8 0 
C 28 8 0 
C 30 8 0 
C 32 8 0 
C 34 8 0 
C 36 8 0 
C 38 8 0 
C 40 8 0 
C 42 8 0 
C 44 8 0 
C 46 8 0 
C 48 8 0 
C 50 8 0 
C 52 8 0 
C 54 8 0 
C 56 8 0 
C 58 8 0 
C 60 8 0 
C 62 8 0 
C 64 8 0 
C 66 8 0 
C 68 8 0 
C 70 8 0 
C 72 8 0 
C 74 8 0 
C 76 8 0 
C 78 8 0 
C 80 8 0 
C 82 8 0 
C 84 8 0 
C 86 8 0 
C 88 8 0 
C 90 8 0 
C 92 8 0 
C 94 8 0 
C 96 8 0 
C 98 8 0 
C 100 8 0 
C 0 10 0 
C 2 10 0 
C 4 10 0 
C 6 10 0 
C 8 10 0 
C 10 10 0 
C 12 10 0 
C 14 10 0 
C 16 10 0 
C 18 10 0 
C 20 10 0 
C 22 10 0 
C 24 10 0 
C 26 10 0 
C 28 10 0 
C 30 10 0 
C 32 10 0 
C 34 10 0 
C 36 10 0 
C 38 10 0 
C 40 10 0 
C 42 10 0 
C 44 10 0 
C 46 10 0 
C 48 10 0 
C 50 10 0 
C 52 10 0 
C 54 10 0 
C 56 10 0 
C 58 10 0 
C 60 10 0 
C 62 10 0 
C 64 10 0 
C 66 10 0 
C 68 10 0 
C 70 10 0 
C 72 10 0 
C 74 10 0 
C 76 10 0 
C 78 10 0 
C 80 10 0 
C 82 10 0 
C 84 10 0 
C 86 10 0 
C 88 10 0 
C 90 10 0 
C 92 10 0 
C 94 10 0 
C 96 10 0 
C 98 10 0 
C 100 10 0 
C 0 12 0 
C 2 12 0 
C 4 12 0 
C 6 12 0 
C 8 12 0 
C 10 12 0 
C 12 12 0 
C 14 12 0 
C 16 12 0 
C 18 12 0 
C 20 12 0 
C 22 12 0 
C 24 12 0 
C 26 12 0 
C 28 12 0 
C 30 12 0 
C 32 12 0 
C 34 12 0 
C 36 12 0 
C 38 12 0 
C 40 12 0 
C 42 12 0 
C 44 12 0 
C 46 12 0 
C 48 12 0 
C 50 12 0 
C 52 12 0 
C 54 12 0 
C 56 12 0 
C 58 12 0 
C 60 12 0 
C 62 12 0 
C 64 12 0 
C 66 12 0 
C 68 12 0 
C 70 12 0 
C 72 12 0 
C 74 12 0 
C 76 12 0 
C 78 12 0 
C 80 12 0 
C 82 12 0 
C 84 12 0 
C 86 12 0 
C 88 12 0 
C 90 12 0 
C 92 12 0 
C 94 12 0 
C 96 12 0 
C 98 12 0 
C 100 12 0 
C 0 14 0 
C 2 14 0 
C 4 14 0 
C 6 14 0 
C 8 14 0 
C 10 14 0 
C 12 14 0 
C 14 14 0 
C 16 14 0 
C 18 14 0 
C 20 14 0 
C 22 14 0 
C 24 14 0 
C 26 14 0 
C 28 14 0 
C 30 14 0 
C 32 14 0 
C 34 14 0 
C 36 14 0 
C 38 14 0 
C 40 14 0 
C 42 14 0 
C 44 14 0 
C 46 14 0 
C 48 14 0 
C 50 14 0 
C 52 14 0 
C 54 14 0 
C 56 14 0 
C 58 14 0 
C 60 14 0 
C 62 14 0 
C 64 14 0 
C 66 14 0 
C 68 14 0 
C 70 14 0 
C 72 14 0 
C 74 14 0 
C 76 14 0 
C 78 14 0 
C 80 14 0 
C 82 14 0 
C 84 14 0 
C 86 14 0 
C 88 14 0 
C 90 14 0 
C 92 14 0 
C 94 14 0 
C 96 14 0 
C 98 14 0 
C 100 14 0 
C 0 16 0 
C 2 16 0 
C 4 16 0 
C 6 16 0 
C 8 16 0 
C 10 16 0 
C 12 16 0 
C 14 16 0 
C 16 16 0 
C 18 16 0 
C 20 16 0 
C 22 16 0 
C 24 16 0 
C 26 16 0 
C 28 16 0 
C 30 16 0 
C 32 16 0 
C 34 16 0 
C 36 16 0 
C 38 16 0 
C 40 16 0 
C 42 16 0 
C 44 16 0 
C 46 16 0 
C 48 16 0 
C 50 16 0 
C 52 16 0 
C 54 16 0 
C 56 16 0 
C 58 16 0 
C 60 16 0 
C 62 16 0 
C 64 16 0 
C 66 16 0 
C 68 16 0 
C 70 16 0 
C 72 16 0 
C 74 16 0 
C 76 16 0 
C 78 16 0 
C 80 16 0 
C 82 16 0 
C 84 16 0 
C 86 16 0 
C 88 16 0 
C 90 16 0 
C 92 16 0 
C 94 16 0 
C 96 16 0 
C 98 16 0 
C 100 16 0 
C 0 18 0 
C 2 18 0 
C 4 18 0 
C 6 18 0 
C 8 18 0 
C 10 18 0 
C 12 18 0 
C 14 18 0 
C 16 18 0 
C 18 18 0 
C 20 18 0 
C 22 18 0 
C 24 18 0 
C 26 18 0 
C 28 18 0 
C 30 18 0 
C 32 18 0 
C 34 18 0 
C 36 18 0 
C 38 18 0 
C 40 18 0 
C 42 18 0 
C 44 18 0 
C 46 18 0 
C 48 18 0 
C 50 18 0 
C 52 18 0 
C 54 18 0 
C 56 18 0 
C 58 18 0 
C 60 18 0 
C 62 18 0 
C 64 18 0 
C 66 18 0 
C 68 18 0 
C 70 18 0 
C 72 18 0 
C 74 18 0 
C 76 18 0 
C 78 18 0 
C 80 18 0 
C 82 18 0 
C 84 18 0 
C 86 18 0 
C 88 18 0 
C 90 18 0 
C 92 18 0 
C 94 18 0 
C 96 18 0 
C 98 18 0 
C 100 18 0 
C 0 20 0 
C 2 20 0 
C 4 20 0 
C 6 20 0 
C 8 20 0 
C 10 20 0 
C 12 20 0 
C 14 20 0 
C 16 20 0 
C 18 20 0 
C 20 20 0 
C 22 20 0 
C 24 20 0 
C 26 20 0 
C 28 20 0 
C 30 20 0 
C 32 20 0 
C 34 20 0 
C 36 20 0 
C 38 20 0 
C 40 20 0 
C 42 20 0 
C 44 20 0 
C 46 20 0 
C 48 20 0 
C 50 20 0 
C 52 20 0 
C 54 20 0 
C 56 20 0 
C 58 20 0 
C 60 20 0 
C 62 20 0 
C 64 20 0 
C 66 20 0 
C 68 20 0 
C 70 20 0 
C 72 20 0 
C 74 20 0 
C 76 20 0 
C 78 20 0 
C 80 20 0 
C 82 20 0 
C 84 20 0 
C 86 20 0 
C 88 20 0 
C 90 20 0 
C 92 20 0 
C 94 20 0 
C 96 20 0 
C 98 20 0 
C 100 20 0 
C 0 22 0 
C 2 22 0 
C 4 22 0 
C 6 22 0 
C 8 22 0 
C 10 22 0 
C 12 22 0 
C 14 22 0 
C 16 22 0 
C 18 22 0 
C 20 22 0 
C 22 22 0 
C 24 22 0 
C 26 22 0 
C 28 22 0 
C 30 22 0 
C 32 22 0 
C 34 22 0 
C 36 22 0 
C 38 22 0 
C 40 22 0 
C 42 22 0 
C 44 22 0 
C 46 22 0 
C 48 22 0 
C 50 22 0 
C 52 22 0 
C 54 22 0 
C 56 22 0 
C 58 22 0 
C 60 22 0 
C 62 22 0 
C 64 22 0 
C 66 22 0 
C 68 22 0 
C 70 22 0 
C 72 22 0 
C 74 22 0 
C 76 22 0 
C 78 22 0 
C 80 22 0 
C 82 22 0 
C 84 22 0 
C 86 22 0 
C 88 22 0 
C 90 22 0 
C 92 22 0 
C 94 22 0 
C 96 22 0 
C 98 22 0 
C 100 22 0 
C 0 24 0 
C 2 24 0 
C 4 24 0 
C 6 24 0 
C 8 24 0 
C 10 24 0 
C 12 24 0 
C 14 24 0 
C 16 24 0 
C 18 24 0 
C 20 24 0 
C 22 24 0 
C 24 24 0 
C 26 24 0 
C 28 24 0 
C 30 24 0 
C 32 24 0 
C 34 24 0 
C 36 24 0 
C 38 24 0 
C 40 24 0 
C 42 24 0 
C 44 24 0 
C 46 24 0 
C 48 24 0 
C 50 24 0 
C 52 24 0 
C 54 24 0 
C 56 24 0 
C 58 24 0 
C 60 24 0 
C 62 24 0 
C 64 24 0 
C 66 24 0 
C 68 24 0 
C 70 24 0 
C 72 24 0 
C 74 24 0 
C 76 24 0 
C 78 24 0 
C 80 24 0 
C 82 24 0 
C 84 24 0 
C 86 24 0 
C 88 24 0 
C 90 24 0 
C 92 24 0 
C 94 24 0 
C 96 24 0 
C 98 24 0 
C 100 24 0 
C 0 26 0 
C 2 26 0 
C 4 26 0 
C 6 26 0 
C 8 26 0 
C 10 26 0 
C 12 26 0 
C 14 26 0 
C 16 26 0 
C 18 26 0 
C 20 26 0 
C 22 26 0 
C 24 26 0 
C 26 26 0 
C 28 26 0 
C 30 26 0 
C 32 26 0 
C 34 26 0 
C 36 26 0 
C 38 26 0 
C 40 26 0 
C 42 26 0 
C 44 26 0 
C 46 26 0 
C 48 26 0 
C 50 26 0 
C 52 26 0 
C 54 26 0 
C 56 26 0 
C 58 26 0 
C 60 26 0 
C 62 26 0 
C 64 26 0 
C 66 26 0 
C 68 26 0 
C 70 26 0 
C 72 26 0 
C 74 26 0 
C 76 26 0 
C 78 26 0 
C 80 26 0 
C 82 26 0 
C 84 26 0 
C 86 26 0 
C 88 26 0 
C 90 26 0 
C 92 26 0 
C 94 26 0 
C 96 26 0 
C 98 26 0 
C 100 26 0 
C 0 28 0 
C 2 28 0 
C 4 28 0 
C 6 28 0 
C 8 28 0 
C 10 28 0 
C 12 28 0 
C 14 28 0 
C 16 28 0 
C 18 28 0 
C 20 28 0 
C 22 28 0 
C 24 28 0 
C 26 28 0 
C 28 28 0 
C 30 28 0 
C 32 28 0 
C 34 28 0 
C 36 28 0 
C 38 28 0 
C 40 28 0 
C 42 28 0 
C 44 28 0 
C 46 28 0 
C 48 28 0 
C 50 28 0 
C 52 28 0 
C 54 28 0 
C 56 28 0 
C 58 28 0 
C 60 28 0 
C 62 28 0 
C 64 28 0 
C 66 28 0 
C 68 28 0 
C 70 28 0 
C 72 28 0 
C 74 28 0 
C 76 28 0 
C 78 28 0 
C 80 28 0 
C 82 28 0 
C 84 28 0 
C 86 28 0 
C 88 28 0 
C 90 28 0 
C 92 28 0 
C 94 28 0 
C 96 28 0 
C 98 28 0 
C 100 28 0 
C 0 30 0 
C 2 30 0 
C 4 30 0 
C 6 30 0 
C 8 30 0 
C 10 30 0 
C 12 30 0 
C 14 30 0 
C 16 30 0 
C 18 30 0 
C 20 30 0 
C 22 30 0 
C 24 30 0 
C 26 30 0 
C 28 30 0 
C 30 30 0 
C 32 30 0 
C 34 30 0 
C 36 30 0 
C 38 30 0 
C 40 30 0 
C 42 30 0 
C 44 30 0 
C 46 30 0 
C 48 30 0 
C 50 30 0 
C 52 30 0 
C 54 30 0 
C 56 30 0 
C 58 30 0 
C 60 30 0 
C 62 30 0 
C 64 30 0 
C 66 30 0 
C 68 30 0 
C 70 30 0 
C 72 30 0 
C 74 30 0 
C 76 30 0 
C 78 30 0 
C 80 30 0 
C 82 30 0 
C 84 30 0 
C 86 30 0 
C 88 30 0 
C 90 30 0 
C 92 30 0 
C 94 30 0 
C 96 30 0 
C 98 30 0 
C 100 30 0 
C 0 32 0 
C 2 32 0 
C 4 32 0 
C 6 32 0 
C 8 32 0 
C 10 32 0 
C 12 32 0 
C 14 32 0 
C 16 32 0 
C 18 32 0 
C 20 32 0 
C 22 32 0 
C 24 32 0 
C 26 32 0 
C 28 32 0 
C 30 32 0 
C 32 32 0 
C 34 32 0 
C 36 32 0 
C 38 32 0 
C 40 32 0 
C 42 32 0 
C 44 32 0 
C 46 32 0 
C 48 32 0 
C 50 32 0 
C 52 32 0 
C 54 32 0 
C 56 32 0 
C 58 32 0 
C 60 32 0 
C 62 32 0 
C 64 32 0 
C 66 32 0 
C 68 32 0 
C 70 32 0 
C 72 32 0 
C 74 32 0 
C 76 32 0 
C 78 32 0 
C 80 32 0 
C 82 32 0 
C 84 32 0 
C 86 32 0 
C 88 32 0 
C 90 32 0 
C 92 32 0 
C 94 32 0 
C 96 32 0 
C 98 32 0 
C 100 32 0 
C 0 34 0 
C 2 34 0 
C 4 34 0 
C 6 34 0 
C 8 34 0 
C 10 34 0 
C 12 34 0 
C 14 34 0 
C 16 34 0 
C 18 34 0 
C 20 34 0 
C 22 34 0 
C 24 34 0 
C 26 34 0 
C 28 34 0 
C 30 34 0 
C 32 34 0 
C 34 34 0 
C 36 34 0 
C 38 34 0 
C 40 34 0 
C 42 34 0 
C 44 34 0 
C 46 34 0 
C 48 34 0 
C 50 34 0 
C 52 34 0 
C 54 34 0 
C 56 34 0 
C 58 34 0 
C 60 34 0 
C 62 34 0 
C 64 34 0 
C 66 34 0 
C 68 34 0 
C 70 34 0 
C 72 34 0 
C 74 34 0 
C 76 34 0 
C 78 34 0 
C 80 34 0 
C 82 34 0 
C 84 34 0 
C 86 34 0 
C 88 34 0 
C 90 34 0 
C 92 34 0 
C 94 34 0 
C 96 34 0 
C 98 34 0 
C 100 34 0 
C 0 36 0 
C 2 36 0 
C 4 36 0 
C 6 36 0 
C 8 36 0 
C 10 36 0 
C 12 36 0 
C 14 36 0 
C 16 36 0 
C 18 36 0 
C 20 36 0 
C 22 36 0 
C 24 36 0 
C 26 36 0 
C 28 36 0 
C 30 36 0 
C 32 36 0 
C 34 36 0 
C 36 36 0 
C 38 36 0 
C 40 36 0 
C 42 36 0 
C 44 36 0 
C 46 36 0 
C 48 36 0 
C 50 36 0 
C 52 36 0 
C 54 36 0 
C 56 36 0 
C 58 36 0 
C 60 36 0 
C 62 36 0 
C 64 36 0 
C 66 36 0 
C 68 36 0 
C 70 36 0 
C 72 36 0 
C 74 36 0 
C 76 36 0 
C 78 36 0 
C 80 36 0 
C 82 36 0 
C 84 36 0 
C 86 36 0 
C 88 36 0 
C 90 36 0 
C 92 36 0 
C 94 36 0 
C 96 36 0 
C 98 36 0 
C 100 36 0 
C 0 38 0 
C 2 38 0 
C 4 38 0 
C 6 38 0 
C 8 38 0 
C 10 38 0 
C 12 38 0 
C 14 38 0 
C 16 38 0 
C 18 38 0 
C 20 38 0 
C 22 38 0 
C 24 38 0 
C 26 38 0 
C 28 38 0 
C 30 38 0 
C 32 38 0 
C 34 38 0 
C 36 38 0 
C 38 38 0 
C 40 38 0 
C 42 38 0 
C 44 38 0 
C 46 38 0 
C 48 38 0 
C 50 38 0 
C 52 38 0 
C 54 38 0 
C 56 38 0 
C 58 38 0 
C 60 38 0 
C 62 38 0 
C 64 38 0 
C 66 38 0 
C 68 38 0 
C 70 38 0 
C 72 38 0 
C 74 38 0 
C 76 38 0 
C 78 38 0 
C 80 38 0 
C 82 38 0 
C 84 38 0 
C 86 38 0 
C 88 38 0 
C 90 38 0 
C 92 38 0 
C 94 38 0 
C 96 38 0 
C 98 38 0 
C 100 38 0 
C 0 40 0 
C 2 40 0 
C 4 40 0 
C 6 40 0 
C 8 40 0 
C 10 40 0 
C 12 40 0 
C 14 40 0 
C 16 40 0 
C 18 40 0 
C 20 40 0 
C 22 40 0 
C 24 40 0 
C 26 40 0 
C 28 40 0 
C 30 40 0 
C 32 40 0 
C 34 40 0 
C 36 40 0 
C 38 40 0 
C 40 40 0 
C 42 40 0 
C 44 40 0 
C 46 40 0 
C 48 40 0 
C 50 40 0 
C 52 40 0 
C 54 40 0 
C 56 40 0 
C 58 40 0 
C 60 40 0 
C 62 40 0 
C 64 40 0 
C 66 40 0 
C 68 40 0 
C 70 40 0 
C 72 40 0 
C 74 40 0 
C 76 40 0 
C 78 40 0 
C 80 40 0 
C 82 40 0 
C 84 40 0 
C 86 40 0 
C 88 40 0 
C 90 40 0 
C 92 40 0 
C 94 40 0 
C 96 40 0 
C 98 40 0 
C 100 40 0 
C 0 42 0 
C 2 42 0 
C 4 42 0 
C 6 42 0 
C 8 42 0 
C 10 42 0 
C 12 42 0 
C 14 42 0 
C 16 42 0 
C 18 42 0 
C 20 42 0 
C 22 42 0 
C 24 42 0 
C 26 42 0 
C 28 42 0 
C 30 42 0 
C 32 42 0 
C 34 42 0 
C 36 42 0 
C 38 42 0 
C 40 42 0 
C 42 42 0 
C 44 42 0 
C 46 42 0 
C 48 42 0 
C 50 42 0 
C 52 42 0 
C 54 42 0 
C 56 42 0 
C 58 42 0 
C 60 42 0 
C 62 42 0 
C 64 42 0 
C 66 42 0 
C 68 42 0 
C 70 42 0 
C 72 42 0 
C 74 42 0 
C 76 42 0 
C 78 42 0 
C 80 42 0 
C 82 42 0 
C 84 42 0 
C 86 42 0 
C 88 42 0 
C 90 42 0 
C 92 42 0 
C 94 42 0 
C 96 42 0 
C 98 42 0 
C 100 42 0 
C 0 44 0 
C 2 44 0 
C 4 44 0 
C 6 44 0 
C 8 44 0 
C 10 44 0 
C 12 44 0 
C 14 44 0 
C 16 44 0 
C 18 44 0 
C 20 44 0 
C 22 44 0 
C 24 44 0 
C 26 44 0 
C 28 44 0 
C 30 44 0 
C 32 44 0 
C 34 44 0 
C 36 44 0 
C 38 44 0 
C 40 44 0 
C 42 44 0 
C 44 44 0 
C 46 44 0 
C 48 44 0 
C 50 44 0 
C 52 44 0 
C 54 44 0 
C 56 44 0 
C 58 44 0 
C 60 44 0 
C 62 44 0 
C 64 44 0 
C 66 44 0 
C 68 44 0 
C 70 44 0 
C 72 44 0 
C 74 44 0 
C 76 44 0 
C 78 44 0 
C 80 44 0 
C 82 44 0 
C 84 44 0 
C 86 44 0 
C 88 44 0 
C 90 44 0 
C 92 44 0 
C 94 44 0 
C 96 44 0 
C 98 44 0 
C 100 44 0 
C 0 46 0 
C 2 46 0 
C 4 46 0 
C 6 46 0 
C 8 46 0 
C 10 46 0 
C 12 46 0 
C 14 46 0 
C 16 46 0 
C 18 46 0 
C 20 46 0 
C 22 46 0 
C 24 46 0 
C 26 46 0 
C 28 46 0 
C 30 46 0 
C 32 46 0 
C 34 46 0 
C 36 46 0 
C 38 46 0 
C 40 46 0 
C 42 46 0 
C 44 46 0 
C 46 46 0 
C 48 46 0 
C 50 46 0 
C 52 46 0 
C 54 46 0 
C 56 46 0 
C 58 46 0 
C 60 46 0 
C 62 46 0 
C 64 46 0 
C 66 46 0 
C 68 46 0 
C 70 46 0 
C 72 46 0 
C 74 46 0 
C 76 46 0 
C 78 46 0 
C 80 46 0 
C 82 46 0 
C 84 46 0 
C 86 46 0 
C 88 46 0 
C 90 46 0 
C 92 46 0 
C 94 46 0 
C 96 46 0 
C 98 46 0 
C 100 46 0 
C 0 48 0 
C 2 48 0 
C 4 48 0 
C 6 48 0 
C 8 48 0 
C 10 48 0 
C 12 48 0 
C 14 48 0 
C 16 48 0 
C 18 48 0 
C 20 48 0 
C 22 48 0 
C 24 48 0 
C 26 48 0 
C 28 48 0 
C 30 48 0 
C 32 48 0 
C 34 48 0 
C 36 48 0 
C 38 48 0 
C 40 48 0 
C 42 48 0 
C 44 48 0 
C 46 48 0 
C 48 48 0 
C 50 48 0 
C 52 48 0 
C 54 48 0 
C 56 48 0 
C 58 48 0 
C 60 48 0 
C 62 48 0 
C 64 48 0 
C 66 48 0 
C 68 48 0 
C 70 48 0 
C 72 48 0 
C 74 48 0 
C 76 48 0 
C 78 48 0 
C 80 48 0 
C 82 48 0 
C 84 48 0 
C 86 48 0 
C 88 48 0 
C 90 48 0 
C 92 48 0 
C 94 48 0 
C 96 48 0 
C 98 48 0 
C 100 48 0 
C 0 50 0 
C 2 50 0 
C 4 50 0 
C 6 50 0 
C 8 50 0 
C 10 50 0 
C 12 50 0 
C 14 50 0 
C 16 50 0 
C 18 50 0 
C 20 50 0 
C 22 50 0 
C 24 50 0 
C 26 50 0 
C 28 50 0 
C 30 50 0 
C 32 50 0 
C 34 50 0 
C 36 50 0 
C 38 50 0 
C 40 50 0 
C 42 50 0 
C 44 50 0 
C 46 50 0 
C 48 50 0 
C 50 50 0 
C 52 50 0 
C 54 50 0 
C 56 50 0 
C 58 50 0 
C 60 50 0 
C 62 50 0 
C 64 50 0 
C 66 50 0 
C 68 50 0 
C 70 50 0 
C 72 50 0 
C 74 50 0 
C 76 50 0 
C 78 50 0 
C 80 50 0 
C 82 50 0 
C 84 50 0 
C 86 50 0 
C 88 50 0 
C 90 50 0 
C 92 50 0 
C 94 50 0 
C 96 50 0 
C 98 50 0 
C 100 50 0 
C 0 52 0 
C 2 52 0 
C 4 52 0 
C 6 52 0 
C 8 52 0 
C 10 52 0 
C 12 52 0 
C 14 52 0 
C 16 52 0 
C 18 52 0 
C 20 52 0 
C 22 52 0 
C 24 52 0 
C 26 52 0 
C 28 52 0 
C 30 52 0 
C 32 52 0 
C 34 52 0 
C 36 52 0 
C 38 52 0 
C 40 52 0 
C 42 52 0 
C 44 52 0 
C 46 52 0 
C 48 52 0 
C 50 52 0 
C 52 52 0 
C 54 52 0 
C 56 52 0 
C 58 52 0 
C 60 52 0 
C 62 52 0 
C 64 52 0 
C 66 52 0 
C 68 52 0 
C 70 52 0 
C 72 52 0 
C 74 52 0 
C 76 52 0 
C 78 52 0 
C 80 52 0 
C 82 52 0 
C 84 52 0 
C 86 52 0 
C 88 52 0 
C 90 52 0 
C 92 52 0 
C 94 52 0 
C 96 52 0 
C 98 52 0 
C 100 52 0 
C 0 54 0 
C 2 54 0 
C 4 54 0 
C 6 54 0 
C 8 54 0 
C 10 54 0 
C 12 54 0 
C 14 54 0 
C 16 54 0 
C 18 54 0 
C 20 54 0 
C 22 54 0 
C 24 54 0 
C 26 54 0 
C 28 54 0 
C 30 54 0 
C 32 54 0 
C 34 54 0 
C 36 54 0 
C 38 54 0 
C 40 54 0 
C 42 54 0 
C 44 54 0 
C 46 54 0 
C 48 54 0 
C 50 54 0 
C 52 54 0 
C 54 54 0 
C 56 54 0 
C 58 54 0 
C 60 54 0 
C 62 54 0 
C 64 54 0 
C 66 54 0 
C 68 54 0 
C 70 54 0 
C 72 54 0 
C 74 54 0 
C 76 54 0 
C 78 54 0 
C 80 54 0 
C 82 54 0 
C 84 54 0 
C 86 54 0 
C 88 54 0 
C 90 54 0 
C 92 54 0 
C 94 54 0 
C 96 54 0 
C 98 54 0 
C 100 54 0 
C 0 56 0 
C 2 56 0 
C 4 56 0 
C 6 56 0 
C 8 56 0 
C 10 56 0 
C 12 56 0 
C 14 56 0 
C 16 56 0 
C 18 56 0 
C 20 56 0 
C 22 56 0 
C 24 56 0 
C 26 56 0 
C 28 56 0 
C 30 56 0 
C 32 56 0 
C 34 56 0 
C 36 56 0 
C 38 56 0 
C 40 56 0 
C 42 56 0 
C 44 56 0 
C 46 56 0 
C 48 56 0 
C 50 56 0 
C 52 56 0 
C 54 56 0 
C 56 56 0 
C 58 56 0 
C 60 56 0 
C 62 56 0 
C 64 56 0 
C 66 56 0 
C 68 56 0 
C 70 56 0 
C 72 56 0 
C 74 56 0 
C 76 56 0 
C 78 56 0 
C 80 56 0 
C 82 56 0 
C 84 56 0 
C 86 56 0 
C 88 56 0 
C 90 56 0 
C 92 56 0 
C 94 56 0 
C 96 56 0 
C 98 56 0 
C 100 56 0 
C 0 58 0 
C 2 58 0 
C 4 58 0 
C 6 58 0 
C 8 58 0 
C 10 58 0 
C 12 58 0 
C 14 58 0 
C 16 58 0 
C 18 58 0 
C 20 58 0 
C 22 58 0 
C 24 58 0 
C 26 58 0 
C 28 58 0 
C 30 58 0 
C 32 58 0 
C 34 58 0 
C 36 58 0 
C 38 58 0 
C 40 58 0 
C 42 58 0 
C 44 58 0 
C 46 58 0 
C 48 58 0 
C 50 58 0 
C 52 58 0 
C 54 58 0 
C 56 58 0 
C 58 58 0 
C 60 58 0 
C 62 58 0 
C 64 58 0 
C 66 58 0 
C 68 58 0 
C 70 58 0 
C 72 58 0 
C 74 58 0 
C 76 58 0 
C 78 58 0 
C 80 58 0 
C 82 58 0 
C 84 58 0 
C 86 58 0 
C 88 58 0 
C 90 58 0 
C 92 58 0 
C 94 58 0 
C 96 58 0 
C 98 58 0 
C 100 58 0 
C 0 60 0 
C 2 60 0 
C 4 60 0 
C 6 60 0 
C 8 60 0 
C 10 60 0 
C 12 60 0 
C 14 60 0 
C 16 60 0 
C 18 60 0 
C 20 60 0 
C 22 60 0 
C 24 60 0 
C 26 60 0 
C 28 60 0 
C 30 60 0 
C 32 60 0 
C 34 60 0 
C 36 60 0 
C 38 60 0 
C 40 60 0 
C 42 60 0 
C 44 60 0 
C 46 60 0 
C 48 60 0 
C 50 60 0 
C 52 60 0 
C 54 60 0 
C 56 60 0 
C 58 60 0 
C 60 60 0 
C 62 60 0 
C 64 60 0 
C 66 60 0 
C 68 60 0 
C 70 60 0 
C 72 60 0 
C 74 60 0 
C 76 60 0 
C 78 60 0 
C 80 60 0 
C 82 60 0 
C 84 60 0 
C 86 60 0 
C 88 60 0 
C 90 60 0 
C 92 60 0 
C 94 60 0 
C 96 60 0 
C 98 60 0 
C 100 60 0 
C 0 62 0 
C 2 62 0 
C 4 62 0 
C 6 62 0 
C 8 62 0 
C 10 62 0 
C 12 62 0 
C 14 62 0 
C 16 62 0 
C 18 62 0 
C 20 62 0 
C 22 62 0 
C 24 62 0 
C 26 62 0 
C 28 62 0 
C 30 62 0 
C 32 62 0 
C 34 62 0 
C 36 62 0 
C 38 62 0 
C 40 62 0 
C 42 62 0 
C 44 62 0 
C 46 62 0 
C 48 62 0 
C 50 62 0 
C 52 62 0 
C 54 62 0 
C 56 62 0 
C 58 62 0 
C 60 62 0 
C 62 62 0 
C 64 62 0 
C 66 62 0 
C 68 62 0 
C 70 62 0 
C 72 62 0 
C 74 62 0 
C 76 62 0 
C 78 62 0 
C 80 62 0 
C 82 62 0 
C 84 62 0 
C 86 62 0 
C 88 62 0 
C 90 62 0 
C 92 62 0 
C 94 62 0 
C 96 62 0 
C 98 62 0 
C 100 62 0 
C 0 64 0 
C 2 64 0 
C 4 64 0 
C 6 64 0 
C 8 64 0 
C 10 64 0 
C 12 64 0 
C 14 64 0 
C 16 64 0 
C 18 64 0 
C 20 64 0 
C 22 64 0 
C 24 64 0 
C 26 64 0 
C 28 64 0 
C 30 64 0 
C 32 64 0 
C 34 64 0 
C 36 64 0 
C 38 64 0 
C 40 64 0 
C 42 64 0 
C 44 64 0 
C 46 64 0 
C 48 64 0 
C 50 64 0 
C 52 64 0 
C 54 64 0 
C 56 64 0 
C 58 64 0 
C 60 64 0 
C 62 64 0 
C 64 64 0 
C 66 64 0 
C 68 64 0 
C 70 64 0 
C 72 64 0 
C 74 64 0 
C 76 64 0 
C 78 64 0 
C 80 64 0 
C 82 64 0 
C 84 64 0 
C 86 64 0 
C 88 64 0 
C 90 64 0 
C 92 64 0 
C 94 64 0 
C 96 64 0 
C 98 64 0 
C 100 64 0 
C 0 66 0 
C 2 66 0 
C 4 66 0 
C 6 66 0 
C 8 66 0 
C 10 66 0 
C 12 66 0 
C 14 66 0 
C 16 66 0 
C 18 66 0 
C 20 66 0 
C 22 66 0 
C 24 66 0 
C 26 66 0 
C 28 66 0 
C 30 66 0 
C 32 66 0 
C 34 66 0 
C 36 66 0 
C 38 66 0 
C 40 66 0 
C 42 66 0 
C 44 66 0 
C 46 66 0 
C 48 66 0 
C 50 66 0 
C 52 66 0 
C 54 66 0 
C 56 66 0 
C 58 66 0 
C 60 66 0 
C 62 66 0 
C 64 66 0 
C 66 66 0 
C 68 66 0 
C 70 66 0 
C 72 66 0 
C 74 66 0 
C 76 66 0 
C 78 66 0 
C 80 66 0 
C 82 66 0 
C 84 66 0 
C 86 66 0 
C 88 66 0 
C 90 66 0 
C 92 66 0 
C 94 66 0 
C 96 66 0 
C 98 66 0 
C 100 66 0 
C 0 68 0 
C 2 68 0 
C 4 68 0 
C 6 68 0 
C 8 68 0 
C 10 68 0 
C 12 68 0 
C 14 68 0 
C 16 68 0 
C 18 68 0 
C 20 68 0 
C 22 68 0 
C 24 68 0 
C 26 68 0 
C 28 68 0 
C 30 68 0 
C 32 68 0 
C 34 68 0 
C 36 68 0 
C 38 68 0 
C 40 68 0 
C 42 68 0 
C 44 68 0 
C 46 68 0 
C 48 68 0 
C 50 68 0 
C 52 68 0 
C 54 68 0 
C 56 68 0 
C 58 68 0 
C 60 68 0 
C 62 68 0 
C 64 68 0 
C 66 68 0 
C 68 68 0 
C 70 68 0 
C 72 68 0 
C 74 68 0 
C 76 68 0 
C 78 68 0 
C 80 68 0 
C 82 68 0 
C 84 68 0 
C 86 68 0 
C 88 68 0 
C 90 68 0 
C 92 68 0 
C 94 68 0 
C 96 68 0 
C 98 68 0 
C 100 68 0 
C 0 70 0 
C 2 70 0 
C 4 70 0 
C 6 70 0 
C 8 70 0 
C 10 70 0 
C 12 70 0 
C 14 70 0 
C 16 70 0 
C 18 70 0 
C 20 70 0 
C 22 70 0 
C 24 70 0 
C 26 70 0 
C 28 70 0 
C 30 70 0 
C 32 70 0 
C 34 70 0 
C 36 70 0 
C 38 70 0 
C 40 70 0 
C 42 70 0 
C 44 70 0 
C 46 70 0 
C 48 70 0 
C 50 70 0 
C 52 70 0 
C 54 70 0 
C 56 70 0 
C 58 70 0 
C 60 70 0 
C 62 70 0 
C 64 70 0 
C 66 70 0 
C 68 70 0 
C 70 70 0 
C 72 70 0 
C 74 70 0 
C 76 70 0 
C 78 70 0 
C 80 70 0 
C 82 70 0 
C 84 70 0 
C 86 70 0 
C 88 70 0 
C 90 70 0 
C 92 70 0 
C 94 70 0 
C 96 70 0 
C 98 70 0 
C 100 70 0 
C 0 72 0 
C 2 72 0 
C 4 72 0 
C 6 72 0 
C 8 72 0 
C 10 72 0 
C 12 72 0 
C 14 72 0 
C 16 72 0 
C 18 72 0 
C 20 72 0 
C 22 72 0 
C 24 72 0 
C 26 72 0 
C 28 72 0 
C 30 72 0 
C 32 72 0 
C 34 72 0 
C 36 72 0 
C 38 72 0 
C 40 72 0 
C 42 72 0 
C 44 72 0 
C 46 72 0 
C 48 72 0 
C 50 72 0 
C 52 72 0 
C 54 72 0 
C 56 72 0 
C 58 72 0 
C 60 72 0 
C 62 72 0 
C 64 72 0 
C 66 72 0 
C 68 72 0 
C 70 72 0 
C 72 72 0 
C 74 72 0 
C 76 72 0 
C 78 72 0 
C 80 72 0 
C 82 72 0 
C 84 72 0 
C 86 72 0 
C 88 72 0 
C 90 72 0 
C 92 72 0 
C 94 72 0 
C 96 72 0 
C 98 72 0 
C 100 72 0 
C 0 74 0 
C 2 74 0 
C 4 74 0 
C 6 74 0 
C 8 74 0 
C 10 74 0 
C 12 74 0 
C 14 74 0 
C 16 74 0 
C 18 74 0 
C 20 74 0 
C 22 74 0 
C 24 74 0 
C 26 74 0 
C 28 74 0 
C 30 74 0 
C 32 74 0 
C 34 74 0 
C 36 74 0 
C 38 74 0 
C 40 74 0 
C 42 74 0 
C 44 74 0 
C 46 74 0 
C 48 74 0 
C 50 74 0 
C 52 74 0 
C 54 74 0 
C 56 74 0 
C 58 74 0 
C 60 74 0 
C 62 74 0 
C 64 74 0 
C 66 74 0 
C 68 74 0 
C 70 74 0 
C 72 74 0 
C 74 74 0 
C 76 74 0 
C 78 74 0 
C 80 74 0 
C 82 74 0 
C 84 74 0 
C 86 74 0 
C 88 74 0 
C 90 74 0 
C 92 74 0 
C 94 74 0 
C 96 74 0 
C 98 74 0 
C 100 74 0 
C 0 76 0 
C 2 76 0 
C 4 76 0 
C 6 76 0 
C 8 76 0 
C 10 76 0 
C 12 76 0 
C 14 76 0 
C 16 76 0 
C 18 76 0 
C 20 76 0 
C 22 76 0 
C 24 76 0 
C 26 76 0 
C 28 76 0 
C 30 76 0 
C 32 76 0 
C 34 76 0 
C 36 76 0 
C 38 76 0 
C 40 76 0 
C 42 76 0 
C 44 76 0 
C 46 76 0 
C 48 76 0 
C 50 76 0 
C 52 76 0 
C 54 76 0 
C 56 76 0 
C 58 76 0 
C 60 76 0 
C 62 76 0 
C 64 76 0 
C 66 76 0 
C 68 76 0 
C 70 76 0 
C 72 76 0 
C 74 76 0 
C 76 76 0 
C 78 76 0 
C 80 76 0 
C 82 76 0 
C 84 76 0 
C 86 76 0 
C 88 76 0 
C 90 76 0 
C 92 76 0 
C 94 76 0 
C 96 76 0 
C 98 76 0 
C 100 76 0 
C 0 78 0 
C 2 78 0 
C 4 78 0 
C 6 78 0 
C 8 78 0 
C 10 78 0 
C 12 78 0 
C 14 78 0 
C 16 78 0 
C 18 78 0 
C 20 78 0 
C 22 78 0 
C 24 78 0 
C 26 78 0 
C 28 78 0 
C 30 78 0 
C 32 78 0 
C 34 78 0 
C 36 78 0 
C 38 78 0 
C 40 78 0 
C 42 78 0 
C 44 78 0 
C 46 78 0 
C 48 78 0 
C 50 78 0 
C 52 78 0 
C 54 78 0 
C 56 78 0 
C 58 78 0 
C 60 78 0 
C 62 78 0 
C 64 78 0 
C 66 78 0 
C 68 78 0 
C 70 78 0 
C 72 78 0 
C 74 78 0 
C 76 78 0 
C 78 78 0 
C 80 78 0 
C 82 78 0 
C 84 78 0 
C 86 78 0 
C 88 78 0 
C 90 78 0 
C 92 78 0 
C 94 78 0 
C 96 78 0 
C 98 78 0 
C 100 78 0 
C 0 80 0 
C 2 80 0 
C 4 80 0 
C 6 80 0 
C 8 80 0 
C 10 80 0 
C 12 80 0 
C 14 80 0 
C 16 80 0 
C 18 80 0 
C 20 80 0 
C 22 80 0 
C 24 80 0 
C 26 80 0 
C 28 80 0 
C 30 80 0 
C 32 80 0 
C 34 80 0 
C 36 80 0 
C 38 80 0 
C 40 80 0 
C 42 80 0 
C 44 80 0 
C 46 80 0 
C 48 80 0 
C 50 80 0 
C 52 80 0 
C 54 80 0 
C 56 80 0 
C 58 80 0 
C 60 80 0 
C 62 80 0 
C 64 80 0 
C 66 80 0 
C 68 80 0 
C 70 80 0 
C 72 80 0 
C 74 80 0 
C 76 80 0 
C 78 80 0 
C 80 80 0 
C 82 80 0 
C 84 80 0 
C 86 80 0 
C 88 80 0 
C 90 80 0 
C 92 80 0 
C 94 80 0 
C 96 80 0 
C 98 80 0 
C 100 80 0 
C 0 82 0 
C 2 82 0 
C 4 82 0 
C 6 82 0 
C 8 82 0 
C 10 82 0 
C 12 82 0 
C 14 82 0 
C 16 82 0 
C 18 82 0 
C 20 82 0 
C 22 82 0 
C 24 82 0 
C 26 82 0 
C 28 82 0 
C 30 82 0 
C 32 82 0 
C 34 82 0 
C 36 82 0 
C 38 82 0 
C 40 82 0 
C 42 82 0 
C 44 82 0 
C 46 82 0 
C 48 82 0 
C 50 82 0 
C 52 82 0 
C 54 82 0 
C 56 82 0 
C 58 82 0 
C 60 82 0 
C 62 82 0 
C 64 82 0 
C 66 82 0 
C 68 82 0 
C 70 82 0 
C 72 82 0 
C 74 82 0 
C 76 82 0 
C 78 82 0 
C 80 82 0 
C 82 82 0 
C 84 82 0 
C 86 82 0 
C 88 82 0 
C 90 82 0 
C 92 82 0 
C 94 82 0 
C 96 82 0 
C 98 82 0 
C 100 82 0 
C 0 84 0 
C 2 84 0 
C 4 84 0 
C 6 84 0 
C 8 84 0 
C 10 84 0 
C 12 84 0 
C 14 84 0 
C 16 84 0 
C 18 84 0 
C 20 84 0 
C 22 84 0 
C 24 84 0 
C 26 84 0 
C 28 84 0 
C 30 84 0 
C 32 84 0 
C 34 84 0 
C 36 84 0 
C 38 84 0 
C 40 84 0 
C 42 84 0 
C 44 84 0 
C 46 84 0 
C 48 84 0 
C 50 84 0 
C 52 84 0 
C 54 84 0 
C 56 84 0 
C 58 84 0 
C 60 84 0 
C 62 84 0 
C 64 84 0 
C 66 84 0 
C 68 84 0 
C 70 84 0 
C 72 84 0 
C 74 84 0 
C 76 84 0 
C 78 84 0 
C 80 84 0 
C 82 84 0 
C 84 84 0 
C 86 84 0 
C 88 84 0 
C 90 84 0 
C 92 84 0 
C 94 84 0 
C 96 84 0 
C 98 84 0 
C 100 84 0 
C 0 86 0 
C 2 86 0 
C 4 86 0 
C 6 86 0 
C 8 86 0 
C 10 86 0 
C 12 86 0 
C 14 86 0 
C 16 86 0 
C 18 86 0 
C 20 86 0 
C 22 86 0 
C 24 86 0 
C 26 86 0 
C 28 86 0 
C 30 86 0 
C 32 86 0 
C 34 86 0 
C 36 86 0 
C 38 86 0 
C 40 86 0 
C 42 86 0 
C 44 86 0 
C 46 86 0 
C 48 86 0 
C 50 86 0 
C 52 86 0 
C 54 86 0 
C 56 86 0 
C 58 86 0 
C 60 86 0 
C 62 86 0 
C 64 86 0 
C 66 86 0 
C 68 86 0 
C 70 86 0 
C 72 86 0 
C 74 86 0 
C 76 86 0 
C 78 86 0 
C 80 86 0 
C 82 86 0 
C 84 86 0 
C 86 86 0 
C 88 86 0 
C 90 86 0 
C 92 86 0 
C 94 86 0 
C 96 86 0 
C 98 86 0 
C 100 86 0 
C 0 88 0 
C 2 88 0 
C 4 88 0 
C 6 88 0 
C 8 88 0 
C 10 88 0 
C 12 88 0 
C 14 88 0 
C 16 88 0 
C 18 88 0 
C 20 88 0 
C 22 88 0 
C 24 88 0 
C 26 88 0 
C 28 88 0 
C 30 88 0 
C 32 88 0 
C 34 88 0 
C 36 88 0 
C 38 88 0 
C 40 88 0 
C 42 88 0 
C 44 88 0 
C 46 88 0 
C 48 88 0 
C 50 88 0 
C 52 88 0 
C 54 88 0 
C 56 88 0 
C 58 88 0 
C 60 88 0 
C 62 88 0 
C 64 88 0 
C 66 88 0 
C 68 88 0 
C 70 88 0 
C 72 88 0 
C 74 88 0 
C 76 88 0 
C 78 88 0 
C 80 88 0 
C 82 88 0 
C 84 88 0 
C 86 88 0 
C 88 88 0 
C 90 88 0 
C 92 88 0 
C 94 88 0 
C 96 88 0 
C 98 88 0 
C 100 88 0 
C 0 90 0 
C 2 90 0 
C 4 90 0 
C 6 90 0 
C 8 90 0 
C 10 90 0 
C 12 90 0 
C 14 90 0 
C 16 90 0 
C 18 90 0 
C 20 90 0 
C 22 90 0 
C 24 90 0 
C 26 90 0 
C 28 90 0 
C 30 90 0 
C 32 90 0 
C 34 90 0 
C 36 90 0 
C 38 90 0 
C 40 90 0 
C 42 90 0 
C 44 90 0 
C 46 90 0 
C 48 90 0 
C 50 90 0 
C 52 90 0 
C 54 90 0 
C 56 90 0 
C 58 90 0 
C 60 90 0 
C 62 90 0 
C 64 90 0 
C 66 90 0 
C 68 90 0 
C 70 90 0 
C 72 90 0 
C 74 90 0 
C 76 90 0 
C 78 90 0 
C 80 90 0 
C 82 90 0 
C 84 90 0 
C 86 90 0 
C 88 90 0 
C 90 90 0 
C 92 90 0 
C 94 90 0 
C 96 90 0 
C 98 90 0 
C 100 90 0 
C 0 92 0 
C 2 92 0 
C 4 92 0 
C 6 92 0 
C 8 92 0 
C 10 92 0 
C 12 92 0 
C 14 92 0 
C 16 92 0 
C 18 92 0 
C 20 92 0 
C 22 92 0 
C 24 92 0 
C 26 92 0 
C 28 92 0 
C 30 92 0 
C 32 92 0 
C 34 92 0 
C 36 92 0 
C 38 92 0 
C 40 92 0 
C 42 92 0 
C 44 92 0 
C 46 92 0 
C 48 92 0 
C 50 92 0 
C 52 92 0 
C 54 92 0 
C 56 92 0 
C 58 92 0 
C 60 92 0 
C 62 92 0 
C 64 92 0 
C 66 92 0 
C 68 92 0 
C 70 92 0 
C 72 92 0 
C 74 92 0 
C 76 92 0 
C 78 92 0 
C 80 92 0 
C 82 92 0 
C 84 92 0 
C 86 92 0 
C 88 92 0 
C 90 92 0 
C 92 92 0 
C 94 92 0 
C 96 92 0 
C 98 92 0 
C 100 92 0 
C 0 94 0 
C 2 94 0 
C 4 94 0 
C 6 94 0 
C 8 94 0 
C 10 94 0 
C 12 94 0 
C 14 94 0 
C 16 94 0 
C 18 94 0 
C 20 94 0 
C 22 94 0 
C 24 94 0 
C 26 94 0 
C 28 94 0 
C 30 94 0 
C 32 94 0 
C 34 94 0 
C 36 94 0 
C 38 94 0 
C 40 94 0 
C 42 94 0 
C 44 94 0 
C 46 94 0 
C 48 94 0 
C 50 94 0 
C 52 94 0 
C 54 94 0 
C 56 94 0 
C 58 94 0 
C 60 94 0 
C 62 94 0 
C 64 94 0 
C 66 94 0 
C 68 94 0 
C 70 94 0 
C 72 94 0 
C 74 94 0 
C 76 94 0 
C 78 94 0 
C 80 94 0 
C 82 94 0 
C 84 94 0 
C 86 94 0 
C 88 94 0 
C 90 94 0 
C 92 94 0 
C 94 94 0 
C 96 94 0 
C 98 94 0 
C 100 94 0 
C 0 96 0 
C 2 96 0 
C 4 96 0 
C 6 96 0 
C 8 96 0 
C 10 96 0 
C 12 96 0 
C 14 96 0 
C 16 96 0 
C 18 96 0 
C 20 96 0 
C 22 96 0 
C 24 96 0 
C 26 96 0 
C 28 96 0 
C 30 96 0 
C 32 96 0 
C 34 96 0 
C 36 96 0 
C 38 96 0 
C 40 96 0 
C 42 96 0 
C 44 96 0 
C 46 96 0 
C 48 96 0 
C 50 96 0 
C 52 96 0 
C 54 96 0 
C 56 96 0 
C 58 96 0 
C 60 96 0 
C 62 96 0 
C 64 96 0 
C 66 96 0 
C 68 96 0 
C 70 96 0 
C 72 96 0 
C 74 96 0 
C 76 96 0 
C 78 96 0 
C 80 96 0 
C 82 96 0 
C 84 96 0 
C 86 96 0 
C 88 96 0 
C 90 96 0 
C 92 96 0 
C 94 96 0 
C 96 96 0 
C 98 96 0 
C 100 96 0 
C 0 98 0 
C 2 98 0 
C 4 98 0 
C 6 98 0 
C 8 98 0 
C 10 98 0 
C 12 98 0 
C 14 98 0 
C 16 98 0 
C 18 98 0 
C 20 98 0 
C 22 98 0 
C 24 98 0 
C 26 98 0 
C 28 98 0 
C 30 98 0 
C 32 98 0 
C 34 98 0 
C 36 98 0 
C 38 98 0 
C 40 98 0 
C 42 98 0 
C 44 98 0 
C 46 98 0 
C 48 98 0 
C 50 98 0 
C 52 98 0 
C 54 98 0 
C 56 98 0 
C 58 98 0 
C 60 98 0 
C 62 98 0 
C 64 98 0 
C 66 98 0 
C 68 98 0 
C 70 98 0 
C 72 98 0 
C 74 98 0 
C 76 98 0 
C 78 98 0 
C 80 98 0 
C 82 98 0 
C 84 98 0 
C 86 98 0 
C 88 98 0 
C 90 98 0 
C 92 98 0 
C 94 98 0 
C 96 98 0 
C 98 98 0 
C 100 98 0 
C 0 100 0 
C 2 100 0 
C 4 100 0 
C 6 100 0 
C 8 100 0 
C 10 100 0 
C 12 100 0 
C 14 100 0 
C 16 100 0 
C 18 100 0 
C 20 100 0 
C 22 100 0 
C 24 100 0 
C 26 100 0 
C 28 100 0 
C 30 100 0 
C 32 100 0 
C 34 100 0 
C 36 100 0 
C 38 100 0 
C 40 100 0 
C 42 100 0 
C 44 100 0 
C 46 100 0 
C 48 100 0 
C 50 100 0 
C 52 100 0 
C 54 100 0 
C 56 100 0 
C 58 100 0 
C 60 100 0 
C 62 100 0 
C 64 100 0 
C 66 100 0 
C 68 100 0 
C 70 100 0 
C 72 100 0 
C 74 100 0 
C 76 100 0 
C 78 100 0 
C 80 100 0 
C 82 100 0 
C 84 100 0 
C 86 100 0 
C 88 100 0 
C 90 100 0 
C 92 100 0 
C 94 100 0 
C 96 100 0 
C 98 100 0 
C 100 100 0 
O 86 45 0 
O 17 17 0 
O 79 63 0 
O 14 15 0 
O 96 45 0 
O 49 59 0 
O 17 3 0 
3105
Atoms. Timestep: 4
N 89 18 0 
N 27 55 0 
N 17 71 0 
N 53 95 0 
N 31 19 0 
N 62 25 0 
N 85 64 0 
N 7 54 0 
N 11 50 0 
N 50 33 0 
N 17 3 0 
N 61 32 0 
N 59 11 0 
N 79 77 0 
N 51 85 0 
N 52 59 0 
N 40 71 0 
N 7 88 0 
N 7 14 0 
N 87 25 0 
N 17 34 0 
N 74 13 0 
N 19 27 0 
N 50 71 0 
N 58 97 0 
N 15 86 0 
N 93 10 0 
N 58 99 0 
N 4 39 0 
N 32 51 0 
N 76 33 0 
N 60 17 0 
N 28 63 0 
N 3 45 0 
N 27 17 0 
N 81 52 0 
N 94 67 0 
N 63 3 0 
N 63 86 0 
N 94 3 0 
N 48 13 0 
N 27 95 0 
N 90 29 0 
N 31 63 0 
N 53 48 0 
N 59 21 0 
N 59 77 0 
N 51 41 0 
N 90 77 0 
N 25 15 0 
N 56 23 0 
N 39 42 0 
N 12 21 0 
N 19 33 0 
N 97 71 0 
N 15 78 0 
N 53 62 0 
N 85 10 0 
N 3 17 0 
N 71 68 0 
N 99 62 0 
N 72 97 0 
N 10 31 0 
N 77 80 0 
N 64 13 0 
N 9 55 0 
N 76 63 0 
N 85 32 0 
N 39 19 0 
N 68 33 0 
N 40 21 0 
N 12 95 0 
N 5 45 0 
N 17 74 0 
N 39 78 0 
N 29 22 0 
N 55 85 0 
N 12 33 0 
N 29 52 0 
N 69 10 0 
N 67 45 0 
N 92 23 0 
N 79 95 0 
N 91 45 0 
N 4 37 0 
N 8 25 0 
N 35 67 0 
N 3 74 0 
N 23 25 0 
N 83 81 0 
N 61 79 0 
N 95 91 0 
N 17 18 0 
N 89 58 0 
N 91 4 0 
N 64 3 0 
N 72 55 0 
N 94 15 0 
N 66 65 0 
N 13 31 0 
N 49 62 0 
N 60 95 0 
N 50 41 0 
N 92 13 0 
N 92 95 0 
N 53 91 0 
N 73 63 0 
N 68 47 0 
N 27 89 0 
N 21 74 0 
N 29 45 0 
N 78 63 0 
N 17 77 0 
N 78 13 0 
N 48 67 0 
N 49 50 0 
N 19 55 0 
N 1 72 0 
N 70 93 0 
N 19 97 0 
N 29 31 0 
N 59 80 0 
N 44 25 0 
N 56 59 0 
N 17 27 0 
N 77 6 0 
N 5 70 0 
N 5 5 0 
N 29 16 0 
N 94 81 0 
N 5 85 0 
N 69 43 0 
N 15 37 0 
N 65 93 0 
N 18 13 0 
N 14 75 0 
N 31 58 0 
N 85 43 0 
N 97 44 0 
N 85 23 0 
N 13 42 0 
N 75 75 0 
N 74 3 0 
N 56 7 0 
N 79 87 0 
N 49 92 0 
N 99 52 0 
N 45 58 0 
N 97 77 0 
N 59 91 0 
N 95 42 0 
N 85 71 0 
N 19 35 0 
N 11 93 0 
N 51 68 0 
N 18 81 0 
N 99 79 0 
N 6 69 0 
N 10 3 0 
N 16 37 0 
N 86 39 0 
N 45 56 0 
N 91 41 0 
N 19 2 0 
N 35 86 0 
N 35 76 0 
N 66 13 0 
N 86 87 0 
N 97 20 0 
N 49 67 0 
N 13 97 0 
N 79 36 0 
N 21 37 0 
N 19 16 0 
N 71 30 0 
N 43 92 0 
N 91 63 0 
N 50 1 0 
N 79 74 0 
N 79 84 0 
N 73 35 0 
N 19 6 0 
N 82 53 0 
N 47 57 0 
N 4 69 0 
N 8 65 0 
N 95 53 0 
N 65 78 0 
N 89 69 0 
N 23 17 0 
N 17 70 0 
N 3 91 0 
N 69 65 0 
N 17 81 0 
N 56 65 0 
N 95 22 0 
N 66 71 0 
N 93 21 0 
N 48 39 0 
N 97 37 0 
N 79 9 0 
N 61 87 0 
N 64 33 0 
N 46 99 0 
N 61 6 0 
N 35 66 0 
N 72 31 0 
N 56 43 0 
N 90 83 0 
N 93 57 0 
N 26 59 0 
N 27 64 0 
N 17 5 0 
N 95 21 0 
N 29 17 0 
N 13 73 0 
N 61 67 0 
N 54 63 0 
N 91 78 0 
N 24 85 0 
N 1 56 0 
N 86 27 0 
N 97 69 0 
N 58 31 0 
N 27 47 0 
N 96 81 0 
N 75 40 0 
N 90 51 0 
N 80 27 0 
N 96 71 0 
N 82 81 0 
N 55 50 0 
N 39 21 0 
N 83 75 0 
N 64 59 0 
N 81 59 0 
N 23 31 0 
N 69 83 0 
N 10 39 0 
N 27 13 0 
N 74 59 0 
N 21 66 0 
N 91 53 0 
N 11 22 0 
N 51 52 0 
N 19 3 0 
N 25 14 0 
N 25 64 0 
N 20 63 0 
N 15 14 0 
N 80 93 0 
N 51 59 0 
N 41 84 0 
N 23 23 0 
N 17 30 0 
N 17 25 0 
N 81 45 0 
N 56 39 0 
N 53 27 0 
N 17 80 0 
N 18 63 0 
N 2 35 0 
N 96 45 0 
N 14 29 0 
N 44 77 0 
N 95 88 0 
N 53 42 0 
N 76 45 0 
N 87 68 0 
N 53 45 0 
N 91 98 0 
N 17 7 0 
N 38 91 0 
N 12 3 0 
N 43 48 0 
N 54 55 0 
N 8 27 0 
N 27 39 0 
N 49 65 0 
N 10 33 0 
N 57 69 0 
N 17 16 0 
N 36 69 0 
N 69 25 0 
N 24 77 0 
N 66 19 0 
N 85 84 0 
N 47 46 0 
N 87 9 0 
N 89 3 0 
N 53 3 0 
N 37 19 0 
N 61 86 0 
N 61 3 0 
N 44 1 0 
N 26 79 0 
N 43 46 0 
N 17 64 0 
N 17 39 0 
N 88 45 0 
N 77 93 0 
N 5 55 0 
N 26 85 0 
N 17 96 0 
N 51 57 0 
N 59 7 0 
N 70 75 0 
N 9 45 0 
N 71 2 0 
N 21 87 0 
N 95 70 0 
N 36 53 0 
N 42 99 0 
N 13 30 0 
N 35 95 0 
N 35 75 0 
N 27 6 0 
N 69 41 0 
N 3 3 0 
N 50 19 0 
N 75 74 0 
N 9 15 0 
N 93 47 0 
N 28 67 0 
N 35 6 0 
N 66 3 0 
N 64 25 0 
N 98 3 0 
N 53 86 0 
N 16 45 0 
N 49 39 0 
N 85 3 0 
N 94 43 0 
N 67 21 0 
N 91 48 0 
N 48 33 0 
N 17 99 0 
N 13 92 0 
N 79 3 0 
N 80 63 0 
N 37 33 0 
N 23 34 0 
N 57 3 0 
N 83 39 0 
N 14 17 0 
N 16 93 0 
N 91 3 0 
N 50 93 0 
N 79 92 0 
N 59 84 0 
N 77 32 0 
N 63 80 0 
N 19 53 0 
N 95 56 0 
N 17 20 0 
N 49 27 0 
N 49 41 0 
N 35 3 0 
N 23 91 0 
N 49 56 0 
N 81 23 0 
N 61 37 0 
N 41 77 0 
N 35 30 0 
N 29 36 0 
N 1 43 0 
N 75 18 0 
N 51 48 0 
N 94 41 0 
N 99 45 0 
N 27 80 0 
N 68 9 0 
N 37 77 0 
N 61 26 0 
N 32 65 0 
N 42 7 0 
N 50 49 0 
N 93 15 0 
N 56 29 0 
N 77 92 0 
N 25 4 0 
N 5 81 0 
N 40 7 0 
N 33 72 0 
N 33 65 0 
N 56 55 0 
N 61 53 0 
N 34 19 0 
N 81 42 0 
N 13 29 0 
N 82 99 0 
N 93 75 0 
N 52 95 0 
N 76 27 0 
N 98 45 0 
N 5 28 0 
N 52 3 0 
N 59 29 0 
N 79 79 0 
N 57 78 0 
N 81 84 0 
N 5 64 0 
N 1 48 0 
N 33 61 0 
N 17 78 0 
N 82 35 0 
N 36 65 0 
N 80 69 0 
N 87 46 0 
N 49 37 0 
N 71 10 0 
N 59 4 0 
N 89 7 0 
N 12 43 0 
N 93 5 0 
N 55 53 0 
N 17 53 0 
N 21 35 0 
N 70 45 0 
N 93 41 0 
N 89 74 0 
N 93 36 0 
N 14 81 0 
N 50 63 0 
N 91 64 0 
N 77 12 0 
N 41 52 0 
N 18 61 0 
N 77 29 0 
N 7 19 0 
N 21 79 0 
N 31 21 0 
N 78 15 0 
N 33 64 0 
N 63 53 0 
N 95 52 0 
N 86 45 0 
N 1 12 0 
N 57 86 0 
N 79 67 0 
N 63 2 0 
N 16 63 0 
N 27 4 0 
N 18 71 0 
N 17 41 0 
N 20 25 0 
N 73 78 0 
N 73 75 0 
N 23 61 0 
N 19 65 0 
N 64 77 0 
N 89 77 0 
N 96 29 0 
N 62 17 0 
N 71 35 0 
N 67 31 0 
N 39 57 0 
N 95 60 0 
N 79 66 0 
N 8 3 0 
N 40 83 0 
N 64 37 0 
N 16 31 0 
N 17 89 0 
N 27 60 0 
N 13 15 0 
N 3 26 0 
N 83 64 0 
N 58 77 0 
N 19 68 0 
N 43 78 0 
N 8 13 0 
N 16 1 0 
N 38 15 0 
N 91 24 0 
N 45 50 0 
N 1 61 0 
N 28 87 0 
N 38 65 0 
N 35 5 0 
N 54 59 0 
N 90 41 0 
N 91 95 0 
N 70 31 0 
N 55 45 0 
N 79 28 0 
N 19 91 0 
N 95 25 0 
N 73 28 0 
N 83 15 0 
N 40 81 0 
N 53 17 0 
N 39 17 0 
N 29 28 0 
N 37 75 0 
N 51 43 0 
N 1 60 0 
N 65 15 0 
N 35 71 0 
N 93 63 0 
C 0 0 0 
C 2 0 0 
C 4 0 0 
C 6 0 0 
C 8 0 0 
C 10 0 0 
C 12 0 0 
C 14 0 0 
C 16 0 0 
C 18 0 0 
C 20 0 0 
C 22 0 0 
C 24 0 0 
C 26 0 0 
C 28 0 0 
C 30 0 0 
C 32 0 0 
C 34 0 0 
C 36 0 0 
C 38 0 0 
C 40 0 0 
C 42 0 0 
C 44 0 0 
C 46 0 0 
C 48 0 0 
C 50 0 0 
C 52 0 0 
C 54 0 0 
C 56 0 0 
C 58 0 0 
C 60 0 0 
C 62 0 0 
C 64 0 0 
C 66 0 0 
C 68 0 0 
C 70 0 0 
C 72 0 0 
C 74 0 0 
C 76 0 0 
C 78 0 0 
C 80 0 0 
C 82 0 0 
C 84 0 0 
C 86 0 0 
C 88 0 0 
C 90 0 0 
C 92 0 0 
C 94 0 0 
C 96 0 0 
C 98 0 0 
C 100 0 0 
C 0 2 0 
C 2 2 0 
C 4 2 0 
C 6 2 0 
C 8 2 0 
C 10 2 0 
C 12 2 0 
C 14 2 0 
C 16 2 0 
C 18 2 0 
C 20 2 0 
C 22 2 0 
C 24 2 0 
C 26 2 0 
C 28 2 0 
C 30 2 0 
C 32 2 0 
C 34 2 0 
C 36 2 0 
C 38 2 0 
C 40 2 0 
C 42 2 0 
C 44 2 0 
C 46 2 0 
C 48 2 0 
C 50 2 0 
C 52 2 0 
C 54 2 0 
C 56 2 0 
C 58 2 0 
C 60 2 0 
C 62 2 0 
C 64 2 0 
C 66 2 0 
C 68 2 0 
C 70 2 0 
C 72 2 0 
C 74 2 0 
C 76 2 0 
C 78 2 0 
C 80 2 0 
C 82 2 0 
C 84 2 0 
C 86 2 0 
C 88 2 0 
C 90 2 0 
C 92 2 0 
C 94 2 0 
C 96 2 0 
C 98 2 0 
C 100 2 0 
C 0 4 0 
C 2 4 0 
C 4 4 0 
C 6 4 0 
C 8 4 0 
C 10 4 0 
C 12 4 0 
C 14 4 0 
C 16 4 0 
C 18 4 0 
C 20 4 0 
C 22 4 0 
C 24 4 0 
C 26 4 0 
C 28 4 0 
C 30 4 0 
C 32 4 0 
C 34 4 0 
C 36 4 0 
C 38 4 0 
C 40 4 0 
C 42 4 0 
C 44 4 0 
C 46 4 0 
C 48 4 0 
C 50 4 0 
C 52 4 0 
C 54 4 0 
C 56 4 0 
C 58 4 0 
C 60 4 0 
C 62 4 0 
C 64 4 0 
C 66 4 0 
C 68 4 0 
C 70 4 0 
C 72 4 0 
C 74 4 0 
C 76 4 0 
C 78 4 0 
C 80 4 0 
C 82 4 0 
C 84 4 0 
C 86 4 0 
C 88 4 0 
C 90 4 0 
C 92 4 0 
C 94 4 0 
C 96 4 0 
C 98 4 0 
C 100 4 0 
C 0 6 0 
C 2 6 0 
C 4 6 0 
C 6 6 0 
C 8 6 0 
C 10 6 0 
C 12 6 0 
C 14 6 0 
C 16 6 0 
C 18 6 0 
C 20 6 0 
C 22 6 0 
C 24 6 0 
C 26 6 0 
C 28 6 0 
C 30 6 0 
C 32 6 0 
C 34 6 0 
C 36 6 0 
C 38 6 0 
C 40 6 0 
C 42 6 0 
C 44 6 0 
C 46 6 0 
C 48 6 0 
C 50 6 0 
C 52 6 0 
C 54 6 0 
C 56 6 0 
C 58 6 0 
C 60 6 0 
C 62 6 0 
C 64 6 0 
C 66 6 0 
C 68 6 0 
C 70 6 0 
C 72 6 0 
C 74 6 0 
C 76 6 0 
C 78 6 0 
C 80 6 0 
C 82 6 0 
C 84 6 0 
C 86 6 0 
C 88 6 0 
C 90 6 0 
C 92 6 0 
C 94 6 0 
C 96 6 0 
C 98 6 0 
C 100 6 0 
C 0 8 0 
C 2 8 0 
C 4 8 0 
C 6 8 0 
C 8 8 0 
C 10 8 0 
C 12 8 0 
C 14 8 0 
C 16 8 0 
C 18 8 0 
C 20 8 0 
C 22 8 0 
C 24 8 0 
C 26 8 0 
C 28 8 0 
C 30 8 0 
C 32 8 0 
C 34 8 0 
C 36 8 0 
C 38 8 0 
C 40 8 0 
C 42 8 0 
C 44 8 0 
C 46 8 0 
C 48 8 0 
C 50 8 0 
C 52 8 0 
C 54 8 0 
C 56 8 0 
C 58 8 0 
C 60 8 0 
C 62 8 0 
C 64 8 0 
C 66 8 0 
C 68 8 0 
C 70 8 0 
C 72 8 0 
C 74 8 0 
C 76 8 0 
C 78 8 0 
C 80 8 0 
C 82 8 0 
C 84 8 0 
C 86 8 0 
C 88 8 0 
C 90 8 0 
C 92 8 0 
C 94 8 0 
C 96 8 0 
C 98 8 0 
C 100 8 0 
C 0 10 0 
C 2 10 0 
C 4 10 0 
C 6 10 0 
C 8 10 0 
C 10 10 0 
C 12 10 0 
C 14 10 0 
C 16 10 0 
C 18 10 0 
C 20 10 0 
C 22 10 0 
C 24 10 0 
C 26 10 0 
C 28 10 0 
C 30 10 0 
C 32 10 0 
C 34 10 0 
C 36 10 0 
C 38 10 0 
C 40 10 0 
C 42 10 0 
C 44 10 0 
C 46 10 0 
C 48 10 0 
C 50 10 0 
C 52 10 0 
C 54 10 0 
C 56 10 0 
C 58 10 0 
C 60 10 0 
C 62 10 0 
C 64 10 0 
C 66 10 0 
C 68 10 0 
C 70 10 0 
C 72 10 0 
C 74 10 0 
C 76 10 0 
C 78 10 0 
C 80 10 0 
C 82 10 0 
C 84 10 0 
C 86 10 0 
C 88 10 0 
C 90 10 0 
C 92 10 0 
C 94 10 0 
C 96 10 0 
C 98 10 0 
C 100 10 0 
C 0 12 0 
C 2 12 0 
C 4 12 0 
C 6 12 0 
C 8 12 0 
C 10 12 0 
C 12 12 0 
C 14 12 0 
C 16 12 0 
C 18 12 0 
C 20 12 0 
C 22 12 0 
C 24 12 0 
C 26 12 0 
C 28 12 0 
C 30 12 0 
C 32 12 0 
C 34 12 0 
C 36 12 0 
C 38 12 0 
C 40 12 0 
C 42 12 0 
C 44 12 0 
C 46 12 0 
C 48 12 0 
C 50 12 0 
C 52 12 0 
C 54 12 0 
C 56 12 0 
C 58 12 0 
C 60 12 0 
C 62 12 0 
C 64 12 0 
C 66 12 0 
C 68 12 0 
C 70 12 0 
C 72 12 0 
C 74 12 0 
C 76 12 0 
C 78 12 0 
C 80 12 0 
C 82 12 0 
C 84 12 0 
C 86 12 0 
C 88 12 0 
C 90 12 0 
C 92 12 0 
C 94 12 0 
C 96 12 0 
C 98 12 0 
C 100 12 0 
C 0 14 0 
C 2 14 0 
C 4 14 0 
C 6 14 0 
C 8 14 0 
C 10 14 0 
C 12 14 0 
C 14 14 0 
C 16 14 0 
C 18 14 0 
C 20 14 0 
C 22 14 0 
C 24 14 0 
C 26 14 0 
C 28 14 0 
C 30 14 0 
C 32 14 0 
C 34 14 0 
C 36 14 0 
C 38 14 0 
C 40 14 0 
C 42 14 0 
C 44 14 0 
C 46 14 0 
C 48 14 0 
C 50 14 0 
C 52 14 0 
C 54 14 0 
C 56 14 0 
C 58 14 0 
C 60 14 0 
C 62 14 0 
C 64 14 0 
C 66 14 0 
C 68 14 0 
C 70 14 0 
C 72 14 0 
C 74 14 0 
C 76 14 0 
C 78 14 0 
C 80 14 0 
C 82 14 0 
C 84 14 0 
C 86 14 0 
C 88 14 0 
C 90 14 0 
C 92 14 0 
C 94 14 0 
C 96 14 0 
C 98 14 0 
C 100 14 0 
C 0 16 0 
C 2 16 0 
C 4 16 0 
C 6 16 0 
C 8 16 0 
C 10 16 0 
C 12 16 0 
C 14 16 0 
C 16 16 0 
C 18 16 0 
C 20 16 0 
C 22 16 0 
C 24 16 0 
C 26 16 0 
C 28 16 0 
C 30 16 0 
C 32 16 0 
C 34 16 0 
C 36 16 0 
C 38 16 0 
C 40 16 0 
C 42 16 0 
C 44 16 0 
C 46 16 0 
C 48 16 0 
C 50 16 0 
C 52 16 0 
C 54 16 0 
C 56 16 0 
C 58 16 0 
C 60 16 0 
C 62 16 0 
C 64 16 0 
C 66 16 0 
C 68 16 0 
C 70 16 0 
C 72 16 0 
C 74 16 0 
C 76 16 0 
C 78 16 0 
C 80 16 0 
C 82 16 0 
C 84 16 0 
C 86 16 0 
C 88 16 0 
C 90 16 0 
C 92 16 0 
C 94 16 0 
C 96 16 0 
C 98 16 0 
C 100 16 0 
C 0 18 0 
C 2 18 0 
C 4 18 0 
C 6 18 0 
C 8 18 0 
C 10 18 0 
C 12 18 0 
C 14 18 0 
C 16 18 0 
C 18 18 0 
C 20 18 0 
C 22 18 0 
C 24 18 0 
C 26 18 0 
C 28 18 0 
C 30 18 0 
C 32 18 0 
C 34 18 0 
C 36 18 0 
C 38 18 0 
C 40 18 0 
C 42 18 0 
C 44 18 0 
C 46 18 0 
C 48 18 0 
C 50 18 0 
C 52 18 0 
C 54 18 0 
C 56 18 0 
C 58 18 0 
C 60 18 0 
C 62 18 0 
C 64 18 0 
C 66 18 0 
C 68 18 0 
C 70 18 0 
C 72 18 0 
C 74 18 0 
C 76 18 0 
C 78 18 0 
C 80 18 0 
C 82 18 0 
C 84 18 0 
C 86 18 0 
C 88 18 0 
C 90 18 0 
C 92 18 0 
C 94 18 0 
C 96 18 0 
C 98 18 0 
C 100 18 0 
C 0 20 0 
C 2 20 0 
C 4 20 0 
C 6 20 0 
C 8 20 0 
C 10 20 0 
C 12 20 0 
C 14 20 0 
C 16 20 0 
C 18 20 0 
C 20 20 0 
C 22 20 0 
C 24 20 0 
C 26 20 0 
C 28 20 0 
C 30 20 0 
C 32 20 0 
C 34 20 0 
C 36 20 0 
C 38 20 0 
C 40 20 0 
C 42 20 0 
C 44 20 0 
C 46 20 0 
C 48 20 0 
C 50 20 0 
C 52 20 0 
C 54 20 0 
C 56 20 0 
C 58 20 0 
C 60 20 0 
C 62 20 0 
C 64 20 0 
C 66 20 0 
C 68 20 0 
C 70 20 0 
C 72 20 0 
C 74 20 0 
C 76 20 0 
C 78 20 0 
C 80 20 0 
C 82 20 0 
C 84 20 0 
C 86 20 0 
C 88 20 0 
C 90 20 0 
C 92 20 0 
C 94 20 0 
C 96 20 0 
C 98 20 0 
C 100 20 0 
C 0 22 0 
C 2 22 0 
C 4 22 0 
C 6 22 0 
C 8 22 0 
C 10 22 0 
C 12 22 0 
C 14 22 0 
C 16 22 0 
C 18 22 0 
C 20 22 0 
C 22 22 0 
C 24 22 0 
C 26 22 0 
C 28 22 0 
C 30 22 0 
C 32 22 0 
C 34 22 0 
C 36 22 0 
C 38 22 0 
C 40 22 0 
C 42 22 0 
C 44 22 0 
C 46 22 0 
C 48 22 0 
C 50 22 0 
C 52 22 0 
C 54 22 0 
C 56 22 0 
C 58 22 0 
C 60 22 0 
C 62 22 0 
C 64 22 0 
C 66 22 0 
C 68 22 0 
C 70 22 0 
C 72 22 0 
C 74 22 0 
C 76 22 0 
C 78 22 0 
C 80 22 0 
C 82 22 0 
C 84 22 0 
C 86 22 0 
C 88 22 0 
C 90 22 0 
C 92 22 0 
C 94 22 0 
C 96 22 0 
C 98 22 0 
C 100 22 0 
C 0 24 0 
C 2 24 0 
C 4 24 0 
C 6 24 0 
C 8 24 0 
C 10 24 0 
C 12 24 0 
C 14 24 0 
C 16 24 0 
C 18 24 0 
C 20 24 0 
C 22 24 0 
C 24 24 0 
C 26 24 0 
C 28 24 0 
C 30 24 0 
C 32 24 0 
C 34 24 0 
C 36 24 0 
C 38 24 0 
C 40 24 0 
C 42 24 0 
C 44 24 0 
C 46 24 0 
C 48 24 0 
C 50 24 0 
C 52 24 0 
C 54 24 0 
C 56 24 0 
C 58 24 0 
C 60 24 0 
C 62 24 0 
C 64 24 0 
C 66 24 0 
C 68 24 0 
C 70 24 0 
C 72 24 0 
C 74 24 0 
C 76 24 0 
C 78 24 0 
C 80 24 0 
C 82 24 0 
C 84 24 0 
C 86 24 0 
C 88 24 0 
C 90 24 0 
C 92 24 0 
C 94 24 0 
C 96 24 0 
C 98 24 0 
C 100 24 0 
C 0 26 0 
C 2 26 0 
C 4 26 0 
C 6 26 0 
C 8 26 0 
C 10 26 0 
C 12 26 0 
C 14 26 0 
C 16 26 0 
C 18 26 0 
C 20 26 0 
C 22 26 0 
C 24 26 0 
C 26 26 0 
C 28 26 0 
C 30 26 0 
C 32 26 0 
C 34 26 0 
C 36 26 0 
C 38 26 0 
C 40 26 0 
C 42 26 0 
C 44 26 0 
C 46 26 0 
C 48 26 0 
C 50 26 0 
C 52 26 0 
C 54 26 0 
C 56 26 0 
C 58 26 0 
C 60 26 0 
C 62 26 0 
C 64 26 0 
C 66 26 0 
C 68 26 0 
C 70 26 0 
C 72 26 0 
C 74 26 0 
C 76 26 0 
C 78 26 0 
C 80 26 0 
C 82 26 0 
C 84 26 0 
C 86 26 0 
C 88 26 0 
C 90 26 0 
C 92 26 0 
C 94 26 0 
C 96 26 0 
C 98 26 0 
C 100 26 0 
C 0 28 0 
C 2 28 0 
C 4 28 0 
C 6 28 0 
C 8 28 0 
C 10 28 0 
C 12 28 0 
C 14 28 0 
C 16 28 0 
C 18 28 0 
C 20 28 0 
C 22 28 0 
C 24 28 0 
C 26 28 0 
C 28 28 0 
C 30 28 0 
C 32 28 0 
C 34 28 0 
C 36 28 0 
C 38 28 0 
C 40 28 0 
C 42 28 0 
C 44 28 0 
C 46 28 0 
C 48 28 0 
C 50 28 0 
C 52 28 0 
C 54 28 0 
C 56 28 0 
C 58 28 0 
C 60 28 0 
C 62 28 0 
C 64 28 0 
C 66 28 0 
C 68 28 0 
C 70 28 0 
C 72 28 0 
C 74 28 0 
C 76 28 0 
C 78 28 0 
C 80 28 0 
C 82 28 0 
C 84 28 0 
C 86 28 0 
C 88 28 0 
C 90 28 0 
C 92 28 0 
C 94 28 0 
C 96 28 0 
C 98 28 0 
C 100 28 0 
C 0 30 0 
C 2 30 0 
C 4 30 0 
C 6 30 0 
C 8 30 0 
C 10 30 0 
C 12 30 0 
C 14 30 0 
C 16 30 0 
C 18 30 0 
C 20 30 0 
C 22 30 0 
C 24 30 0 
C 26 30 0 
C 28 30 0 
C 30 30 0 
C 32 30 0 
C 34 30 0 
C 36 30 0 
C 38 30 0 
C 40 30 0 
C 42 30 0 
C 44 30 0 
C 46 30 0 
C 48 30 0 
C 50 30 0 
C 52 30 0 
C 54 30 0 
C 56 30 0 
C 58 30 0 
C 60 30 0 
C 62 30 0 
C 64 30 0 
C 66 30 0 
C 68 30 0 
C 70 30 0 
C 72 30 0 
C 74 30 0 
C 76 30 0 
C 78 30 0 
C 80 30 0 
C 82 30 0 
C 84 30 0 
C 86 30 0 
C 88 30 0 
C 90 30 0 
C 92 30 0 
C 94 30 0 
C 96 30 0 
C 98 30 0 
C 100 30 0 
C 0 32 0 
C 2 32 0 
C 4 32 0 
C 6 32 0 
C 8 32 0 
C 10 32 0 
C 12 32 0 
C 14 32 0 
C 16 32 0 
C 18 32 0 
C 20 32 0 
C 22 32 0 
C 24 32 0 
C 26 32 0 
C 28 32 0 
C 30 32 0 
C 32 32 0 
C 34 32 0 
C 36 32 0 
C 38 32 0 
C 40 32 0 
C 42 32 0 
C 44 32 0 
C 46 32 0 
C 48 32 0 
C 50 32 0 
C 52 32 0 
C 54 32 0 
C 56 32 0 
C 58 32 0 
C 60 32 0 
C 62 32 0 
C 64 32 0 
C 66 32 0 
C 68 32 0 
C 70 32 0 
C 72 32 0 
C 74 32 0 
C 76 32 0 
C 78 32 0 
C 80 32 0 
C 82 32 0 
C 84 32 0 
C 86 32 0 
C 88 32 0 
C 90 32 0 
C 92 32 0 
C 94 32 0 
C 96 32 0 
C 98 32 0 
C 100 32 0 
C 0 34 0 
C 2 34 0 
C 4 34 0 
C 6 34 0 
C 8 34 0 
C 10 34 0 
C 12 34 0 
C 14 34 0 
C 16 34 0 
C 18 34 0 
C 20 34 0 
C 22 34 0 
C 24 34 0 
C 26 34 0 
C 28 34 0 
C 30 34 0 
C 32 34 0 
C 34 34 0 
C 36 34 0 
C 38 34 0 
C 40 34 0 
C 42 34 0 
C 44 34 0 
C 46 34 0 
C 48 34 0 
C 50 34 0 
C 52 34 0 
C 54 34 0 
C 56 34 0 
C 58 34 0 
C 60 34 0 
C 62 34 0 
C 64 34 0 
C 66 34 0 
C 68 34 0 
C 70 34 0 
C 72 34 0 
C 74 34 0 
C 76 34 0 
C 78 34 0 
C 80 34 0 
C 82 34 0 
C 84 34 0 
C 86 34 0 
C 88 34 0 
C 90 34 0 
C 92 34 0 
C 94 34 0 
C 96 34 0 
C 98 34 0 
C 100 34 0 
C 0 36 0 
C 2 36 0 
C 4 36 0 
C 6 36 0 
C 8 36 0 
C 10 36 0 
C 12 36 0 
C 14 36 0 
C 16 36 0 
C 18 36 0 
C 20 36 0 
C 22 36 0 
C 24 36 0 
C 26 36 0 
C 28 36 0 
C 30 36 0 
C 32 36 0 
C 34 36 0 
C 36 36 0 
C 38 36 0 
C 40 36 0 
C 42 36 0 
C 44 36 0 
C 46 36 0 
C 48 36 0 
C 50 36 0 
C 52 36 0 
C 54 36 0 
C 56 36 0 
C 58 36 0 
C 60 36 0 
C 62 36 0 
C 64 36 0 
C 66 36 0 
C 68 36 0 
C 70 36 0 
C 72 36 0 
C 74 36 0 
C 76 36 0 
C 78 36 0 
C 80 36 0 
C 82 36 0 
C 84 36 0 
C 86 36 0 
C 88 36 0 
C 90 36 0 
C 92 36 0 
C 94 36 0 
C 96 36 0 
C 98 36 0 
C 100 36 0 
C 0 38 0 
C 2 38 0 
C 4 38 0 
C 6 38 0 
C 8 38 0 
C 10 38 0 
C 12 38 0 
C 14 38 0 
C 16 38 0 
C 18 38 0 
C 20 38 0 
C 22 38 0 
C 24 38 0 
C 26 38 0 
C 28 38 0 
C 30 38 0 
C 32 38 0 
C 34 38 0 
C 36 38 0 
C 38 38 0 
C 40 38 0 
C 42 38 0 
C 44 38 0 
C 46 38 0 
C 48 38 0 
C 50 38 0 
C 52 38 0 
C 54 38 0 
C 56 38 0 
C 58 38 0 
C 60 38 0 
C 62 38 0 
C 64 38 0 
C 66 38 0 
C 68 38 0 
C 70 38 0 
C 72 38 0 
C 74 38 0 
C 76 38 0 
C 78 38 0 
C 80 38 0 
C 82 38 0 
C 84 38 0 
C 86 38 0 
C 88 38 0 
C 90 38 0 
C 92 38 0 
C 94 38 0 
C 96 38 0 
C 98 38 0 
C 100 38 0 
C 0 40 0 
C 2 40 0 
C 4 40 0 
C 6 40 0 
C 8 40 0 
C 10 40 0 
C 12 40 0 
C 14 40 0 
C 16 40 0 
C 18 40 0 
C 20 40 0 
C 22 40 0 
C 24 40 0 
C 26 40 0 
C 28 40 0 
C 30 40 0 
C 32 40 0 
C 34 40 0 
C 36 40 0 
C 38 40 0 
C 40 40 0 
C 42 40 0 
C 44 40 0 
C 46 40 0 
C 48 40 0 
C 50 40 0 
C 52 40 0 
C 54 40 0 
C 56 40 0 
C 58 40 0 
C 60 40 0 
C 62 40 0 
C 64 40 0 
C 66 40 0 
C 68 40 0 
C 70 40 0 
C 72 40 0 
C 74 40 0 
C 76 40 0 
C 78 40 0 
C 80 40 0 
C 82 40 0 
C 84 40 0 
C 86 40 0 
C 88 40 0 
C 90 40 0 
C 92 40 0 
C 94 40 0 
C 96 40 0 
C 98 40 0 
C 100 40 0 
C 0 42 0 
C 2 42 0 
C 4 42 0 
C 6 42 0 
C 8 42 0 
C 10 42 0 
C 12 42 0 
C 14 42 0 
C 16 42 0 
C 18 42 0 
C 20 42 0 
C 22 42 0 
C 24 42 0 
C 26 42 0 
C 28 42 0 
C 30 42 0 
C 32 42 0 
C 34 42 0 
C 36 42 0 
C 38 42 0 
C 40 42 0 
C 42 42 0 
C 44 42 0 
C 46 42 0 
C 48 42 0 
C 50 42 0 
C 52 42 0 
C 54 42 0 
C 56 42 0 
C 58 42 0 
C 60 42 0 
C 62 42 0 
C 64 42 0 
C 66 42 0 
C 68 42 0 
C 70 42 0 
C 72 42 0 
C 74 42 0 
C 76 42 0 
C 78 42 0 
C 80 42 0 
C 82 42 0 
C 84 42 0 
C 86 42 0 
C 88 42 0 
C 90 42 0 
C 92 42 0 
C 94 42 0 
C 96 42 0 
C 98 42 0 
C 100 42 0 
C 0 44 0 
C 2 44 0 
C 4 44 0 
C 6 44 0 
C 8 44 0 
C 10 44 0 
C 12 44 0 
C 14 44 0 
C 16 44 0 
C 18 44 0 
C 20 44 0 
C 22 44 0 
C 24 44 0 
C 26 44 0 
C 28 44 0 
C 30 44 0 
C 32 44 0 
C 34 44 0 
C 36 44 0 
C 38 44 0 
C 40 44 0 
C 42 44 0 
C 44 44 0 
C 46 44 0 
C 48 44 0 
C 50 44 0 
C 52 44 0 
C 54 44 0 
C 56 44 0 
C 58 44 0 
C 60 44 0 
C 62 44 0 
C 64 44 0 
C 66 44 0 
C 68 44 0 
C 70 44 0 
C 72 44 0 
C 74 44 0 
C 76 44 0 
C 78 44 0 
C 80 44 0 
C 82 44 0 
C 84 44 0 
C 86 44 0 
C 88 44 0 
C 90 44 0 
C 92 44 0 
C 94 44 0 
C 96 44 0 
C 98 44 0 
C 100 44 0 
C 0 46 0 
C 2 46 0 
C 4 46 0 
C 6 46 0 
C 8 46 0 
C 10 46 0 
C 12 46 0 
C 14 46 0 
C 16 46 0 
C 18 46 0 
C 20 46 0 
C 22 46 0 
C 24 46 0 
C 26 46 0 
C 28 46 0 
C 30 46 0 
C 32 46 0 
C 34 46 0 
C 36 46 0 
C 38 46 0 
C 40 46 0 
C 42 46 0 
C 44 46 0 
C 46 46 0 
C 48 46 0 
C 50 46 0 
C 52 46 0 
C 54 46 0 
C 56 46 0 
C 58 46 0 
C 60 46 0 
C 62 46 0 
C 64 46 0 
C 66 46 0 
C 68 46 0 
C 70 46 0 
C 72 46 0 
C 74 46 0 
C 76 46 0 
C 78 46 0 
C 80 46 0 
C 82 46 0 
C 84 46 0 
C 86 46 0 
C 88 46 0 
C 90 46 0 
C 92 46 0 
C 94 46 0 
C 96 46 0 
C 98 46 0 
C 100 46 0 
C 0 48 0 
C 2 48 0 
C 4 48 0 
C 6 48 0 
C 8 48 0 
C 10 48 0 
C 12 48 0 
C 14 48 0 
C 16 48 0 
C 18 48 0 
C 20 48 0 
C 22 48 0 
C 24 48 0 
C 26 48 0 
C 28 48 0 
C 30 48 0 
C 32 48 0 
C 34 48 0 
C 36 48 0 
C 38 48 0 
C 40 48 0 
C 42 48 0 
C 44 48 0 
C 46 48 0 
C 48 48 0 
C 50 48 0 
C 52 48 0 
C 54 48 0 
C 56 48 0 
C 58 48 0 
C 60 48 0 
C 62 48 0 
C 64 48 0 
C 66 48 0 
C 68 48 0 
C 70 48 0 
C 72 48 0 
C 74 48 0 
C 76 48 0 
C 78 48 0 
C 80 48 0 
C 82 48 0 
C 84 48 0 
C 86 48 0 
C 88 48 0 
C 90 48 0 
C 92 48 0 
C 94 48 0 
C 96 48 0 
C 98 48 0 
C 100 48 0 
C 0 50 0 
C 2 50 0 
C 4 50 0 
C 6 50 0 
C 8 50 0 
C 10 50 0 
C 12 50 0 
C 14 50 0 
C 16 50 0 
C 18 50 0 
C 20 50 0 
C 22 50 0 
C 24 50 0 
C 26 50 0 
C 28 50 0 
C 30 50 0 
C 32 50 0 
C 34 50 0 
C 36 50 0 
C 38 50 0 
C 40 50 0 
C 42 50 0 
C 44 50 0 
C 46 50 0 
C 48 50 0 
C 50 50 0 
C 52 50 0 
C 54 50 0 
C 56 50 0 
C 58 50 0 
C 60 50 0 
C 62 50 0 
C 64 50 0 
C 66 50 0 
C 68 50 0 
C 70 50 0 
C 72 50 0 
C 74 50 0 
C 76 50 0 
C 78 50 0 
C 80 50 0 
C 82 50 0 
C 84 50 0 
C 86 50 0 
C 88 50 0 
C 90 50 0 
C 92 50 0 
C 94 50 0 
C 96 50 0 
C 98 50 0 
C 100 50 0 
C 0 52 0 
C 2 52 0 
C 4 52 0 
C 6 52 0 
C 8 52 0 
C 10 52 0 
C 12 52 0 
C 14 52 0 
C 16 52 0 
C 18 52 0 
C 20 52 0 
C 22 52 0 
C 24 52 0 
C 26 52 0 
C 28 52 0 
C 30 52 0 
C 32 52 0 
C 34 52 0 
C 36 52 0 
C 38 52 0 
C 40 52 0 
C 42 52 0 
C 44 52 0 
C 46 52 0 
C 48 52 0 
C 50 52 0 
C 52 52 0 
C 54 52 0 
C 56 52 0 
C 58 52 0 
C 60 52 0 
C 62 52 0 
C 64 52 0 
C 66 52 0 
C 68 52 0 
C 70 52 0 
C 72 52 0 
C 74 52 0 
C 76 52 0 
C 78 52 0 
C 80 52 0 
C 82 52 0 
C 84 52 0 
C 86 52 0 
C 88 52 0 
C 90 52 0 
C 92 52 0 
C 94 52 0 
C 96 52 0 
C 98 52 0 
C 100 52 0 
C 0 54 0 
C 2 54 0 
C 4 54 0 
C 6 54 0 
C 8 54 0 
C 10 54 0 
C 12 54 0 
C 14 54 0 
C 16 54 0 
C 18 54 0 
C 20 54 0 
C 22 54 0 
C 24 54 0 
C 26 54 0 
C 28 54 0 
C 30 54 0 
C 32 54 0 
C 34 54 0 
C 36 54 0 
C 38 54 0 
C 40 54 0 
C 42 54 0 
C 44 54 0 
C 46 54 0 
C 48 54 0 
C 50 54 0 
C 52 54 0 
C 54 54 0 
C 56 54 0 
C 58 54 0 
C 60 54 0 
C 62 54 0 
C 64 54 0 
C 66 54 0 
C 68 54 0 
C 70 54 0 
C 72 54 0 
C 74 54 0 
C 76 54 0 
C 78 54 0 
C 80 54 0 
C 82 54 0 
C 84 54 0 
C 86 54 0 
C 88 54 0 
C 90 54 0 
C 92 54 0 
C 94 54 0 
C 96 54 0 
C 98 54 0 
C 100 54 0 
C 0 56 0 
C 2 56 0 
C 4 56 0 
C 6 56 0 
C 8 56 0 
C 10 56 0 
C 12 56 0 
C 14 56 0 
C 16 56 0 
C 18 56 0 
C 20 56 0 
C 22 56 0 
C 24 56 0 
C 26 56 0 
C 28 56 0 
C 30 56 0 
C 32 56 0 
C 34 56 0 
C 36 56 0 
C 38 56 0 
C 40 56 0 
C 42 56 0 
C 44 56 0 
C 46 56 0 
C 48 56 0 
C 50 56 0 
C 52 56 0 
C 54 56 0 
C 56 56 0 
C 58 56 0 
C 60 56 0 
C 62 56 0 
C 64 56 0 
C 66 56 0 
C 68 56 0 
C 70 56 0 
C 72 56 0 
C 74 56 0 
C 76 56 0 
C 78 56 0 
C 80 56 0 
C 82 56 0 
C 84 56 0 
C 86 56 0 
C 88 56 0 
C 90 56 0 
C 92 56 0 
C 94 56 0 
C 96 56 0 
C 98 56 0 
C 100 56 0 
C 0 58 0 
C 2 58 0 
C 4 58 0 
C 6 58 0 
C 8 58 0 
C 10 58 0 
C 12 58 0 
C 14 58 0 
C 16 58 0 
C 18 58 0 
C 20 58 0 
C 22 58 0 
C 24 58 0 
C 26 58 0 
C 28 58 0 
C 30 58 0 
C 32 58 0 
C 34 58 0 
C 36 58 0 
C 38 58 0 
C 40 58 0 
C 42 58 0 
C 44 58 0 
C 46 58 0 
C 48 58 0 
C 50 58 0 
C 52 58 0 
C 54 58 0 
C 56 58 0 
C 58 58 0 
C 60 58 0 
C 62 58 0 
C 64 58 0 
C 66 58 0 
C 68 58 0 
C 70 58 0 
C 72 58 0 
C 74 58 0 
C 76 58 0 
C 78 58 0 
C 80 58 0 
C 82 58 0 
C 84 58 0 
C 86 58 0 
C 88 58 0 
C 90 58 0 
C 92 58 0 
C 94 58 0 
C 96 58 0 
C 98 58 0 
C 100 58 0 
C 0 60 0 
C 2 60 0 
C 4 60 0 
C 6 60 0 
C 8 60 0 
C 10 60 0 
C 12 60 0 
C 14 60 0 
C 16 60 0 
C 18 60 0 
C 20 60 0 
C 22 60 0 
C 24 60 0 
C 26 60 0 
C 28 60 0 
C 30 60 0 
C 32 60 0 
C 34 60 0 
C 36 60 0 
C 38 60 0 
C 40 60 0 
C 42 60 0 
C 44 60 0 
C 46 60 0 
C 48 60 0 
C 50 60 0 
C 52 60 0 
C 54 60 0 
C 56 60 0 
C 58 60 0 
C 60 60 0 
C 62 60 0 
C 64 60 0 
C 66 60 0 
C 68 60 0 
C 70 60 0 
C 72 60 0 
C 74 60 0 
C 76 60 0 
C 78 60 0 
C 80 60 0 
C 82 60 0 
C 84 60 0 
C 86 60 0 
C 88 60 0 
C 90 60 0 
C 92 60 0 
C 94 60 0 
C 96 60 0 
C 98 60 0 
C 100 60 0 
C 0 62 0 
C 2 62 0 
C 4 62 0 
C 6 62 0 
C 8 62 0 
C 10 62 0 
C 12 62 0 
C 14 62 0 
C 16 62 0 
C 18 62 0 
C 20 62 0 
C 22 62 0 
C 24 62 0 
C 26 62 0 
C 28 62 0 
C 30 62 0 
C 32 62 0 
C 34 62 0 
C 36 62 0 
C 38 62 0 
C 40 62 0 
C 42 62 0 
C 44 62 0 
C 46 62 0 
C 48 62 0 
C 50 62 0 
C 52 62 0 
C 54 62 0 
C 56 62 0 
C 58 62 0 
C 60 62 0 
C 62 62 0 
C 64 62 0 
C 66 62 0 
C 68 62 0 
C 70 62 0 
C 72 62 0 
C 74 62 0 
C 76 62 0 
C 78 62 0 
C 80 62 0 
C 82 62 0 
C 84 62 0 
C 86 62 0 
C 88 62 0 
C 90 62 0 
C 92 62 0 
C 94 62 0 
C 96 62 0 
C 98 62 0 
C 100 62 0 
C 0 64 0 
C 2 64 0 
C 4 64 0 
C 6 64 0 
C 8 64 0 
C 10 64 0 
C 12 64 0 
C 14 64 0 
C 16 64 0 
C 18 64 0 
C 20 64 0 
C 22 64 0 
C 24 64 0 
C 26 64 0 
C 28 64 0 
C 30 64 0 
C 32 64 0 
C 34 64 0 
C 36 64 0 
C 38 64 0 
C 40 64 0 
C 42 64 0 
C 44 64 0 
C 46 64 0 
C 48 64 0 
C 50 64 0 
C 52 64 0 
C 54 64 0 
C 56 64 0 
C 58 64 0 
C 60 64 0 
C 62 64 0 
C 64 64 0 
C 66 64 0 
C 68 64 0 
C 70 64 0 
C 72 64 0 
C 74 64 0 
C 76 64 0 
C 78 64 0 
C 80 64 0 
C 82 64 0 
C 84 64 0 
C 86 64 0 
C 88 64 0 
C 90 64 0 
C 92 64 0 
C 94 64 0 
C 96 64 0 
C 98 64 0 
C 100 64 0 
C 0 66 0 
C 2 66 0 
C 4 66 0 
C 6 66 0 
C 8 66 0 
C 10 66 0 
C 12 66 0 
C 14 66 0 
C 16 66 0 
C 18 66 0 
C 20 66 0 
C 22 66 0 
C 24 66 0 
C 26 66 0 
C 28 66 0 
C 30 66 0 
C 32 66 0 
C 34 66 0 
C 36 66 0 
C 38 66 0 
C 40 66 0 
C 42 66 0 
C 44 66 0 
C 46 66 0 
C 48 66 0 
C 50 66 0 
C 52 66 0 
C 54 66 0 
C 56 66 0 
C 58 66 0 
C 60 66 0 
C 62 66 0 
C 64 66 0 
C 66 66 0 
C 68 66 0 
C 70 66 0 
C 72 66 0 
C 74 66 0 
C 76 66 0 
C 78 66 0 
C 80 66 0 
C 82 66 0 
C 84 66 0 
C 86 66 0 
C 88 66 0 
C 90 66 0 
C 92 66 0 
C 94 66 0 
C 96 66 0 
C 98 66 0 
C 100 66 0 
C 0 68 0 
C 2 68 0 
C 4 68 0 
C 6 68 0 
C 8 68 0 
C 10 68 0 
C 12 68 0 
C 14 68 0 
C 16 68 0 
C 18 68 0 
C 20 68 0 
C 22 68 0 
C 24 68 0 
C 26 68 0 
C 28 68 0 
C 30 68 0 
C 32 68 0 
C 34 68 0 
C 36 68 0 
C 38 68 0 
C 40 68 0 
C 42 68 0 
C 44 68 0 
C 46 68 0 
C 48 68 0 
C 50 68 0 
C 52 68 0 
C 54 68 0 
C 56 68 0 
C 58 68 0 
C 60 68 0 
C 62 68 0 
C 64 68 0 
C 66 68 0 
C 68 68 0 
C 70 68 0 
C 72 68 0 
C 74 68 0 
C 76 68 0 
C 78 68 0 
C 80 68 0 
C 82 68 0 
C 84 68 0 
C 86 68 0 
C 88 68 0 
C 90 68 0 
C 92 68 0 
C 94 68 0 
C 96 68 0 
C 98 68 0 
C 100 68 0 
C 0 70 0 
C 2 70 0 
C 4 70 0 
C 6 70 0 
C 8 70 0 
C 10 70 0 
C 12 70 0 
C 14 70 0 
C 16 70 0 
C 18 70 0 
C 20 70 0 
C 22 70 0 
C 24 70 0 
C 26 70 0 
C 28 70 0 
C 30 70 0 
C 32 70 0 
C 34 70 0 
C 36 70 0 
C 38 70 0 
C 40 70 0 
C 42 70 0 
C 44 70 0 
C 46 70 0 
C 48 70 0 
C 50 70 0 
C 52 70 0 
C 54 70 0 
C 56 70 0 
C 58 70 0 
C 60 70 0 
C 62 70 0 
C 64 70 0 
C 66 70 0 
C 68 70 0 
C 70 70 0 
C 72 70 0 
C 74 70 0 
C 76 70 0 
C 78 70 0 
C 80 70 0 
C 82 70 0 
C 84 70 0 
C 86 70 0 
C 88 70 0 
C 90 70 0 
C 92 70 0 
C 94 70 0 
C 96 70 0 
C 98 70 0 
C 100 70 0 
C 0 72 0 
C 2 72 0 
C 4 72 0 
C 6 72 0 
C 8 72 0 
C 10 72 0 
C 12 72 0 
C 14 72 0 
C 16 72 0 
C 18 72 0 
C 20 72 0 
C 22 72 0 
C 24 72 0 
C 26 72 0 
C 28 72 0 
C 30 72 0 
C 32 72 0 
C 34 72 0 
C 36 72 0 
C 38 72 0 
C 40 72 0 
C 42 72 0 
C 44 72 0 
C 46 72 0 
C 48 72 0 
C 50 72 0 
C 52 72 0 
C 54 72 0 
C 56 72 0 
C 58 72 0 
C 60 72 0 
C 62 72 0 
C 64 72 0 
C 66 72 0 
C 68 72 0 
C 70 72 0 
C 72 72 0 
C 74 72 0 
C 76 72 0 
C 78 72 0 
C 80 72 0 
C 82 72 0 
C 84 72 0 
C 86 72 0 
C 88 72 0 
C 90 72 0 
C 92 72 0 
C 94 72 0 
C 96 72 0 
C 98 72 0 
C 100 72 0 
C 0 74 0 
C 2 74 0 
C 4 74 0 
C 6 74 0 
C 8 74 0 
C 10 74 0 
C 12 74 0 
C 14 74 0 
C 16 74 0 
C 18 74 0 
C 20 74 0 
C 22 74 0 
C 24 74 0 
C 26 74 0 
C 28 74 0 
C 30 74 0 
C 32 74 0 
C 34 74 0 
C 36 74 0 
C 38 74 0 
C 40 74 0 
C 42 74 0 
C 44 74 0 
C 46 74 0 
C 48 74 0 
C 50 74 0 
C 52 74 0 
C 54 74 0 
C 56 74 0 
C 58 74 0 
C 60 74 0 
C 62 74 0 
C 64 74 0 
C 66 74 0 
C 68 74 0 
C 70 74 0 
C 72 74 0 
C 74 74 0 
C 76 74 0 
C 78 74 0 
C 80 74 0 
C 82 74 0 
C 84 74 0 
C 86 74 0 
C 88 74 0 
C 90 74 0 
C 92 74 0 
C 94 74 0 
C 96 74 0 
C 98 74 0 
C 100 74 0 
C 0 76 0 
C 2 76 0 
C 4 76 0 
C 6 76 0 
C 8 76 0 
C 10 76 0 
C 12 76 0 
C 14 76 0 
C 16 76 0 
C 18 76 0 
C 20 76 0 
C 22 76 0 
C 24 76 0 
C 26 76 0 
C 28 76 0 
C 30 76 0 
C 32 76 0 
C 34 76 0 
C 36 76 0 
C 38 76 0 
C 40 76 0 
C 42 76 0 
C 44 76 0 
C 46 76 0 
C 48 76 0 
C 50 76 0 
C 52 76 0 
C 54 76 0 
C 56 76 0 
C 58 76 0 
C 60 76 0 
C 62 76 0 
C 64 76 0 
C 66 76 0 
C 68 76 0 
C 70 76 0 
C 72 76 0 
C 74 76 0 
C 76 76 0 
C 78 76 0 
C 80 76 0 
C 82 76 0 
C 84 76 0 
C 86 76 0 
C 88 76 0 
C 90 76 0 
C 92 76 0 
C 94 76 0 
C 96 76 0 
C 98 76 0 
C 100 76 0 
C 0 78 0 
C 2 78 0 
C 4 78 0 
C 6 78 0 
C 8 78 0 
C 10 78 0 
C 12 78 0 
C 14 78 0 
C 16 78 0 
C 18 78 0 
C 20 78 0 
C 22 78 0 
C 24 78 0 
C 26 78 0 
C 28 78 0 
C 30 78 0 
C 32 78 0 
C 34 78 0 
C 36 78 0 
C 38 78 0 
C 40 78 0 
C 42 78 0 
C 44 78 0 
C 46 78 0 
C 48 78 0 
C 50 78 0 
C 52 78 0 
C 54 78 0 
C 56 78 0 
C 58 78 0 
C 60 78 0 
C 62 78 0 
C 64 78 0 
C 66 78 0 
C 68 78 0 
C 70 78 0 
C 72 78 0 
C 74 78 0 
C 76 78 0 
C 78 78 0 
C 80 78 0 
C 82 78 0 
C 84 78 0 
C 86 78 0 
C 88 78 0 
C 90 78 0 
C 92 78 0 
C 94 78 0 
C 96 78 0 
C 98 78 0 
C 100 78 0 
C 0 80 0 
C 2 80 0 
C 4 80 0 
C 6 80 0 
C 8 80 0 
C 10 80 0 
C 12 80 0 
C 14 80 0 
C 16 80 0 
C 18 80 0 
C 20 80 0 
C 22 80 0 
C 24 80 0 
C 26 80 0 
C 28 80 0 
C 30 80 0 
C 32 80 0 
C 34 80 0 
C 36 80 0 
C 38 80 0 
C 40 80 0 
C 42 80 0 
C 44 80 0 
C 46 80 0 
C 48 80 0 
C 50 80 0 
C 52 80 0 
C 54 80 0 
C 56 80 0 
C 58 80 0 
C 60 80 0 
C 62 80 0 
C 64 80 0 
C 66 80 0 
C 68 80 0 
C 70 80 0 
C 72 80 0 
C 74 80 0 
C 76 80 0 
C 78 80 0 
C 80 80 0 
C 82 80 0 
C 84 80 0 
C 86 80 0 
C 88 80 0 
C 90 80 0 
C 92 80 0 
C 94 80 0 
C 96 80 0 
C 98 80 0 
C 100 80 0 
C 0 82 0 
C 2 82 0 
C 4 82 0 
C 6 82 0 
C 8 82 0 
C 10 82 0 
C 12 82 0 
C 14 82 0 
C 16 82 0 
C 18 82 0 
C 20 82 0 
C 22 82 0 
C 24 82 0 
C 26 82 0 
C 28 82 0 
C 30 82 0 
C 32 82 0 
C 34 82 0 
C 36 82 0 
C 38 82 0 
C 40 82 0 
C 42 82 0 
C 44 82 0 
C 46 82 0 
C 48 82 0 
C 50 82 0 
C 52 82 0 
C 54 82 0 
C 56 82 0 
C 58 82 0 
C 60 82 0 
C 62 82 0 
C 64 82 0 
C 66 82 0 
C 68 82 0 
C 70 82 0 
C 72 82 0 
C 74 82 0 
C 76 82 0 
C 78 82 0 
C 80 82 0 
C 82 82 0 
C 84 82 0 
C 86 82 0 
C 88 82 0 
C 90 82 0 
C 92 82 0 
C 94 82 0 
C 96 82 0 
C 98 82 0 
C 100 82 0 
C 0 84 0 
C 2 84 0 
C 4 84 0 
C 6 84 0 
C 8 84 0 
C 10 84 0 
C 12 84 0 
C 14 84 0 
C 16 84 0 
C 18 84 0 
C 20 84 0 
C 22 84 0 
C 24 84 0 
C 26 84 0 
C 28 84 0 
C 30 84 0 
C 32 84 0 
C 34 84 0 
C 36 84 0 
C 38 84 0 
C 40 84 0 
C 42 84 0 
C 44 84 0 
C 46 84 0 
C 48 84 0 
C 50 84 0 
C 52 84 0 
C 54 84 0 
C 56 84 0 
C 58 84 0 
C 60 84 0 
C 62 84 0 
C 64 84 0 
C 66 84 0 
C 68 84 0 
C 70 84 0 
C 72 84 0 
C 74 84 0 
C 76 84 0 
C 78 84 0 
C 80 84 0 
C 82 84 0 
C 84 84 0 
C 86 84 0 
C 88 84 0 
C 90 84 0 
C 92 84 0 
C 94 84 0 
C 96 84 0 
C 98 84 0 
C 100 84 0 
C 0 86 0 
C 2 86 0 
C 4 86 0 
C 6 86 0 
C 8 86 0 
C 10 86 0 
C 12 86 0 
C 14 86 0 
C 16 86 0 
C 18 86 0 
C 20 86 0 
C 22 86 0 
C 24 86 0 
C 26 86 0 
C 28 86 0 
C 30 86 0 
C 32 86 0 
C 34 86 0 
C 36 86 0 
C 38 86 0 
C 40 86 0 
C 42 86 0 
C 44 86 0 
C 46 86 0 
C 48 86 0 
C 50 86 0 
C 52 86 0 
C 54 86 0 
C 56 86 0 
C 58 86 0 
C 60 86 0 
C 62 86 0 
C 64 86 0 
C 66 86 0 
C 68 86 0 
C 70 86 0 
C 72 86 0 
C 74 86 0 
C 76 86 0 
C 78 86 0 
C 80 86 0 
C 82 86 0 
C 84 86 0 
C 86 86 0 
C 88 86 0 
C 90 86 0 
C 92 86 0 
C 94 86 0 
C 96 86 0 
C 98 86 0 
C 100 86 0 
C 0 88 0 
C 2 88 0 
C 4 88 0 
C 6 88 0 
C 8 88 0 
C 10 88 0 
C 12 88 0 
C 14 88 0 
C 16 88 0 
C 18 88 0 
C 20 88 0 
C 22 88 0 
C 24 88 0 
C 26 88 0 
C 28 88 0 
C 30 88 0 
C 32 88 0 
C 34 88 0 
C 36 88 0 
C 38 88 0 
C 40 88 0 
C 42 88 0 
C 44 88 0 
C 46 88 0 
C 48 88 0 
C 50 88 0 
C 52 88 0 
C 54 88 0 
C 56 88 0 
C 58 88 0 
C 60 88 0 
C 62 88 0 
C 64 88 0 
C 66 88 0 
C 68 88 0 
C 70 88 0 
C 72 88 0 
C 74 88 0 
C 76 88 0 
C 78 88 0 
C 80 88 0 
C 82 88 0 
C 84 88 0 
C 86 88 0 
C 88 88 0 
C 90 88 0 
C 92 88 0 
C 94 88 0 
C 96 88 0 
C 98 88 0 
C 100 88 0 
C 0 90 0 
C 2 90 0 
C 4 90 0 
C 6 90 0 
C 8 90 0 
C 10 90 0 
C 12 90 0 
C 14 90 0 
C 16 90 0 
C 18 90 0 
C 20 90 0 
C 22 90 0 
C 24 90 0 
C 26 90 0 
C 28 90 0 
C 30 90 0 
C 32 90 0 
C 34 90 0 
C 36 90 0 
C 38 90 0 
C 40 90 0 
C 42 90 0 
C 44 90 0 
C 46 90 0 
C 48 90 0 
C 50 90 0 
C 52 90 0 
C 54 90 0 
C 56 90 0 
C 58 90 0 
C 60 90 0 
C 62 90 0 
C 64 90 0 
C 66 90 0 
C 68 90 0 
C 70 90 0 
C 72 90 0 
C 74 90 0 
C 76 90 0 
C 78 90 0 
C 80 90 0 
C 82 90 0 
C 84 90 0 
C 86 90 0 
C 88 90 0 
C 90 90 0 
C 92 90 0 
C 94 90 0 
C 96 90 0 
C 98 90 0 
C 100 90 0 
C 0 92 0 
C 2 92 0 
C 4 92 0 
C 6 92 0 
C 8 92 0 
C 10 92 0 
C 12 92 0 
C 14 92 0 
C 16 92 0 
C 18 92 0 
C 20 92 0 
C 22 92 0 
C 24 92 0 
C 26 92 0 
C 28 92 0 
C 30 92 0 
C 32 92 0 
C 34 92 0 
C 36 92 0 
C 38 92 0 
C 40 92 0 
C 42 92 0 
C 44 92 0 
C 46 92 0 
C 48 92 0 
C 50 92 0 
C 52 92 0 
C 54 92 0 
C 56 92 0 
C 58 92 0 
C 60 92 0 
C 62 92 0 
C 64 92 0 
C 66 92 0 
C 68 92 0 
C 70 92 0 
C 72 92 0 
C 74 92 0 
C 76 92 0 
C 78 92 0 
C 80 92 0 
C 82 92 0 
C 84 92 0 
C 86 92 0 
C 88 92 0 
C 90 92 0 
C 92 92 0 
C 94 92 0 
C 96 92 0 
C 98 92 0 
C 100 92 0 
C 0 94 0 
C 2 94 0 
C 4 94 0 
C 6 94 0 
C 8 94 0 
C 10 94 0 
C 12 94 0 
C 14 94 0 
C 16 94 0 
C 18 94 0 
C 20 94 0 
C 22 94 0 
C 24 94 0 
C 26 94 0 
C 28 94 0 
C 30 94 0 
C 32 94 0 
C 34 94 0 
C 36 94 0 
C 38 94 0 
C 40 94 0 
C 42 94 0 
C 44 94 0 
C 46 94 0 
C 48 94 0 
C 50 94 0 
C 52 94 0 
C 54 94 0 
C 56 94 0 
C 58 94 0 
C 60 94 0 
C 62 94 0 
C 64 94 0 
C 66 94 0 
C 68 94 0 
C 70 94 0 
C 72 94 0 
C 74 94 0 
C 76 94 0 
C 78 94 0 
C 80 94 0 
C 82 94 0 
C 84 94 0 
C 86 94 0 
C 88 94 0 
C 90 94 0 
C 92 94 0 
C 94 94 0 
C 96 94 0 
C 98 94 0 
C 100 94 0 
C 0 96 0 
C 2 96 0 
C 4 96 0 
C 6 96 0 
C 8 96 0 
C 10 96 0 
C 12 96 0 
C 14 96 0 
C 16 96 0 
C 18 96 0 
C 20 96 0 
C 22 96 0 
C 24 96 0 
C 26 96 0 
C 28 96 0 
C 30 96 0 
C 32 96 0 
C 34 96 0 
C 36 96 0 
C 38 96 0 
C 40 96 0 
C 42 96 0 
C 44 96 0 
C 46 96 0 
C 48 96 0 
C 50 96 0 
C 52 96 0 
C 54 96 0 
C 56 96 0 
C 58 96 0 
C 60 96 0 
C 62 96 0 
C 64 96 0 
C 66 96 0 
C 68 96 0 
C 70 96 0 
C 72 96 0 
C 74 96 0 
C 76 96 0 
C 78 96 0 
C 80 96 0 
C 82 96 0 
C 84 96 0 
C 86 96 0 
C 88 96 0 
C 90 96 0 
C 92 96 0 
C 94 96 0 
C 96 96 0 
C 98 96 0 
C 100 96 0 
C 0 98 0 
C 2 98 0 
C 4 98 0 
C 6 98 0 
C 8 98 0 
C 10 98 0 
C 12 98 0 
C 14 98 0 
C 16 98 0 
C 18 98 0 
C 20 98 0 
C 22 98 0 
C 24 98 0 
C 26 98 0 
C 28 98 0 
C 30 98 0 
C 32 98 0 
C 34 98 0 
C 36 98 0 
C 38 98 0 
C 40 98 0 
C 42 98 0 
C 44 98 0 
C 46 98 0 
C 48 98 0 
C 50 98 0 
C 52 98 0 
C 54 98 0 
C 56 98 0 
C 58 98 0 
C 60 98 0 
C 62 98 0 
C 64 98 0 
C 66 98 0 
C 68 98 0 
C 70 98 0 
C 72 98 0 
C 74 98 0 
C 76 98 0 
C 78 98 0 
C 80 98 0 
C 82 98 0 
C 84 98 0 
C 86 98 0 
C 88 98 0 
C 90 98 0 
C 92 98 0 
C 94 98 0 
C 96 98 0 
C 98 98 0 
C 100 98 0 
C 0 100 0 
C 2 100 0 
C 4 100 0 
C 6 100 0 
C 8 100 0 
C 10 100 0 
C 12 100 0 
C 14 100 0 
C 16 100 0 
C 18 100 0 
C 20 100 0 
C 22 100 0 
C 24 100 0 
C 26 100 0 
C 28 100 0 
C 30 100 0 
C 32 100 0 
C 34 100 0 
C 36 100 0 
C 38 100 0 
C 40 100 0 
C 42 100 0 
C 44 100 0 
C 46 100 0 
C 48 100 0 
C 50 100 0 
C 52 100 0 
C 54 100 0 
C 56 100 0 
C 58 100 0 
C 60 100 0 
C 62 100 0 
C 64 100 0 
C 66 100 0 
C 68 100 0 
C 70 100 0 
C 72 100 0 
C 74 100 0 
C 76 100 0 
C 78 100 0 
C 80 100 0 
C 82 100 0 
C 84 100 0 
C 86 100 0 
C 88 100 0 
C 90 100 0 
C 92 100 0 
C 94 100 0 
C 96 100 0 
C 98 100 0 
C 100 100 0 
O 16 17 0 
O 79 64 0 
O 14 15 0 
O 48 59 0 
3104
Atoms. Timestep: 5
N 89 17 0 
N 27 56 0 
N 17 70 0 
N 53 94 0 
N 31 18 0 
N 61 25 0 
N 85 64 0 
N 7 53 0 
N 11 49 0 
N 49 33 0 
N 17 4 0 
N 61 33 0 
N 59 12 0 
N 79 76 0 
N 51 84 0 
N 51 59 0 
N 41 71 0 
N 7 87 0 
N 7 15 0 
N 87 24 0 
N 17 33 0 
N 73 13 0 
N 19 26 0 
N 49 71 0 
N 57 97 0 
N 15 85 0 
N 93 9 0 
N 57 99 0 
N 5 39 0 
N 33 51 0 
N 75 33 0 
N 59 17 0 
N 29 63 0 
N 3 44 0 
N 26 17 0 
N 81 52 0 
N 93 67 0 
N 62 3 0 
N 63 85 0 
N 93 3 0 
N 47 13 0 
N 26 95 0 
N 89 29 0 
N 31 62 0 
N 53 49 0 
N 58 21 0 
N 58 77 0 
N 50 41 0 
N 89 77 0 
N 24 15 0 
N 55 23 0 
N 39 43 0 
N 13 21 0 
N 19 32 0 
N 96 71 0 
N 15 77 0 
N 53 61 0 
N 85 11 0 
N 4 17 0 
N 71 67 0 
N 99 63 0 
N 73 97 0 
N 11 31 0 
N 77 79 0 
N 63 13 0 
N 10 55 0 
N 77 63 0 
N 85 33 0 
N 38 19 0 
N 69 33 0 
N 39 21 0 
N 13 95 0 
N 5 44 0 
N 17 73 0 
N 39 77 0 
N 29 21 0 
N 54 85 0 
N 13 33 0 
N 29 53 0 
N 69 11 0 
N 67 46 0 
N 92 23 0 
N 79 94 0 
N 91 46 0 
N 5 37 0 
N 9 25 0 
N 35 66 0 
N 3 73 0 
N 23 24 0 
N 82 81 0 
N 62 79 0 
N 94 91 0 
N 17 18 0 
N 89 59 0 
N 91 5 0 
N 65 3 0 
N 73 55 0 
N 93 15 0 
N 67 65 0 
N 14 31 0 
N 49 61 0 
N 59 95 0 
N 49 41 0 
N 91 13 0 
N 91 95 0 
N 52 91 0 
N 74 63 0 
N 69 47 0 
N 26 89 0 
N 21 73 0 
N 28 45 0 
N 78 63 0 
N 17 76 0 
N 78 13 0 
N 48 67 0 
N 49 51 0 
N 20 55 0 
N 1 71 0 
N 71 93 0 
N 18 97 0 
N 29 30 0 
N 59 79 0 
N 43 25 0 
N 55 59 0 
N 16 27 0 
N 77 7 0 
N 5 70 0 
N 5 6 0 
N 29 17 0 
N 93 81 0 
N 5 84 0 
N 70 43 0 
N 15 36 0 
N 65 92 0 
N 17 13 0 
N 15 75 0 
N 31 59 0 
N 85 44 0 
N 97 44 0 
N 85 22 0 
N 13 41 0 
N 76 75 0 
N 75 3 0 
N 55 7 0 
N 79 86 0 
N 49 91 0 
N 99 53 0 
N 45 59 0 
N 96 77 0 
N 59 90 0 
N 95 43 0 
N 85 70 0 
N 18 35 0 
N 12 93 0 
N 51 67 0 
N 17 81 0 
N 98 79 0 
N 7 69 0 
N 11 3 0 
N 16 37 0 
N 85 39 0 
N 45 57 0 
N 91 42 0 
N 19 3 0 
N 35 85 0 
N 35 75 0 
N 65 13 0 
N 87 87 0 
N 97 19 0 
N 49 66 0 
N 14 97 0 
N 79 37 0 
N 21 36 0 
N 19 17 0 
N 71 31 0 
N 43 91 0 
N 90 63 0 
N 49 1 0 
N 79 73 0 
N 79 83 0 
N 73 36 0 
N 19 7 0 
N 81 53 0 
N 48 57 0 
N 5 69 0 
N 9 65 0 
N 94 53 0 
N 65 78 0 
N 89 68 0 
N 22 17 0 
N 17 69 0 
N 4 91 0 
N 70 65 0 
N 17 80 0 
N 55 65 0 
N 95 21 0 
N 67 71 0 
N 92 21 0 
N 48 39 0 
N 97 36 0 
N 79 10 0 
N 62 87 0 
N 65 33 0 
N 47 99 0 
N 61 5 0 
N 35 65 0 
N 73 31 0 
N 55 43 0 
N 89 83 0 
N 92 57 0 
N 26 59 0 
N 27 63 0 
N 17 6 0 
N 95 20 0 
N 28 17 0 
N 13 72 0 
N 62 67 0 
N 53 63 0 
N 91 77 0 
N 23 85 0 
N 1 57 0 
N 85 27 0 
N 97 68 0 
N 57 31 0 
N 28 47 0 
N 95 81 0 
N 75 41 0 
N 89 51 0 
N 79 27 0 
N 95 71 0 
N 81 81 0 
N 55 51 0 
N 39 20 0 
N 83 74 0 
N 63 59 0 
N 81 60 0 
N 24 31 0 
N 70 83 0 
N 11 39 0 
N 27 14 0 
N 75 59 0 
N 21 65 0 
N 90 53 0 
N 11 21 0 
N 51 53 0 
N 18 3 0 
N 25 14 0 
N 25 63 0 
N 21 63 0 
N 15 15 0 
N 79 93 0 
N 50 59 0 
N 41 84 0 
N 22 23 0 
N 17 29 0 
N 17 24 0 
N 81 46 0 
N 55 39 0 
N 52 27 0 
N 17 79 0 
N 19 63 0 
N 3 35 0 
N 95 45 0 
N 15 29 0 
N 45 77 0 
N 95 87 0 
N 53 43 0 
N 77 45 0 
N 87 67 0 
N 53 46 0 
N 91 97 0 
N 17 8 0 
N 39 91 0 
N 13 3 0 
N 43 49 0 
N 53 55 0 
N 9 27 0 
N 27 38 0 
N 50 65 0 
N 11 33 0 
N 57 68 0 
N 17 17 0 
N 37 69 0 
N 69 26 0 
N 25 77 0 
N 65 19 0 
N 85 83 0 
N 47 47 0 
N 87 10 0 
N 89 4 0 
N 53 4 0 
N 37 18 0 
N 61 85 0 
N 61 2 0 
N 43 1 0 
N 26 79 0 
N 43 47 0 
N 17 64 0 
N 17 38 0 
N 87 45 0 
N 78 93 0 
N 6 55 0 
N 25 85 0 
N 17 95 0 
N 51 58 0 
N 59 8 0 
N 71 75 0 
N 10 45 0 
N 71 3 0 
N 20 87 0 
N 95 69 0 
N 37 53 0 
N 41 99 0 
N 13 29 0 
N 35 94 0 
N 35 74 0 
N 27 7 0 
N 69 42 0 
N 3 4 0 
N 49 19 0 
N 75 73 0 
N 9 14 0 
N 92 47 0 
N 29 67 0 
N 35 7 0 
N 67 3 0 
N 63 25 0 
N 97 3 0 
N 53 85 0 
N 16 45 0 
N 49 40 0 
N 84 3 0 
N 93 43 0 
N 67 22 0 
N 91 49 0 
N 48 33 0 
N 16 99 0 
N 13 91 0 
N 79 4 0 
N 79 63 0 
N 37 32 0 
N 23 33 0 
N 57 2 0 
N 82 39 0 
N 15 17 0 
N 16 93 0 
N 90 3 0 
N 49 93 0 
N 79 91 0 
N 59 83 0 
N 77 33 0 
N 63 79 0 
N 20 53 0 
N 95 55 0 
N 17 19 0 
N 49 28 0 
N 49 42 0 
N 34 3 0 
N 23 90 0 
N 49 57 0 
N 80 23 0 
N 60 37 0 
N 41 76 0 
N 35 29 0 
N 29 35 0 
N 1 42 0 
N 75 17 0 
N 51 49 0 
N 95 41 0 
N 98 45 0 
N 27 79 0 
N 67 9 0 
N 37 76 0 
N 61 27 0 
N 33 65 0 
N 41 7 0 
N 49 49 0 
N 92 15 0 
N 55 29 0 
N 77 91 0 
N 25 5 0 
N 5 80 0 
N 39 7 0 
N 33 71 0 
N 33 64 0 
N 55 55 0 
N 61 54 0 
N 33 19 0 
N 81 43 0 
N 13 28 0 
N 81 99 0 
N 92 75 0 
N 51 95 0 
N 77 27 0 
N 97 45 0 
N 5 27 0 
N 51 3 0 
N 59 30 0 
N 79 78 0 
N 57 78 0 
N 81 83 0 
N 5 64 0 
N 1 49 0 
N 34 61 0 
N 17 78 0 
N 81 35 0 
N 37 65 0 
N 79 69 0 
N 87 47 0 
N 49 38 0 
N 71 9 0 
N 59 5 0 
N 88 7 0 
N 13 43 0 
N 92 5 0 
N 54 53 0 
N 16 53 0 
N 21 34 0 
N 71 45 0 
N 93 42 0 
N 89 73 0 
N 93 35 0 
N 15 81 0 
N 49 63 0 
N 91 64 0 
N 77 13 0 
N 41 53 0 
N 19 61 0 
N 78 29 0 
N 8 19 0 
N 20 79 0 
N 31 20 0 
N 77 15 0 
N 33 63 0 
N 63 54 0 
N 95 52 0 
N 85 45 0 
N 1 13 0 
N 57 85 0 
N 79 66 0 
N 63 1 0 
N 17 63 0 
N 27 5 0 
N 19 71 0 
N 17 40 0 
N 19 25 0 
N 73 77 0 
N 73 74 0 
N 23 60 0 
N 19 64 0 
N 65 77 0 
N 88 77 0 
N 95 29 0 
N 61 17 0 
N 72 35 0 
N 67 32 0 
N 39 56 0 
N 95 61 0 
N 79 65 0 
N 9 3 0 
N 41 83 0 
N 63 37 0 
N 16 31 0 
N 16 89 0 
N 27 59 0 
N 14 15 0 
N 3 25 0 
N 83 64 0 
N 57 77 0 
N 19 67 0 
N 43 77 0 
N 9 13 0 
N 16 1 0 
N 37 15 0 
N 91 23 0 
N 45 51 0 
N 1 62 0 
N 27 87 0 
N 39 65 0 
N 34 5 0 
N 53 59 0 
N 89 41 0 
N 90 95 0 
N 69 31 0 
N 54 45 0 
N 79 29 0 
N 19 90 0 
N 94 25 0 
N 73 29 0 
N 82 15 0 
N 41 81 0 
N 52 17 0 
N 38 17 0 
N 29 27 0 
N 37 74 0 
N 51 44 0 
N 1 60 0 
N 64 15 0 
N 36 71 0 
N 93 64 0 
C 0 0 0 
C 2 0 0 
C 4 0 0 
C 6 0 0 
C 8 0 0 
C 10 0 0 
C 12 0 0 
C 14 0 0 
C 16 0 0 
C 18 0 0 
C 20 0 0 
C 22 0 0 
C 24 0 0 
C 26 0 0 
C 28 0 0 
C 30 0 0 
C 32 0 0 
C 34 0 0 
C 36 0 0 
C 38 0 0 
C 40 0 0 
C 42 0 0 
C 44 0 0 
C 46 0 0 
C 48 0 0 
C 50 0 0 
C 52 0 0 
C 54 0 0 
C 56 0 0 
C 58 0 0 
C 60 0 0 
C 62 0 0 
C 64 0 0 
C 66 0 0 
C 68 0 0 
C 70 0 0 
C 72 0 0 
C 74 0 0 
C 76 0 0 
C 78 0 0 
C 80 0 0 
C 82 0 0 
C 84 0 0 
C 86 0 0 
C 88 0 0 
C 90 0 0 
C 92 0 0 
C 94 0 0 
C 96 0 0 
C 98 0 0 
C 100 0 0 
C 0 2 0 
C 2 2 0 
C 4 2 0 
C 6 2 0 
C 8 2 0 
C 10 2 0 
C 12 2 0 
C 14 2 0 
C 16 2 0 
C 18 2 0 
C 20 2 0 
C 22 2 0 
C 24 2 0 
C 26 2 0 
C 28 2 0 
C 30 2 0 
C 32 2 0 
C 34 2 0 
C 36 2 0 
C 38 2 0 
C 40 2 0 
C 42 2 0 
C 44 2 0 
C 46 2 0 
C 48 2 0 
C 50 2 0 
C 52 2 0 
C 54 2 0 
C 56 2 0 
C 58 2 0 
C 60 2 0 
C 62 2 0 
C 64 2 0 
C 66 2 0 
C 68 2 0 
C 70 2 0 
C 72 2 0 
C 74 2 0 
C 76 2 0 
C 78 2 0 
C 80 2 0 
C 82 2 0 
C 84 2 0 
C 86 2 0 
C 88 2 0 
C 90 2 0 
C 92 2 0 
C 94 2 0 
C 96 2 0 
C 98 2 0 
C 100 2 0 
C 0 4 0 
C 2 4 0 
C 4 4 0 
C 6 4 0 
C 8 4 0 
C 10 4 0 
C 12 4 0 
C 14 4 0 
C 16 4 0 
C 18 4 0 
C 20 4 0 
C 22 4 0 
C 24 4 0 
C 26 4 0 
C 28 4 0 
C 30 4 0 
C 32 4 0 
C 34 4 0 
C 36 4 0 
C 38 4 0 
C 40 4 0 
C 42 4 0 
C 44 4 0 
C 46 4 0 
C 48 4 0 
C 50 4 0 
C 52 4 0 
C 54 4 0 
C 56 4 0 
C 58 4 0 
C 60 4 0 
C 62 4 0 
C 64 4 0 
C 66 4 0 
C 68 4 0 
C 70 4 0 
C 72 4 0 
C 74 4 0 
C 76 4 0 
C 78 4 0 
C 80 4 0 
C 82 4 0 
C 84 4 0 
C 86 4 0 
C 88 4 0 
C 90 4 0 
C 92 4 0 
C 94 4 0 
C 96 4 0 
C 98 4 0 
C 100 4 0 
C 0 6 0 
C 2 6 0 
C 4 6 0 
C 6 6 0 
C 8 6 0 
C 10 6 0 
C 12 6 0 
C 14 6 0 
C 16 6 0 
C 18 6 0 
C 20 6 0 
C 22 6 0 
C 24 6 0 
C 26 6 0 
C 28 6 0 
C 30 6 0 
C 32 6 0 
C 34 6 0 
C 36 6 0 
C 38 6 0 
C 40 6 0 
C 42 6 0 
C 44 6 0 
C 46 6 0 
C 48 6 0 
C 50 6 0 
C 52 6 0 
C 54 6 0 
C 56 6 0 
C 58 6 0 
C 60 6 0 
C 62 6 0 
C 64 6 0 
C 66 6 0 
C 68 6 0 
C 70 6 0 
C 72 6 0 
C 74 6 0 
C 76 6 0 
C 78 6 0 
C 80 6 0 
C 82 6 0 
C 84 6 0 
C 86 6 0 
C 88 6 0 
C 90 6 0 
C 92 6 0 
C 94 6 0 
C 96 6 0 
C 98 6 0 
C 100 6 0 
C 0 8 0 
C 2 8 0 
C 4 8 0 
C 6 8 0 
C 8 8 0 
C 10 8 0 
C 12 8 0 
C 14 8 0 
C 16 8 0 
C 18 8 0 
C 20 8 0 
C 22 8 0 
C 24 8 0 
C 26 8 0 
C 28 8 0 
C 30 8 0 
C 32 8 0 
C 34 8 0 
C 36 8 0 
C 38 8 0 
C 40 8 0 
C 42 8 0 
C 44 8 0 
C 46 8 0 
C 48 8 0 
C 50 8 0 
C 52 8 0 
C 54 8 0 
C 56 8 0 
C 58 8 0 
C 60 8 0 
C 62 8 0 
C 64 8 0 
C 66 8 0 
C 68 8 0 
C 70 8 0 
C 72 8 0 
C 74 8 0 
C 76 8 0 
C 78 8 0 
C 80 8 0 
C 82 8 0 
C 84 8 0 
C 86 8 0 
C 88 8 0 
C 90 8 0 
C 92 8 0 
C 94 8 0 
C 96 8 0 
C 98 8 0 
C 100 8 0 
C 0 10 0 
C 2 10 0 
C 4 10 0 
C 6 10 0 
C 8 10 0 
C 10 10 0 
C 12 10 0 
C 14 10 0 
C 16 10 0 
C 18 10 0 
C 20 10 0 
C 22 10 0 
C 24 10 0 
C 26 10 0 
C 28 10 0 
C 30 10 0 
C 32 10 0 
C 34 10 0 
C 36 10 0 
C 38 10 0 
C 40 10 0 
C 42 10 0 
C 44 10 0 
C 46 10 0 
C 48 10 0 
C 50 10 0 
C 52 10 0 
C 54 10 0 
C 56 10 0 
C 58 10 0 
C 60 10 0 
C 62 10 0 
C 64 10 0 
C 66 10 0 
C 68 10 0 
C 70 10 0 
C 72 10 0 
C 74 10 0 
C 76 10 0 
C 78 10 0 
C 80 10 0 
C 82 10 0 
C 84 10 0 
C 86 10 0 
C 88 10 0 
C 90 10 0 
C 92 10 0 
C 94 10 0 
C 96 10 0 
C 98 10 0 
C 100 10 0 
C 0 12 0 
C 2 12 0 
C 4 12 0 
C 6 12 0 
C 8 12 0 
C 10 12 0 
C 12 12 0 
C 14 12 0 
C 16 12 0 
C 18 12 0 
C 20 12 0 
C 22 12 0 
C 24 12 0 
C 26 12 0 
C 28 12 0 
C 30 12 0 
C 32 12 0 
C 34 12 0 
C 36 12 0 
C 38 12 0 
C 40 12 0 
C 42 12 0 
C 44 12 0 
C 46 12 0 
C 48 12 0 
C 50 12 0 
C 52 12 0 
C 54 12 0 
C 56 12 0 
C 58 12 0 
C 60 12 0 
C 62 12 0 
C 64 12 0 
C 66 12 0 
C 68 12 0 
C 70 12 0 
C 72 12 0 
C 74 12 0 
C 76 12 0 
C 78 12 0 
C 80 12 0 
C 82 12 0 
C 84 12 0 
C 86 12 0 
C 88 12 0 
C 90 12 0 
C 92 12 0 
C 94 12 0 
C 96 12 0 
C 98 12 0 
C 100 12 0 
C 0 14 0 
C 2 14 0 
C 4 14 0 
C 6 14 0 
C 8 14 0 
C 10 14 0 
C 12 14 0 
C 14 14 0 
C 16 14 0 
C 18 14 0 
C 20 14 0 
C 22 14 0 
C 24 14 0 
C 26 14 0 
C 28 14 0 
C 30 14 0 
C 32 14 0 
C 34 14 0 
C 36 14 0 
C 38 14 0 
C 40 14 0 
C 42 14 0 
C 44 14 0 
C 46 14 0 
C 48 14 0 
C 50 14 0 
C 52 14 0 
C 54 14 0 
C 56 14 0 
C 58 14 0 
C 60 14 0 
C 62 14 0 
C 64 14 0 
C 66 14 0 
C 68 14 0 
C 70 14 0 
C 72 14 0 
C 74 14 0 
C 76 14 0 
C 78 14 0 
C 80 14 0 
C 82 14 0 
C 84 14 0 
C 86 14 0 
C 88 14 0 
C 90 14 0 
C 92 14 0 
C 94 14 0 
C 96 14 0 
C 98 14 0 
C 100 14 0 
C 0 16 0 
C 2 16 0 
C 4 16 0 
C 6 16 0 
C 8 16 0 
C 10 16 0 
C 12 16 0 
C 14 16 0 
C 16 16 0 
C 18 16 0 
C 20 16 0 
C 22 16 0 
C 24 16 0 
C 26 16 0 
C 28 16 0 
C 30 16 0 
C 32 16 0 
C 34 16 0 
C 36 16 0 
C 38 16 0 
C 40 16 0 
C 42 16 0 
C 44 16 0 
C 46 16 0 
C 48 16 0 
C 50 16 0 
C 52 16 0 
C 54 16 0 
C 56 16 0 
C 58 16 0 
C 60 16 0 
C 62 16 0 
C 64 16 0 
C 66 16 0 
C 68 16 0 
C 70 16 0 
C 72 16 0 
C 74 16 0 
C 76 16 0 
C 78 16 0 
C 80 16 0 
C 82 16 0 
C 84 16 0 
C 86 16 0 
C 88 16 0 
C 90 16 0 
C 92 16 0 
C 94 16 0 
C 96 16 0 
C 98 16 0 
C 100 16 0 
C 0 18 0 
C 2 18 0 
C 4 18 0 
C 6 18 0 
C 8 18 0 
C 10 18 0 
C 12 18 0 
C 14 18 0 
C 16 18 0 
C 18 18 0 
C 20 18 0 
C 22 18 0 
C 24 18 0 
C 26 18 0 
C 28 18 0 
C 30 18 0 
C 32 18 0 
C 34 18 0 
C 36 18 0 
C 38 18 0 
C 40 18 0 
C 42 18 0 
C 44 18 0 
C 46 18 0 
C 48 18 0 
C 50 18 0 
C 52 18 0 
C 54 18 0 
C 56 18 0 
C 58 18 0 
C 60 18 0 
C 62 18 0 
C 64 18 0 
C 66 18 0 
C 68 18 0 
C 70 18 0 
C 72 18 0 
C 74 18 0 
C 76 18 0 
C 78 18 0 
C 80 18 0 
C 82 18 0 
C 84 18 0 
C 86 18 0 
C 88 18 0 
C 90 18 0 
C 92 18 0 
C 94 18 0 
C 96 18 0 
C 98 18 0 
C 100 18 0 
C 0 20 0 
C 2 20 0 
C 4 20 0 
C 6 20 0 
C 8 20 0 
C 10 20 0 
C 12 20 0 
C 14 20 0 
C 16 20 0 
C 18 20 0 
C 20 20 0 
C 22 20 0 
C 24 20 0 
C 26 20 0 
C 28 20 0 
C 30 20 0 
C 32 20 0 
C 34 20 0 
C 36 20 0 
C 38 20 0 
C 40 20 0 
C 42 20 0 
C 44 20 0 
C 46 20 0 
C 48 20 0 
C 50 20 0 
C 52 20 0 
C 54 20 0 
C 56 20 0 
C 58 20 0 
C 60 20 0 
C 62 20 0 
C 64 20 0 
C 66 20 0 
C 68 20 0 
C 70 20 0 
C 72 20 0 
C 74 20 0 
C 76 20 0 
C 78 20 0 
C 80 20 0 
C 82 20 0 
C 84 20 0 
C 86 20 0 
C 88 20 0 
C 90 20 0 
C 92 20 0 
C 94 20 0 
C 96 20 0 
C 98 20 0 
C 100 20 0 
C 0 22 0 
C 2 22 0 
C 4 22 0 
C 6 22 0 
C 8 22 0 
C 10 22 0 
C 12 22 0 
C 14 22 0 
C 16 22 0 
C 18 22 0 
C 20 22 0 
C 22 22 0 
C 24 22 0 
C 26 22 0 
C 28 22 0 
C 30 22 0 
C 32 22 0 
C 34 22 0 
C 36 22 0 
C 38 22 0 
C 40 22 0 
C 42 22 0 
C 44 22 0 
C 46 22 0 
C 48 22 0 
C 50 22 0 
C 52 22 0 
C 54 22 0 
C 56 22 0 
C 58 22 0 
C 60 22 0 
C 62 22 0 
C 64 22 0 
C 66 22 0 
C 68 22 0 
C 70 22 0 
C 72 22 0 
C 74 22 0 
C 76 22 0 
C 78 22 0 
C 80 22 0 
C 82 22 0 
C 84 22 0 
C 86 22 0 
C 88 22 0 
C 90 22 0 
C 92 22 0 
C 94 22 0 
C 96 22 0 
C 98 22 0 
C 100 22 0 
C 0 24 0 
C 2 24 0 
C 4 24 0 
C 6 24 0 
C 8 24 0 
C 10 24 0 
C 12 24 0 
C 14 24 0 
C 16 24 0 
C 18 24 0 
C 20 24 0 
C 22 24 0 
C 24 24 0 
C 26 24 0 
C 28 24 0 
C 30 24 0 
C 32 24 0 
C 34 24 0 
C 36 24 0 
C 38 24 0 
C 40 24 0 
C 42 24 0 
C 44 24 0 
C 46 24 0 
C 48 24 0 
C 50 24 0 
C 52 24 0 
C 54 24 0 
C 56 24 0 
C 58 24 0 
C 60 24 0 
C 62 24 0 
C 64 24 0 
C 66 24 0 
C 68 24 0 
C 70 24 0 
C 72 24 0 
C 74 24 0 
C 76 24 0 
C 78 24 0 
C 80 24 0 
C 82 24 0 
C 84 24 0 
C 86 24 0 
C 88 24 0 
C 90 24 0 
C 92 24 0 
C 94 24 0 
C 96 24 0 
C 98 24 0 
C 100 24 0 
C 0 26 0 
C 2 26 0 
C 4 26 0 
C 6 26 0 
C 8 26 0 
C 10 26 0 
C 12 26 0 
C 14 26 0 
C 16 26 0 
C 18 26 0 
C 20 26 0 
C 22 26 0 
C 24 26 0 
C 26 26 0 
C 28 26 0 
C 30 26 0 
C 32 26 0 
C 34 26 0 
C 36 26 0 
C 38 26 0 
C 40 26 0 
C 42 26 0 
C 44 26 0 
C 46 26 0 
C 48 26 0 
C 50 26 0 
C 52 26 0 
C 54 26 0 
C 56 26 0 
C 58 26 0 
C 60 26 0 
C 62 26 0 
C 64 26 0 
C 66 26 0 
C 68 26 0 
C 70 26 0 
C 72 26 0 
C 74 26 0 
C 76 26 0 
C 78 26 0 
C 80 26 0 
C 82 26 0 
C 84 26 0 
C 86 26 0 
C 88 26 0 
C 90 26 0 
C 92 26 0 
C 94 26 0 
C 96 26 0 
C 98 26 0 
C 100 26 0 
C 0 28 0 
C 2 28 0 
C 4 28 0 
C 6 28 0 
C 8 28 0 
C 10 28 0 
C 12 28 0 
C 14 28 0 
C 16 28 0 
C 18 28 0 
C 20 28 0 
C 22 28 0 
C 24 28 0 
C 26 28 0 
C 28 28 0 
C 30 28 0 
C 32 28 0 
C 34 28 0 
C 36 28 0 
C 38 28 0 
C 40 28 0 
C 42 28 0 
C 44 28 0 
C 46 28 0 
C 48 28 0 
C 50 28 0 
C 52 28 0 
C 54 28 0 
C 56 28 0 
C 58 28 0 
C 60 28 0 
C 62 28 0 
C 64 28 0 
C 66 28 0 
C 68 28 0 
C 70 28 0 
C 72 28 0 
C 74 28 0 
C 76 28 0 
C 78 28 0 
C 80 28 0 
C 82 28 0 
C 84 28 0 
C 86 28 0 
C 88 28 0 
C 90 28 0 
C 92 28 0 
C 94 28 0 
C 96 28 0 
C 98 28 0 
C 100 28 0 
C 0 30 0 
C 2 30 0 
C 4 30 0 
C 6 30 0 
C 8 30 0 
C 10 30 0 
C 12 30 0 
C 14 30 0 
C 16 30 0 
C 18 30 0 
C 20 30 0 
C 22 30 0 
C 24 30 0 
C 26 30 0 
C 28 30 0 
C 30 30 0 
C 32 30 0 
C 34 30 0 
C 36 30 0 
C 38 30 0 
C 40 30 0 
C 42 30 0 
C 44 30 0 
C 46 30 0 
C 48 30 0 
C 50 30 0 
C 52 30 0 
C 54 30 0 
C 56 30 0 
C 58 30 0 
C 60 30 0 
C 62 30 0 
C 64 30 0 
C 66 30 0 
C 68 30 0 
C 70 30 0 
C 72 30 0 
C 74 30 0 
C 76 30 0 
C 78 30 0 
C 80 30 0 
C 82 30 0 
C 84 30 0 
C 86 30 0 
C 88 30 0 
C 90 30 0 
C 92 30 0 
C 94 30 0 
C 96 30 0 
C 98 30 0 
C 100 30 0 
C 0 32 0 
C 2 32 0 
C 4 32 0 
C 6 32 0 
C 8 32 0 
C 10 32 0 
C 12 32 0 
C 14 32 0 
C 16 32 0 
C 18 32 0 
C 20 32 0 
C 22 32 0 
C 24 32 0 
C 26 32 0 
C 28 32 0 
C 30 32 0 
C 32 32 0 
C 34 32 0 
C 36 32 0 
C 38 32 0 
C 40 32 0 
C 42 32 0 
C 44 32 0 
C 46 32 0 
C 48 32 0 
C 50 32 0 
C 52 32 0 
C 54 32 0 
C 56 32 0 
C 58 32 0 
C 60 32 0 
C 62 32 0 
C 64 32 0 
C 66 32 0 
C 68 32 0 
C 70 32 0 
C 72 32 0 
C 74 32 0 
C 76 32 0 
C 78 32 0 
C 80 32 0 
C 82 32 0 
C 84 32 0 
C 86 32 0 
C 88 32 0 
C 90 32 0 
C 92 32 0 
C 94 32 0 
C 96 32 0 
C 98 32 0 
C 100 32 0 
C 0 34 0 
C 2 34 0 
C 4 34 0 
C 6 34 0 
C 8 34 0 
C 10 34 0 
C 12 34 0 
C 14 34 0 
C 16 34 0 
C 18 34 0 
C 20 34 0 
C 22 34 0 
C 24 34 0 
C 26 34 0 
C 28 34 0 
C 30 34 0 
C 32 34 0 
C 34 34 0 
C 36 34 0 
C 38 34 0 
C 40 34 0 
C 42 34 0 
C 44 34 0 
C 46 34 0 
C 48 34 0 
C 50 34 0 
C 52 34 0 
C 54 34 0 
C 56 34 0 
C 58 34 0 
C 60 34 0 
C 62 34 0 
C 64 34 0 
C 66 34 0 
C 68 34 0 
C 70 34 0 
C 72 34 0 
C 74 34 0 
C 76 34 0 
C 78 34 0 
C 80 34 0 
C 82 34 0 
C 84 34 0 
C 86 34 0 
C 88 34 0 
C 90 34 0 
C 92 34 0 
C 94 34 0 
C 96 34 0 
C 98 34 0 
C 100 34 0 
C 0 36 0 
C 2 36 0 
C 4 36 0 
C 6 36 0 
C 8 36 0 
C 10 36 0 
C 12 36 0 
C 14 36 0 
C 16 36 0 
C 18 36 0 
C 20 36 0 
C 22 36 0 
C 24 36 0 
C 26 36 0 
C 28 36 0 
C 30 36 0 
C 32 36 0 
C 34 36 0 
C 36 36 0 
C 38 36 0 
C 40 36 0 
C 42 36 0 
C 44 36 0 
C 46 36 0 
C 48 36 0 
C 50 36 0 
C 52 36 0 
C 54 36 0 
C 56 36 0 
C 58 36 0 
C 60 36 0 
C 62 36 0 
C 64 36 0 
C 66 36 0 
C 68 36 0 
C 70 36 0 
C 72 36 0 
C 74 36 0 
C 76 36 0 
C 78 36 0 
C 80 36 0 
C 82 36 0 
C 84 36 0 
C 86 36 0 
C 88 36 0 
C 90 36 0 
C 92 36 0 
C 94 36 0 
C 96 36 0 
C 98 36 0 
C 100 36 0 
C 0 38 0 
C 2 38 0 
C 4 38 0 
C 6 38 0 
C 8 38 0 
C 10 38 0 
C 12 38 0 
C 14 38 0 
C 16 38 0 
C 18 38 0 
C 20 38 0 
C 22 38 0 
C 24 38 0 
C 26 38 0 
C 28 38 0 
C 30 38 0 
C 32 38 0 
C 34 38 0 
C 36 38 0 
C 38 38 0 
C 40 38 0 
C 42 38 0 
C 44 38 0 
C 46 38 0 
C 48 38 0 
C 50 38 0 
C 52 38 0 
C 54 38 0 
C 56 38 0 
C 58 38 0 
C 60 38 0 
C 62 38 0 
C 64 38 0 
C 66 38 0 
C 68 38 0 
C 70 38 0 
C 72 38 0 
C 74 38 0 
C 76 38 0 
C 78 38 0 
C 80 38 0 
C 82 38 0 
C 84 38 0 
C 86 38 0 
C 88 38 0 
C 90 38 0 
C 92 38 0 
C 94 38 0 
C 96 38 0 
C 98 38 0 
C 100 38 0 
C 0 40 0 
C 2 40 0 
C 4 40 0 
C 6 40 0 
C 8 40 0 
C 10 40 0 
C 12 40 0 
C 14 40 0 
C 16 40 0 
C 18 40 0 
C 20 40 0 
C 22 40 0 
C 24 40 0 
C 26 40 0 
C 28 40 0 
C 30 40 0 
C 32 40 0 
C 34 40 0 
C 36 40 0 
C 38 40 0 
C 40 40 0 
C 42 40 0 
C 44 40 0 
C 46 40 0 
C 48 40 0 
C 50 40 0 
C 52 40 0 
C 54 40 0 
C 56 40 0 
C 58 40 0 
C 60 40 0 
C 62 40 0 
C 64 40 0 
C 66 40 0 
C 68 40 0 
C 70 40 0 
C 72 40 0 
C 74 40 0 
C 76 40 0 
C 78 40 0 
C 80 40 0 
C 82 40 0 
C 84 40 0 
C 86 40 0 
C 88 40 0 
C 90 40 0 
C 92 40 0 
C 94 40 0 
C 96 40 0 
C 98 40 0 
C 100 40 0 
C 0 42 0 
C 2 42 0 
C 4 42 0 
C 6 42 0 
C 8 42 0 
C 10 42 0 
C 12 42 0 
C 14 42 0 
C 16 42 0 
C 18 42 0 
C 20 42 0 
C 22 42 0 
C 24 42 0 
C 26 42 0 
C 28 42 0 
C 30 42 0 
C 32 42 0 
C 34 42 0 
C 36 42 0 
C 38 42 0 
C 40 42 0 
C 42 42 0 
C 44 42 0 
C 46 42 0 
C 48 42 0 
C 50 42 0 
C 52 42 0 
C 54 42 0 
C 56 42 0 
C 58 42 0 
C 60 42 0 
C 62 42 0 
C 64 42 0 
C 66 42 0 
C 68 42 0 
C 70 42 0 
C 72 42 0 
C 74 42 0 
C 76 42 0 
C 78 42 0 
C 80 42 0 
C 82 42 0 
C 84 42 0 
C 86 42 0 
C 88 42 0 
C 90 42 0 
C 92 42 0 
C 94 42 0 
C 96 42 0 
C 98 42 0 
C 100 42 0 
C 0 44 0 
C 2 44 0 
C 4 44 0 
C 6 44 0 
C 8 44 0 
C 10 44 0 
C 12 44 0 
C 14 44 0 
C 16 44 0 
C 18 44 0 
C 20 44 0 
C 22 44 0 
C 24 44 0 
C 26 44 0 
C 28 44 0 
C 30 44 0 
C 32 44 0 
C 34 44 0 
C 36 44 0 
C 38 44 0 
C 40 44 0 
C 42 44 0 
C 44 44 0 
C 46 44 0 
C 48 44 0 
C 50 44 0 
C 52 44 0 
C 54 44 0 
C 56 44 0 
C 58 44 0 
C 60 44 0 
C 62 44 0 
C 64 44 0 
C 66 44 0 
C 68 44 0 
C 70 44 0 
C 72 44 0 
C 74 44 0 
C 76 44 0 
C 78 44 0 
C 80 44 0 
C 82 44 0 
C 84 44 0 
C 86 44 0 
C 88 44 0 
C 90 44 0 
C 92 44 0 
C 94 44 0 
C 96 44 0 
C 98 44 0 
C 100 44 0 
C 0 46 0 
C 2 46 0 
C 4 46 0 
C 6 46 0 
C 8 46 0 
C 10 46 0 
C 12 46 0 
C 14 46 0 
C 16 46 0 
C 18 46 0 
C 20 46 0 
C 22 46 0 
C 24 46 0 
C 26 46 0 
C 28 46 0 
C 30 46 0 
C 32 46 0 
C 34 46 0 
C 36 46 0 
C 38 46 0 
C 40 46 0 
C 42 46 0 
C 44 46 0 
C 46 46 0 
C 48 46 0 
C 50 46 0 
C 52 46 0 
C 54 46 0 
C 56 46 0 
C 58 46 0 
C 60 46 0 
C 62 46 0 
C 64 46 0 
C 66 46 0 
C 68 46 0 
C 70 46 0 
C 72 46 0 
C 74 46 0 
C 76 46 0 
C 78 46 0 
C 80 46 0 
C 82 46 0 
C 84 46 0 
C 86 46 0 
C 88 46 0 
C 90 46 0 
C 92 46 0 
C 94 46 0 
C 96 46 0 
C 98 46 0 
C 100 46 0 
C 0 48 0 
C 2 48 0 
C 4 48 0 
C 6 48 0 
C 8 48 0 
C 10 48 0 
C 12 48 0 
C 14 48 0 
C 16 48 0 
C 18 48 0 
C 20 48 0 
C 22 48 0 
C 24 48 0 
C 26 48 0 
C 28 48 0 
C 30 48 0 
C 32 48 0 
C 34 48 0 
C 36 48 0 
C 38 48 0 
C 40 48 0 
C 42 48 0 
C 44 48 0 
C 46 48 0 
C 48 48 0 
C 50 48 0 
C 52 48 0 
C 54 48 0 
C 56 48 0 
C 58 48 0 
C 60 48 0 
C 62 48 0 
C 64 48 0 
C 66 48 0 
C 68 48 0 
C 70 48 0 
C 72 48 0 
C 74 48 0 
C 76 48 0 
C 78 48 0 
C 80 48 0 
C 82 48 0 
C 84 48 0 
C 86 48 0 
C 88 48 0 
C 90 48 0 
C 92 48 0 
C 94 48 0 
C 96 48 0 
C 98 48 0 
C 100 48 0 
C 0 50 0 
C 2 50 0 
C 4 50 0 
C 6 50 0 
C 8 50 0 
C 10 50 0 
C 12 50 0 
C 14 50 0 
C 16 50 0 
C 18 50 0 
C 20 50 0 
C 22 50 0 
C 24 50 0 
C 26 50 0 
C 28 50 0 
C 30 50 0 
C 32 50 0 
C 34 50 0 
C 36 50 0 
C 38 50 0 
C 40 50 0 
C 42 50 0 
C 44 50 0 
C 46 50 0 
C 48 50 0 
C 50 50 0 
C 52 50 0 
C 54 50 0 
C 56 50 0 
C 58 50 0 
C 60 50 0 
C 62 50 0 
C 64 50 0 
C 66 50 0 
C 68 50 0 
C 70 50 0 
C 72 50 0 
C 74 50 0 
C 76 50 0 
C 78 50 0 
C 80 50 0 
C 82 50 0 
C 84 50 0 
C 86 50 0 
C 88 50 0 
C 90 50 0 
C 92 50 0 
C 94 50 0 
C 96 50 0 
C 98 50 0 
C 100 50 0 
C 0 52 0 
C 2 52 0 
C 4 52 0 
C 6 52 0 
C 8 52 0 
C 10 52 0 
C 12 52 0 
C 14 52 0 
C 16 52 0 
C 18 52 0 
C 20 52 0 
C 22 52 0 
C 24 52 0 
C 26 52 0 
C 28 52 0 
C 30 52 0 
C 32 52 0 
C 34 52 0 
C 36 52 0 
C 38 52 0 
C 40 52 0 
C 42 52 0 
C 44 52 0 
C 46 52 0 
C 48 52 0 
C 50 52 0 
C 52 52 0 
C 54 52 0 
C 56 52 0 
C 58 52 0 
C 60 52 0 
C 62 52 0 
C 64 52 0 
C 66 52 0 
C 68 52 0 
C 70 52 0 
C 72 52 0 
C 74 52 0 
C 76 52 0 
C 78 52 0 
C 80 52 0 
C 82 52 0 
C 84 52 0 
C 86 52 0 
C 88 52 0 
C 90 52 0 
C 92 52 0 
C 94 52 0 
C 96 52 0 
C 98 52 0 
C 100 52 0 
C 0 54 0 
C 2 54 0 
C 4 54 0 
C 6 54 0 
C 8 54 0 
C 10 54 0 
C 12 54 0 
C 14 54 0 
C 16 54 0 
C 18 54 0 
C 20 54 0 
C 22 54 0 
C 24 54 0 
C 26 54 0 
C 28 54 0 
C 30 54 0 
C 32 54 0 
C 34 54 0 
C 36 54 0 
C 38 54 0 
C 40 54 0 
C 42 54 0 
C 44 54 0 
C 46 54 0 
C 48 54 0 
C 50 54 0 
C 52 54 0 
C 54 54 0 
C 56 54 0 
C 58 54 0 
C 60 54 0 
C 62 54 0 
C 64 54 0 
C 66 54 0 
C 68 54 0 
C 70 54 0 
C 72 54 0 
C 74 54 0 
C 76 54 0 
C 78 54 0 
C 80 54 0 
C 82 54 0 
C 84 54 0 
C 86 54 0 
C 88 54 0 
C 90 54 0 
C 92 54 0 
C 94 54 0 
C 96 54 0 
C 98 54 0 
C 100 54 0 
C 0 56 0 
C 2 56 0 
C 4 56 0 
C 6 56 0 
C 8 56 0 
C 10 56 0 
C 12 56 0 
C 14 56 0 
C 16 56 0 
C 18 56 0 
C 20 56 0 
C 22 56 0 
C 24 56 0 
C 26 56 0 
C 28 56 0 
C 30 56 0 
C 32 56 0 
C 34 56 0 
C 36 56 0 
C 38 56 0 
C 40 56 0 
C 42 56 0 
C 44 56 0 
C 46 56 0 
C 48 56 0 
C 50 56 0 
C 52 56 0 
C 54 56 0 
C 56 56 0 
C 58 56 0 
C 60 56 0 
C 62 56 0 
C 64 56 0 
C 66 56 0 
C 68 56 0 
C 70 56 0 
C 72 56 0 
C 74 56 0 
C 76 56 0 
C 78 56 0 
C 80 56 0 
C 82 56 0 
C 84 56 0 
C 86 56 0 
C 88 56 0 
C 90 56 0 
C 92 56 0 
C 94 56 0 
C 96 56 0 
C 98 56 0 
C 100 56 0 
C 0 58 0 
C 2 58 0 
C 4 58 0 
C 6 58 0 
C 8 58 0 
C 10 58 0 
C 12 58 0 
C 14 58 0 
C 16 58 0 
C 18 58 0 
C 20 58 0 
C 22 58 0 
C 24 58 0 
C 26 58 0 
C 28 58 0 
C 30 58 0 
C 32 58 0 
C 34 58 0 
C 36 58 0 
C 38 58 0 
C 40 58 0 
C 42 58 0 
C 44 58 0 
C 46 58 0 
C 48 58 0 
C 50 58 0 
C 52 58 0 
C 54 58 0 
C 56 58 0 
C 58 58 0 
C 60 58 0 
C 62 58 0 
C 64 58 0 
C 66 58 0 
C 68 58 0 
C 70 58 0 
C 72 58 0 
C 74 58 0 
C 76 58 0 
C 78 58 0 
C 80 58 0 
C 82 58 0 
C 84 58 0 
C 86 58 0 
C 88 58 0 
C 90 58 0 
C 92 58 0 
C 94 58 0 
C 96 58 0 
C 98 58 0 
C 100 58 0 
C 0 60 0 
C 2 60 0 
C 4 60 0 
C 6 60 0 
C 8 60 0 
C 10 60 0 
C 12 60 0 
C 14 60 0 
C 16 60 0 
C 18 60 0 
C 20 60 0 
C 22 60 0 
C 24 60 0 
C 26 60 0 
C 28 60 0 
C 30 60 0 
C 32 60 0 
C 34 60 0 
C 36 60 0 
C 38 60 0 
C 40 60 0 
C 42 60 0 
C 44 60 0 
C 46 60 0 
C 48 60 0 
C 50 60 0 
C 52 60 0 
C 54 60 0 
C 56 60 0 
C 58 60 0 
C 60 60 0 
C 62 60 0 
C 64 60 0 
C 66 60 0 
C 68 60 0 
C 70 60 0 
C 72 60 0 
C 74 60 0 
C 76 60 0 
C 78 60 0 
C 80 60 0 
C 82 60 0 
C 84 60 0 
C 86 60 0 
C 88 60 0 
C 90 60 0 
C 92 60 0 
C 94 60 0 
C 96 60 0 
C 98 60 0 
C 100 60 0 
C 0 62 0 
C 2 62 0 
C 4 62 0 
C 6 62 0 
C 8 62 0 
C 10 62 0 
C 12 62 0 
C 14 62 0 
C 16 62 0 
C 18 62 0 
C 20 62 0 
C 22 62 0 
C 24 62 0 
C 26 62 0 
C 28 62 0 
C 30 62 0 
C 32 62 0 
C 34 62 0 
C 36 62 0 
C 38 62 0 
C 40 62 0 
C 42 62 0 
C 44 62 0 
C 46 62 0 
C 48 62 0 
C 50 62 0 
C 52 62 0 
C 54 62 0 
C 56 62 0 
C 58 62 0 
C 60 62 0 
C 62 62 0 
C 64 62 0 
C 66 62 0 
C 68 62 0 
C 70 62 0 
C 72 62 0 
C 74 62 0 
C 76 62 0 
C 78 62 0 
C 80 62 0 
C 82 62 0 
C 84 62 0 
C 86 62 0 
C 88 62 0 
C 90 62 0 
C 92 62 0 
C 94 62 0 
C 96 62 0 
C 98 62 0 
C 100 62 0 
C 0 64 0 
C 2 64 0 
C 4 64 0 
C 6 64 0 
C 8 64 0 
C 10 64 0 
C 12 64 0 
C 14 64 0 
C 16 64 0 
C 18 64 0 
C 20 64 0 
C 22 64 0 
C 24 64 0 
C 26 64 0 
C 28 64 0 
C 30 64 0 
C 32 64 0 
C 34 64 0 
C 36 64 0 
C 38 64 0 
C 40 64 0 
C 42 64 0 
C 44 64 0 
C 46 64 0 
C 48 64 0 
C 50 64 0 
C 52 64 0 
C 54 64 0 
C 56 64 0 
C 58 64 0 
C 60 64 0 
C 62 64 0 
C 64 64 0 
C 66 64 0 
C 68 64 0 
C 70 64 0 
C 72 64 0 
C 74 64 0 
C 76 64 0 
C 78 64 0 
C 80 64 0 
C 82 64 0 
C 84 64 0 
C 86 64 0 
C 88 64 0 
C 90 64 0 
C 92 64 0 
C 94 64 0 
C 96 64 0 
C 98 64 0 
C 100 64 0 
C 0 66 0 
C 2 66 0 
C 4 66 0 
C 6 66 0 
C 8 66 0 
C 10 66 0 
C 12 66 0 
C 14 66 0 
C 16 66 0 
C 18 66 0 
C 20 66 0 
C 22 66 0 
C 24 66 0 
C 26 66 0 
C 28 66 0 
C 30 66 0 
C 32 66 0 
C 34 66 0 
C 36 66 0 
C 38 66 0 
C 40 66 0 
C 42 66 0 
C 44 66 0 
C 46 66 0 
C 48 66 0 
C 50 66 0 
C 52 66 0 
C 54 66 0 
C 56 66 0 
C 58 66 0 
C 60 66 0 
C 62 66 0 
C 64 66 0 
C 66 66 0 
C 68 66 0 
C 70 66 0 
C 72 66 0 
C 74 66 0 
C 76 66 0 
C 78 66 0 
C 80 66 0 
C 82 66 0 
C 84 66 0 
C 86 66 0 
C 88 66 0 
C 90 66 0 
C 92 66 0 
C 94 66 0 
C 96 66 0 
C 98 66 0 
C 100 66 0 
C 0 68 0 
C 2 68 0 
C 4 68 0 
C 6 68 0 
C 8 68 0 
C 10 68 0 
C 12 68 0 
C 14 68 0 
C 16 68 0 
C 18 68 0 
C 20 68 0 
C 22 68 0 
C 24 68 0 
C 26 68 0 
C 28 68 0 
C 30 68 0 
C 32 68 0 
C 34 68 0 
C 36 68 0 
C 38 68 0 
C 40 68 0 
C 42 68 0 
C 44 68 0 
C 46 68 0 
C 48 68 0 
C 50 68 0 
C 52 68 0 
C 54 68 0 
C 56 68 0 
C 58 68 0 
C 60 68 0 
C 62 68 0 
C 64 68 0 
C 66 68 0 
C 68 68 0 
C 70 68 0 
C 72 68 0 
C 74 68 0 
C 76 68 0 
C 78 68 0 
C 80 68 0 
C 82 68 0 
C 84 68 0 
C 86 68 0 
C 88 68 0 
C 90 68 0 
C 92 68 0 
C 94 68 0 
C 96 68 0 
C 98 68 0 
C 100 68 0 
C 0 70 0 
C 2 70 0 
C 4 70 0 
C 6 70 0 
C 8 70 0 
C 10 70 0 
C 12 70 0 
C 14 70 0 
C 16 70 0 
C 18 70 0 
C 20 70 0 
C 22 70 0 
C 24 70 0 
C 26 70 0 
C 28 70 0 
C 30 70 0 
C 32 70 0 
C 34 70 0 
C 36 70 0 
C 38 70 0 
C 40 70 0 
C 42 70 0 
C 44 70 0 
C 46 70 0 
C 48 70 0 
C 50 70 0 
C 52 70 0 
C 54 70 0 
C 56 70 0 
C 58 70 0 
C 60 70 0 
C 62 70 0 
C 64 70 0 
C 66 70 0 
C 68 70 0 
C 70 70 0 
C 72 70 0 
C 74 70 0 
C 76 70 0 
C 78 70 0 
C 80 70 0 
C 82 70 0 
C 84 70 0 
C 86 70 0 
C 88 70 0 
C 90 70 0 
C 92 70 0 
C 94 70 0 
C 96 70 0 
C 98 70 0 
C 100 70 0 
C 0 72 0 
C 2 72 0 
C 4 72 0 
C 6 72 0 
C 8 72 0 
C 10 72 0 
C 12 72 0 
C 14 72 0 
C 16 72 0 
C 18 72 0 
C 20 72 0 
C 22 72 0 
C 24 72 0 
C 26 72 0 
C 28 72 0 
C 30 72 0 
C 32 72 0 
C 34 72 0 
C 36 72 0 
C 38 72 0 
C 40 72 0 
C 42 72 0 
C 44 72 0 
C 46 72 0 
C 48 72 0 
C 50 72 0 
C 52 72 0 
C 54 72 0 
C 56 72 0 
C 58 72 0 
C 60 72 0 
C 62 72 0 
C 64 72 0 
C 66 72 0 
C 68 72 0 
C 70 72 0 
C 72 72 0 
C 74 72 0 
C 76 72 0 
C 78 72 0 
C 80 72 0 
C 82 72 0 
C 84 72 0 
C 86 72 0 
C 88 72 0 
C 90 72 0 
C 92 72 0 
C 94 72 0 
C 96 72 0 
C 98 72 0 
C 100 72 0 
C 0 74 0 
C 2 74 0 
C 4 74 0 
C 6 74 0 
C 8 74 0 
C 10 74 0 
C 12 74 0 
C 14 74 0 
C 16 74 0 
C 18 74 0 
C 20 74 0 
C 22 74 0 
C 24 74 0 
C 26 74 0 
C 28 74 0 
C 30 74 0 
C 32 74 0 
C 34 74 0 
C 36 74 0 
C 38 74 0 
C 40 74 0 
C 42 74 0 
C 44 74 0 
C 46 74 0 
C 48 74 0 
C 50 74 0 
C 52 74 0 
C 54 74 0 
C 56 74 0 
C 58 74 0 
C 60 74 0 
C 62 74 0 
C 64 74 0 
C 66 74 0 
C 68 74 0 
C 70 74 0 
C 72 74 0 
C 74 74 0 
C 76 74 0 
C 78 74 0 
C 80 74 0 
C 82 74 0 
C 84 74 0 
C 86 74 0 
C 88 74 0 
C 90 74 0 
C 92 74 0 
C 94 74 0 
C 96 74 0 
C 98 74 0 
C 100 74 0 
C 0 76 0 
C 2 76 0 
C 4 76 0 
C 6 76 0 
C 8 76 0 
C 10 76 0 
C 12 76 0 
C 14 76 0 
C 16 76 0 
C 18 76 0 
C 20 76 0 
C 22 76 0 
C 24 76 0 
C 26 76 0 
C 28 76 0 
C 30 76 0 
C 32 76 0 
C 34 76 0 
C 36 76 0 
C 38 76 0 
C 40 76 0 
C 42 76 0 
C 44 76 0 
C 46 76 0 
C 48 76 0 
C 50 76 0 
C 52 76 0 
C 54 76 0 
C 56 76 0 
C 58 76 0 
C 60 76 0 
C 62 76 0 
C 64 76 0 
C 66 76 0 
C 68 76 0 
C 70 76 0 
C 72 76 0 
C 74 76 0 
C 76 76 0 
C 78 76 0 
C 80 76 0 
C 82 76 0 
C 84 76 0 
C 86 76 0 
C 88 76 0 
C 90 76 0 
C 92 76 0 
C 94 76 0 
C 96 76 0 
C 98 76 0 
C 100 76 0 
C 0 78 0 
C 2 78 0 
C 4 78 0 
C 6 78 0 
C 8 78 0 
C 10 78 0 
C 12 78 0 
C 14 78 0 
C 16 78 0 
C 18 78 0 
C 20 78 0 
C 22 78 0 
C 24 78 0 
C 26 78 0 
C 28 78 0 
C 30 78 0 
C 32 78 0 
C 34 78 0 
C 36 78 0 
C 38 78 0 
C 40 78 0 
C 42 78 0 
C 44 78 0 
C 46 78 0 
C 48 78 0 
C 50 78 0 
C 52 78 0 
C 54 78 0 
C 56 78 0 
C 58 78 0 
C 60 78 0 
C 62 78 0 
C 64 78 0 
C 66 78 0 
C 68 78 0 
C 70 78 0 
C 72 78 0 
C 74 78 0 
C 76 78 0 
C 78 78 0 
C 80 78 0 
C 82 78 0 
C 84 78 0 
C 86 78 0 
C 88 78 0 
C 90 78 0 
C 92 78 0 
C 94 78 0 
C 96 78 0 
C 98 78 0 
C 100 78 0 
C 0 80 0 
C 2 80 0 
C 4 80 0 
C 6 80 0 
C 8 80 0 
C 10 80 0 
C 12 80 0 
C 14 80 0 
C 16 80 0 
C 18 80 0 
C 20 80 0 
C 22 80 0 
C 24 80 0 
C 26 80 0 
C 28 80 0 
C 30 80 0 
C 32 80 0 
C 34 80 0 
C 36 80 0 
C 38 80 0 
C 40 80 0 
C 42 80 0 
C 44 80 0 
C 46 80 0 
C 48 80 0 
C 50 80 0 
C 52 80 0 
C 54 80 0 
C 56 80 0 
C 58 80 0 
C 60 80 0 
C 62 80 0 
C 64 80 0 
C 66 80 0 
C 68 80 0 
C 70 80 0 
C 72 80 0 
C 74 80 0 
C 76 80 0 
C 78 80 0 
C 80 80 0 
C 82 80 0 
C 84 80 0 
C 86 80 0 
C 88 80 0 
C 90 80 0 
C 92 80 0 
C 94 80 0 
C 96 80 0 
C 98 80 0 
C 100 80 0 
C 0 82 0 
C 2 82 0 
C 4 82 0 
C 6 82 0 
C 8 82 0 
C 10 82 0 
C 12 82 0 
C 14 82 0 
C 16 82 0 
C 18 82 0 
C 20 82 0 
C 22 82 0 
C 24 82 0 
C 26 82 0 
C 28 82 0 
C 30 82 0 
C 32 82 0 
C 34 82 0 
C 36 82 0 
C 38 82 0 
C 40 82 0 
C 42 82 0 
C 44 82 0 
C 46 82 0 
C 48 82 0 
C 50 82 0 
C 52 82 0 
C 54 82 0 
C 56 82 0 
C 58 82 0 
C 60 82 0 
C 62 82 0 
C 64 82 0 
C 66 82 0 
C 68 82 0 
C 70 82 0 
C 72 82 0 
C 74 82 0 
C 76 82 0 
C 78 82 0 
C 80 82 0 
C 82 82 0 
C 84 82 0 
C 86 82 0 
C 88 82 0 
C 90 82 0 
C 92 82 0 
C 94 82 0 
C 96 82 0 
C 98 82 0 
C 100 82 0 
C 0 84 0 
C 2 84 0 
C 4 84 0 
C 6 84 0 
C 8 84 0 
C 10 84 0 
C 12 84 0 
C 14 84 0 
C 16 84 0 
C 18 84 0 
C 20 84 0 
C 22 84 0 
C 24 84 0 
C 26 84 0 
C 28 84 0 
C 30 84 0 
C 32 84 0 
C 34 84 0 
C 36 84 0 
C 38 84 0 
C 40 84 0 
C 42 84 0 
C 44 84 0 
C 46 84 0 
C 48 84 0 
C 50 84 0 
C 52 84 0 
C 54 84 0 
C 56 84 0 
C 58 84 0 
C 60 84 0 
C 62 84 0 
C 64 84 0 
C 66 84 0 
C 68 84 0 
C 70 84 0 
C 72 84 0 
C 74 84 0 
C 76 84 0 
C 78 84 0 
C 80 84 0 
C 82 84 0 
C 84 84 0 
C 86 84 0 
C 88 84 0 
C 90 84 0 
C 92 84 0 
C 94 84 0 
C 96 84 0 
C 98 84 0 
C 100 84 0 
C 0 86 0 
C 2 86 0 
C 4 86 0 
C 6 86 0 
C 8 86 0 
C 10 86 0 
C 12 86 0 
C 14 86 0 
C 16 86 0 
C 18 86 0 
C 20 86 0 
C 22 86 0 
C 24 86 0 
C 26 86 0 
C 28 86 0 
C 30 86 0 
C 32 86 0 
C 34 86 0 
C 36 86 0 
C 38 86 0 
C 40 86 0 
C 42 86 0 
C 44 86 0 
C 46 86 0 
C 48 86 0 
C 50 86 0 
C 52 86 0 
C 54 86 0 
C 56 86 0 
C 58 86 0 
C 60 86 0 
C 62 86 0 
C 64 86 0 
C 66 86 0 
C 68 86 0 
C 70 86 0 
C 72 86 0 
C 74 86 0 
C 76 86 0 
C 78 86 0 
C 80 86 0 
C 82 86 0 
C 84 86 0 
C 86 86 0 
C 88 86 0 
C 90 86 0 
C 92 86 0 
C 94 86 0 
C 96 86 0 
C 98 86 0 
C 100 86 0 
C 0 88 0 
C 2 88 0 
C 4 88 0 
C 6 88 0 
C 8 88 0 
C 10 88 0 
C 12 88 0 
C 14 88 0 
C 16 88 0 
C 18 88 0 
C 20 88 0 
C 22 88 0 
C 24 88 0 
C 26 88 0 
C 28 88 0 
C 30 88 0 
C 32 88 0 
C 34 88 0 
C 36 88 0 
C 38 88 0 
C 40 88 0 
C 42 88 0 
C 44 88 0 
C 46 88 0 
C 48 88 0 
C 50 88 0 
C 52 88 0 
C 54 88 0 
C 56 88 0 
C 58 88 0 
C 60 88 0 
C 62 88 0 
C 64 88 0 
C 66 88 0 
C 68 88 0 
C 70 88 0 
C 72 88 0 
C 74 88 0 
C 76 88 0 
C 78 88 0 
C 80 88 0 
C 82 88 0 
C 84 88 0 
C 86 88 0 
C 88 88 0 
C 90 88 0 
C 92 88 0 
C 94 88 0 
C 96 88 0 
C 98 88 0 
C 100 88 0 
C 0 90 0 
C 2 90 0 
C 4 90 0 
C 6 90 0 
C 8 90 0 
C 10 90 0 
C 12 90 0 
C 14 90 0 
C 16 90 0 
C 18 90 0 
C 20 90 0 
C 22 90 0 
C 24 90 0 
C 26 90 0 
C 28 90 0 
C 30 90 0 
C 32 90 0 
C 34 90 0 
C 36 90 0 
C 38 90 0 
C 40 90 0 
C 42 90 0 
C 44 90 0 
C 46 90 0 
C 48 90 0 
C 50 90 0 
C 52 90 0 
C 54 90 0 
C 56 90 0 
C 58 90 0 
C 60 90 0 
C 62 90 0 
C 64 90 0 
C 66 90 0 
C 68 90 0 
C 70 90 0 
C 72 90 0 
C 74 90 0 
C 76 90 0 
C 78 90 0 
C 80 90 0 
C 82 90 0 
C 84 90 0 
C 86 90 0 
C 88 90 0 
C 90 90 0 
C 92 90 0 
C 94 90 0 
C 96 90 0 
C 98 90 0 
C 100 90 0 
C 0 92 0 
C 2 92 0 
C 4 92 0 
C 6 92 0 
C 8 92 0 
C 10 92 0 
C 12 92 0 
C 14 92 0 
C 16 92 0 
C 18 92 0 
C 20 92 0 
C 22 92 0 
C 24 92 0 
C 26 92 0 
C 28 92 0 
C 30 92 0 
C 32 92 0 
C 34 92 0 
C 36 92 0 
C 38 92 0 
C 40 92 0 
C 42 92 0 
C 44 92 0 
C 46 92 0 
C 48 92 0 
C 50 92 0 
C 52 92 0 
C 54 92 0 
C 56 92 0 
C 58 92 0 
C 60 92 0 
C 62 92 0 
C 64 92 0 
C 66 92 0 
C 68 92 0 
C 70 92 0 
C 72 92 0 
C 74 92 0 
C 76 92 0 
C 78 92 0 
C 80 92 0 
C 82 92 0 
C 84 92 0 
C 86 92 0 
C 88 92 0 
C 90 92 0 
C 92 92 0 
C 94 92 0 
C 96 92 0 
C 98 92 0 
C 100 92 0 
C 0 94 0 
C 2 94 0 
C 4 94 0 
C 6 94 0 
C 8 94 0 
C 10 94 0 
C 12 94 0 
C 14 94 0 
C 16 94 0 
C 18 94 0 
C 20 94 0 
C 22 94 0 
C 24 94 0 
C 26 94 0 
C 28 94 0 
C 30 94 0 
C 32 94 0 
C 34 94 0 
C 36 94 0 
C 38 94 0 
C 40 94 0 
C 42 94 0 
C 44 94 0 
C 46 94 0 
C 48 94 0 
C 50 94 0 
C 52 94 0 
C 54 94 0 
C 56 94 0 
C 58 94 0 
C 60 94 0 
C 62 94 0 
C 64 94 0 
C 66 94 0 
C 68 94 0 
C 70 94 0 
C 72 94 0 
C 74 94 0 
C 76 94 0 
C 78 94 0 
C 80 94 0 
C 82 94 0 
C 84 94 0 
C 86 94 0 
C 88 94 0 
C 90 94 0 
C 92 94 0 
C 94 94 0 
C 96 94 0 
C 98 94 0 
C 100 94 0 
C 0 96 0 
C 2 96 0 
C 4 96 0 
C 6 96 0 
C 8 96 0 
C 10 96 0 
C 12 96 0 
C 14 96 0 
C 16 96 0 
C 18 96 0 
C 20 96 0 
C 22 96 0 
C 24 96 0 
C 26 96 0 
C 28 96 0 
C 30 96 0 
C 32 96 0 
C 34 96 0 
C 36 96 0 
C 38 96 0 
C 40 96 0 
C 42 96 0 
C 44 96 0 
C 46 96 0 
C 48 96 0 
C 50 96 0 
C 52 96 0 
C 54 96 0 
C 56 96 0 
C 58 96 0 
C 60 96 0 
C 62 96 0 
C 64 96 0 
C 66 96 0 
C 68 96 0 
C 70 96 0 
C 72 96 0 
C 74 96 0 
C 76 96 0 
C 78 96 0 
C 80 96 0 
C 82 96 0 
C 84 96 0 
C 86 96 0 
C 88 96 0 
C 90 96 0 
C 92 96 0 
C 94 96 0 
C 96 96 0 
C 98 96 0 
C 100 96 0 
C 0 98 0 
C 2 98 0 
C 4 98 0 
C 6 98 0 
C 8 98 0 
C 10 98 0 
C 12 98 0 
C 14 98 0 
C 16 98 0 
C 18 98 0 
C 20 98 0 
C 22 98 0 
C 24 98 0 
C 26 98 0 
C 28 98 0 
C 30 98 0 
C 32 98 0 
C 34 98 0 
C 36 98 0 
C 38 98 0 
C 40 98 0 
C 42 98 0 
C 44 98 0 
C 46 98 0 
C 48 98 0 
C 50 98 0 
C 52 98 0 
C 54 98 0 
C 56 98 0 
C 58 98 0 
C 60 98 0 
C 62 98 0 
C 64 98 0 
C 66 98 0 
C 68 98 0 
C 70 98 0 
C 72 98 0 
C 74 98 0 
C 76 98 0 
C 78 98 0 
C 80 98 0 
C 82 98 0 
C 84 98 0 
C 86 98 0 
C 88 98 0 
C 90 98 0 
C 92 98 0 
C 94 98 0 
C 96 98 0 
C 98 98 0 
C 100 98 0 
C 0 100 0 
C 2 100 0 
C 4 100 0 
C 6 100 0 
C 8 100 0 
C 10 100 0 
C 12 100 0 
C 14 100 0 
C 16 100 0 
C 18 100 0 
C 20 100 0 
C 22 100 0 
C 24 100 0 
C 26 100 0 
C 28 100 0 
C 30 100 0 
C 32 100 0 
C 34 100 0 
C 36 100 0 
C 38 100 0 
C 40 100 0 
C 42 100 0 
C 44 100 0 
C 46 100 0 
C 48 100 0 
C 50 100 0 
C 52 100 0 
C 54 100 0 
C 56 100 0 
C 58 100 0 
C 60 100 0 
C 62 100 0 
C 64 100 0 
C 66 100 0 
C 68 100 0 
C 70 100 0 
C 72 100 0 
C 74 100 0 
C 76 100 0 
C 78 100 0 
C 80 100 0 
C 82 100 0 
C 84 100 0 
C 86 100 0 
C 88 100 0 
C 90 100 0 
C 92 100 0 
C 94 100 0 
C 96 100 0 
C 98 100 0 
C 100 100 0 
O 16 17 0 
O 79 64 0 
O 49 59 0 
3101
Atoms. Timestep: 6
N 89 18 0 
N 27 57 0 
N 17 69 0 
N 53 95 0 
N 31 17 0 
N 61 24 0 
N 85 65 0 
N 8 53 0 
N 11 50 0 
N 50 33 0 
N 17 4 0 
N 61 32 0 
N 59 11 0 
N 79 75 0 
N 51 83 0 
N 50 59 0 
N 42 71 0 
N 7 86 0 
N 7 14 0 
N 87 23 0 
N 17 32 0 
N 73 14 0 
N 19 25 0 
N 48 71 0 
N 57 96 0 
N 16 85 0 
N 92 9 0 
N 58 99 0 
N 4 39 0 
N 33 50 0 
N 74 33 0 
N 59 16 0 
N 29 62 0 
N 3 43 0 
N 25 17 0 
N 81 53 0 
N 93 66 0 
N 63 3 0 
N 64 85 0 
N 92 3 0 
N 47 12 0 
N 25 95 0 
N 89 28 0 
N 31 61 0 
N 53 50 0 
N 57 21 0 
N 59 77 0 
N 51 41 0 
N 88 77 0 
N 23 15 0 
N 54 23 0 
N 40 43 0 
N 12 21 0 
N 19 33 0 
N 97 71 0 
N 15 78 0 
N 53 62 0 
N 84 11 0 
N 3 17 0 
N 71 66 0 
N 99 62 0 
N 74 97 0 
N 11 30 0 
N 77 80 0 
N 62 13 0 
N 11 55 0 
N 78 63 0 
N 84 33 0 
N 38 19 0 
N 68 33 0 
N 39 20 0 
N 13 94 0 
N 5 43 0 
N 17 74 0 
N 39 78 0 
N 28 21 0 
N 53 85 0 
N 14 33 0 
N 29 52 0 
N 69 12 0 
N 67 45 0 
N 93 23 0 
N 79 95 0 
N 91 45 0 
N 5 38 0 
N 9 24 0 
N 35 65 0 
N 3 74 0 
N 23 23 0 
N 83 81 0 
N 63 79 0 
N 93 91 0 
N 17 19 0 
N 88 59 0 
N 91 4 0 
N 65 2 0 
N 74 55 0 
N 94 15 0 
N 67 64 0 
N 15 31 0 
N 49 60 0 
N 60 95 0 
N 49 42 0 
N 92 13 0 
N 92 95 0 
N 53 91 0 
N 73 63 0 
N 70 47 0 
N 27 89 0 
N 20 73 0 
N 29 45 0 
N 79 63 0 
N 17 75 0 
N 77 13 0 
N 47 67 0 
N 50 51 0 
N 19 55 0 
N 1 70 0 
N 71 94 0 
N 17 97 0 
N 29 31 0 
N 60 79 0 
N 43 24 0 
N 54 59 0 
N 15 27 0 
N 77 8 0 
N 5 69 0 
N 5 5 0 
N 29 18 0 
N 94 81 0 
N 5 83 0 
N 71 43 0 
N 15 35 0 
N 65 91 0 
N 17 12 0 
N 15 76 0 
N 32 59 0 
N 85 45 0 
N 97 43 0 
N 85 21 0 
N 13 40 0 
N 75 75 0 
N 76 3 0 
N 55 8 0 
N 79 85 0 
N 48 91 0 
N 0 53 0 
N 45 58 0 
N 95 77 0 
N 59 89 0 
N 95 42 0 
N 85 71 0 
N 17 35 0 
N 11 93 0 
N 51 66 0 
N 17 82 0 
N 97 79 0 
N 6 69 0 
N 12 3 0 
N 15 37 0 
N 86 39 0 
N 46 57 0 
N 91 43 0 
N 19 2 0 
N 35 84 0 
N 36 75 0 
N 65 14 0 
N 88 87 0 
N 97 20 0 
N 49 67 0 
N 13 97 0 
N 78 37 0 
N 21 35 0 
N 19 18 0 
N 71 32 0 
N 43 92 0 
N 89 63 0 
N 49 0 0 
N 79 74 0 
N 79 82 0 
N 73 35 0 
N 19 6 0 
N 80 53 0 
N 47 57 0 
N 5 68 0 
N 8 65 0 
N 95 53 0 
N 65 77 0 
N 89 67 0 
N 21 17 0 
N 17 68 0 
N 3 91 0 
N 71 65 0 
N 17 79 0 
N 55 66 0 
N 96 21 0 
N 67 72 0 
N 93 21 0 
N 47 39 0 
N 97 35 0 
N 79 9 0 
N 63 87 0 
N 64 33 0 
N 47 98 0 
N 62 5 0 
N 35 64 0 
N 72 31 0 
N 55 44 0 
N 88 83 0 
N 93 57 0 
N 27 59 0 
N 27 64 0 
N 17 5 0 
N 95 19 0 
N 27 17 0 
N 13 73 0 
N 61 67 0 
N 53 64 0 
N 92 77 0 
N 23 84 0 
N 1 56 0 
N 84 27 0 
N 97 67 0 
N 56 31 0 
N 27 47 0 
N 95 80 0 
N 74 41 0 
N 89 50 0 
N 80 27 0 
N 95 72 0 
N 80 81 0 
N 56 51 0 
N 39 19 0 
N 83 75 0 
N 63 58 0 
N 81 61 0 
N 25 31 0 
N 71 83 0 
N 10 39 0 
N 27 15 0 
N 75 60 0 
N 21 64 0 
N 89 53 0 
N 11 22 0 
N 51 54 0 
N 17 3 0 
N 25 13 0 
N 26 63 0 
N 21 62 0 
N 15 16 0 
N 78 93 0 
N 49 59 0 
N 41 83 0 
N 21 23 0 
N 17 28 0 
N 17 25 0 
N 81 47 0 
N 54 39 0 
N 51 27 0 
N 16 79 0 
N 20 63 0 
N 3 34 0 
N 95 44 0 
N 15 28 0 
N 46 77 0 
N 94 87 0 
N 53 44 0 
N 77 46 0 
N 87 68 0 
N 53 47 0 
N 90 97 0 
N 17 9 0 
N 40 91 0 
N 13 2 0 
N 43 50 0 
N 52 55 0 
N 9 28 0 
N 27 39 0 
N 49 65 0 
N 12 33 0 
N 57 69 0 
N 18 17 0 
N 38 69 0 
N 69 25 0 
N 26 77 0 
N 65 18 0 
N 85 84 0 
N 48 47 0 
N 87 11 0 
N 89 5 0 
N 53 5 0 
N 37 19 0 
N 61 84 0 
N 61 3 0 
N 44 1 0 
N 27 79 0 
N 44 47 0 
N 17 63 0 
N 17 37 0 
N 87 46 0 
N 77 93 0 
N 7 55 0 
N 25 84 0 
N 18 95 0 
N 51 58 0 
N 59 7 0 
N 71 74 0 
N 11 45 0 
N 70 3 0 
N 19 87 0 
N 96 69 0 
N 38 53 0 
N 42 99 0 
N 14 29 0 
N 35 93 0 
N 35 73 0 
N 27 8 0 
N 69 43 0 
N 3 5 0 
N 49 20 0 
N 75 72 0 
N 9 13 0 
N 93 47 0 
N 29 66 0 
N 35 6 0 
N 68 3 0 
N 63 26 0 
N 97 2 0 
N 52 85 0 
N 17 45 0 
N 49 40 0 
N 85 3 0 
N 94 43 0 
N 67 21 0 
N 91 48 0 
N 48 33 0 
N 17 99 0 
N 13 92 0 
N 79 5 0 
N 79 62 0 
N 37 33 0 
N 24 33 0 
N 57 3 0 
N 81 39 0 
N 16 17 0 
N 16 93 0 
N 89 3 0 
N 49 92 0 
N 80 91 0 
N 59 82 0 
N 78 33 0 
N 63 78 0 
N 21 53 0 
N 95 56 0 
N 16 19 0 
N 49 29 0 
N 49 43 0 
N 33 3 0 
N 23 89 0 
N 49 58 0 
N 79 23 0 
N 59 37 0 
N 41 75 0 
N 34 29 0 
N 28 35 0 
N 1 41 0 
N 74 17 0 
N 51 50 0 
N 95 40 0 
N 97 45 0 
N 27 78 0 
N 68 9 0 
N 37 75 0 
N 62 27 0 
N 33 64 0 
N 41 8 0 
N 49 50 0 
N 91 15 0 
N 54 29 0 
N 78 91 0 
N 25 6 0 
N 5 79 0 
N 38 7 0 
N 34 71 0 
N 33 63 0 
N 55 56 0 
N 61 55 0 
N 33 18 0 
N 81 44 0 
N 13 27 0 
N 81 98 0 
N 91 75 0 
N 51 94 0 
N 77 26 0 
N 96 45 0 
N 6 27 0 
N 51 4 0 
N 59 31 0 
N 79 77 0 
N 57 77 0 
N 81 82 0 
N 5 63 0 
N 2 49 0 
N 35 61 0 
N 17 77 0 
N 80 35 0 
N 38 65 0 
N 78 69 0 
N 86 47 0 
N 49 39 0 
N 71 8 0 
N 58 5 0 
N 87 7 0 
N 13 42 0 
N 92 5 0 
N 53 53 0 
N 16 53 0 
N 21 33 0 
N 70 45 0 
N 93 41 0 
N 89 72 0 
N 93 34 0 
N 15 80 0 
N 49 62 0 
N 91 63 0 
N 76 13 0 
N 42 53 0 
N 20 61 0 
N 77 29 0 
N 9 19 0 
N 19 79 0 
N 31 19 0 
N 76 15 0 
N 34 63 0 
N 63 55 0 
N 95 51 0 
N 85 46 0 
N 2 13 0 
N 56 85 0 
N 79 65 0 
N 64 1 0 
N 18 63 0 
N 26 5 0 
N 20 71 0 
N 17 39 0 
N 19 24 0 
N 72 77 0 
N 73 73 0 
N 23 59 0 
N 19 64 0 
N 65 76 0 
N 87 77 0 
N 94 29 0 
N 60 17 0 
N 71 35 0 
N 67 33 0 
N 39 57 0 
N 94 61 0 
N 79 64 0 
N 9 4 0 
N 40 83 0 
N 63 38 0 
N 16 31 0 
N 16 89 0 
N 28 59 0 
N 14 15 0 
N 3 24 0 
N 83 64 0 
N 56 77 0 
N 20 67 0 
N 44 77 0 
N 10 13 0 
N 16 1 0 
N 36 15 0 
N 90 23 0 
N 46 51 0 
N 1 63 0 
N 27 86 0 
N 39 64 0 
N 33 5 0 
N 52 59 0 
N 89 42 0 
N 89 95 0 
N 70 31 0 
N 53 45 0 
N 79 30 0 
N 19 89 0 
N 93 25 0 
N 73 30 0 
N 81 15 0 
N 41 80 0 
N 51 17 0 
N 37 17 0 
N 29 26 0 
N 37 73 0 
N 51 45 0 
N 1 61 0 
N 63 15 0 
N 37 71 0 
N 93 65 0 
C 0 0 0 
C 2 0 0 
C 4 0 0 
C 6 0 0 
C 8 0 0 
C 10 0 0 
C 12 0 0 
C 14 0 0 
C 16 0 0 
C 18 0 0 
C 20 0 0 
C 22 0 0 
C 24 0 0 
C 26 0 0 
C 28 0 0 
C 30 0 0 
C 32 0 0 
C 34 0 0 
C 36 0 0 
C 38 0 0 
C 40 0 0 
C 42 0 0 
C 44 0 0 
C 46 0 0 
C 48 0 0 
C 50 0 0 
C 52 0 0 
C 54 0 0 
C 56 0 0 
C 58 0 0 
C 60 0 0 
C 62 0 0 
C 64 0 0 
C 66 0 0 
C 68 0 0 
C 70 0 0 
C 72 0 0 
C 74 0 0 
C 76 0 0 
C 78 0 0 
C 80 0 0 
C 82 0 0 
C 84 0 0 
C 86 0 0 
C 88 0 0 
C 90 0 0 
C 92 0 0 
C 94 0 0 
C 96 0 0 
C 98 0 0 
C 100 0 0 
C 0 2 0 
C 2 2 0 
C 4 2 0 
C 6 2 0 
C 8 2 0 
C 10 2 0 
C 12 2 0 
C 14 2 0 
C 16 2 0 
C 18 2 0 
C 20 2 0 
C 22 2 0 
C 24 2 0 
C 26 2 0 
C 28 2 0 
C 30 2 0 
C 32 2 0 
C 34 2 0 
C 36 2 0 
C 38 2 0 
C 40 2 0 
C 42 2 0 
C 44 2 0 
C 46 2 0 
C 48 2 0 
C 50 2 0 
C 52 2 0 
C 54 2 0 
C 56 2 0 
C 58 2 0 
C 60 2 0 
C 62 2 0 
C 64 2 0 
C 66 2 0 
C 68 2 0 
C 70 2 0 
C 72 2 0 
C 74 2 0 
C 76 2 0 
C 78 2 0 
C 80 2 0 
C 82 2 0 
C 84 2 0 
C 86 2 0 
C 88 2 0 
C 90 2 0 
C 92 2 0 
C 94 2 0 
C 96 2 0 
C 98 2 0 
C 100 2 0 
C 0 4 0 
C 2 4 0 
C 4 4 0 
C 6 4 0 
C 8 4 0 
C 10 4 0 
C 12 4 0 
C 14 4 0 
C 16 4 0 
C 18 4 0 
C 20 4 0 
C 22 4 0 
C 24 4 0 
C 26 4 0 
C 28 4 0 
C 30 4 0 
C 32 4 0 
C 34 4 0 
C 36 4 0 
C 38 4 0 
C 40 4 0 
C 42 4 0 
C 44 4 0 
C 46 4 0 
C 48 4 0 
C 50 4 0 
C 52 4 0 
C 54 4 0 
C 56 4 0 
C 58 4 0 
C 60 4 0 
C 62 4 0 
C 64 4 0 
C 66 4 0 
C 68 4 0 
C 70 4 0 
C 72 4 0 
C 74 4 0 
C 76 4 0 
C 78 4 0 
C 80 4 0 
C 82 4 0 
C 84 4 0 
C 86 4 0 
C 88 4 0 
C 90 4 0 
C 92 4 0 
C 94 4 0 
C 96 4 0 
C 98 4 0 
C 100 4 0 
C 0 6 0 
C 2 6 0 
C 4 6 0 
C 6 6 0 
C 8 6 0 
C 10 6 0 
C 12 6 0 
C 14 6 0 
C 16 6 0 
C 18 6 0 
C 20 6 0 
C 22 6 0 
C 24 6 0 
C 26 6 0 
C 28 6 0 
C 30 6 0 
C 32 6 0 
C 34 6 0 
C 36 6 0 
C 38 6 0 
C 40 6 0 
C 42 6 0 
C 44 6 0 
C 46 6 0 
C 48 6 0 
C 50 6 0 
C 52 6 0 
C 54 6 0 
C 56 6 0 
C 58 6 0 
C 60 6 0 
C 62 6 0 
C 64 6 0 
C 66 6 0 
C 68 6 0 
C 70 6 0 
C 72 6 0 
C 74 6 0 
C 76 6 0 
C 78 6 0 
C 80 6 0 
C 82 6 0 
C 84 6 0 
C 86 6 0 
C 88 6 0 
C 90 6 0 
C 92 6 0 
C 94 6 0 
C 96 6 0 
C 98 6 0 
C 100 6 0 
C 0 8 0 
C 2 8 0 
C 4 8 0 
C 6 8 0 
C 8 8 0 
C 10 8 0 
C 12 8 0 
C 14 8 0 
C 16 8 0 
C 18 8 0 
C 20 8 0 
C 22 8 0 
C 24 8 0 
C 26 8 0 
C 28 8 0 
C 30 8 0 
C 32 8 0 
C 34 8 0 
C 36 8 0 
C 38 8 0 
C 40 8 0 
C 42 8 0 
C 44 8 0 
C 46 8 0 
C 48 8 0 
C 50 8 0 
C 52 8 0 
C 54 8 0 
C 56 8 0 
C 58 8 0 
C 60 8 0 
C 62 8 0 
C 64 8 0 
C 66 8 0 
C 68 8 0 
C 70 8 0 
C 72 8 0 
C 74 8 0 
C 76 8 0 
C 78 8 0 
C 80 8 0 
C 82 8 0 
C 84 8 0 
C 86 8 0 
C 88 8 0 
C 90 8 0 
C 92 8 0 
C 94 8 0 
C 96 8 0 
C 98 8 0 
C 100 8 0 
C 0 10 0 
C 2 10 0 
C 4 10 0 
C 6 10 0 
C 8 10 0 
C 10 10 0 
C 12 10 0 
C 14 10 0 
C 16 10 0 
C 18 10 0 
C 20 10 0 
C 22 10 0 
C 24 10 0 
C 26 10 0 
C 28 10 0 
C 30 10 0 
C 32 10 0 
C 34 10 0 
C 36 10 0 
C 38 10 0 
C 40 10 0 
C 42 10 0 
C 44 10 0 
C 46 10 0 
C 48 10 0 
C 50 10 0 
C 52 10 0 
C 54 10 0 
C 56 10 0 
C 58 10 0 
C 60 10 0 
C 62 10 0 
C 64 10 0 
C 66 10 0 
C 68 10 0 
C 70 10 0 
C 72 10 0 
C 74 10 0 
C 76 10 0 
C 78 10 0 
C 80 10 0 
C 82 10 0 
C 84 10 0 
C 86 10 0 
C 88 10 0 
C 90 10 0 
C 92 10 0 
C 94 10 0 
C 96 10 0 
C 98 10 0 
C 100 10 0 
C 0 12 0 
C 2 12 0 
C 4 12 0 
C 6 12 0 
C 8 12 0 
C 10 12 0 
C 12 12 0 
C 14 12 0 
C 16 12 0 
C 18 12 0 
C 20 12 0 
C 22 12 0 
C 24 12 0 
C 26 12 0 
C 28 12 0 
C 30 12 0 
C 32 12 0 
C 34 12 0 
C 36 12 0 
C 38 12 0 
C 40 12 0 
C 42 12 0 
C 44 12 0 
C 46 12 0 
C 48 12 0 
C 50 12 0 
C 52 12 0 
C 54 12 0 
C 56 12 0 
C 58 12 0 
C 60 12 0 
C 62 12 0 
C 64 12 0 
C 66 12 0 
C 68 12 0 
C 70 12 0 
C 72 12 0 
C 74 12 0 
C 76 12 0 
C 78 12 0 
C 80 12 0 
C 82 12 0 
C 84 12 0 
C 86 12 0 
C 88 12 0 
C 90 12 0 
C 92 12 0 
C 94 12 0 
C 96 12 0 
C 98 12 0 
C 100 12 0 
C 0 14 0 
C 2 14 0 
C 4 14 0 
C 6 14 0 
C 8 14 0 
C 10 14 0 
C 12 14 0 
C 14 14 0 
C 16 14 0 
C 18 14 0 
C 20 14 0 
C 22 14 0 
C 24 14 0 
C 26 14 0 
C 28 14 0 
C 30 14 0 
C 32 14 0 
C 34 14 0 
C 36 14 0 
C 38 14 0 
C 40 14 0 
C 42 14 0 
C 44 14 0 
C 46 14 0 
C 48 14 0 
C 50 14 0 
C 52 14 0 
C 54 14 0 
C 56 14 0 
C 58 14 0 
C 60 14 0 
C 62 14 0 
C 64 14 0 
C 66 14 0 
C 68 14 0 
C 70 14 0 
C 72 14 0 
C 74 14 0 
C 76 14 0 
C 78 14 0 
C 80 14 0 
C 82 14 0 
C 84 14 0 
C 86 14 0 
C 88 14 0 
C 90 14 0 
C 92 14 0 
C 94 14 0 
C 96 14 0 
C 98 14 0 
C 100 14 0 
C 0 16 0 
C 2 16 0 
C 4 16 0 
C 6 16 0 
C 8 16 0 
C 10 16 0 
C 12 16 0 
C 14 16 0 
C 16 16 0 
C 18 16 0 
C 20 16 0 
C 22 16 0 
C 24 16 0 
C 26 16 0 
C 28 16 0 
C 30 16 0 
C 32 16 0 
C 34 16 0 
C 36 16 0 
C 38 16 0 
C 40 16 0 
C 42 16 0 
C 44 16 0 
C 46 16 0 
C 48 16 0 
C 50 16 0 
C 52 16 0 
C 54 16 0 
C 56 16 0 
C 58 16 0 
C 60 16 0 
C 62 16 0 
C 64 16 0 
C 66 16 0 
C 68 16 0 
C 70 16 0 
C 72 16 0 
C 74 16 0 
C 76 16 0 
C 78 16 0 
C 80 16 0 
C 82 16 0 
C 84 16 0 
C 86 16 0 
C 88 16 0 
C 90 16 0 
C 92 16 0 
C 94 16 0 
C 96 16 0 
C 98 16 0 
C 100 16 0 
C 0 18 0 
C 2 18 0 
C 4 18 0 
C 6 18 0 
C 8 18 0 
C 10 18 0 
C 12 18 0 
C 14 18 0 
C 16 18 0 
C 18 18 0 
C 20 18 0 
C 22 18 0 
C 24 18 0 
C 26 18 0 
C 28 18 0 
C 30 18 0 
C 32 18 0 
C 34 18 0 
C 36 18 0 
C 38 18 0 
C 40 18 0 
C 42 18 0 
C 44 18 0 
C 46 18 0 
C 48 18 0 
C 50 18 0 
C 52 18 0 
C 54 18 0 
C 56 18 0 
C 58 18 0 
C 60 18 0 
C 62 18 0 
C 64 18 0 
C 66 18 0 
C 68 18 0 
C 70 18 0 
C 72 18 0 
C 74 18 0 
C 76 18 0 
C 78 18 0 
C 80 18 0 
C 82 18 0 
C 84 18 0 
C 86 18 0 
C 88 18 0 
C 90 18 0 
C 92 18 0 
C 94 18 0 
C 96 18 0 
C 98 18 0 
C 100 18 0 
C 0 20 0 
C 2 20 0 
C 4 20 0 
C 6 20 0 
C 8 20 0 
C 10 20 0 
C 12 20 0 
C 14 20 0 
C 16 20 0 
C 18 20 0 
C 20 20 0 
C 22 20 0 
C 24 20 0 
C 26 20 0 
C 28 20 0 
C 30 20 0 
C 32 20 0 
C 34 20 0 
C 36 20 0 
C 38 20 0 
C 40 20 0 
C 42 20 0 
C 44 20 0 
C 46 20 0 
C 48 20 0 
C 50 20 0 
C 52 20 0 
C 54 20 0 
C 56 20 0 
C 58 20 0 
C 60 20 0 
C 62 20 0 
C 64 20 0 
C 66 20 0 
C 68 20 0 
C 70 20 0 
C 72 20 0 
C 74 20 0 
C 76 20 0 
C 78 20 0 
C 80 20 0 
C 82 20 0 
C 84 20 0 
C 86 20 0 
C 88 20 0 
C 90 20 0 
C 92 20 0 
C 94 20 0 
C 96 20 0 
C 98 20 0 
C 100 20 0 
C 0 22 0 
C 2 22 0 
C 4 22 0 
C 6 22 0 
C 8 22 0 
C 10 22 0 
C 12 22 0 
C 14 22 0 
C 16 22 0 
C 18 22 0 
C 20 22 0 
C 22 22 0 
C 24 22 0 
C 26 22 0 
C 28 22 0 
C 30 22 0 
C 32 22 0 
C 34 22 0 
C 36 22 0 
C 38 22 0 
C 40 22 0 
C 42 22 0 
C 44 22 0 
C 46 22 0 
C 48 22 0 
C 50 22 0 
C 52 22 0 
C 54 22 0 
C 56 22 0 
C 58 22 0 
C 60 22 0 
C 62 22 0 
C 64 22 0 
C 66 22 0 
C 68 22 0 
C 70 22 0 
C 72 22 0 
C 74 22 0 
C 76 22 0 
C 78 22 0 
C 80 22 0 
C 82 22 0 
C 84 22 0 
C 86 22 0 
C 88 22 0 
C 90 22 0 
C 92 22 0 
C 94 22 0 
C 96 22 0 
C 98 22 0 
C 100 22 0 
C 0 24 0 
C 2 24 0 
C 4 24 0 
C 6 24 0 
C 8 24 0 
C 10 24 0 
C 12 24 0 
C 14 24 0 
C 16 24 0 
C 18 24 0 
C 20 24 0 
C 22 24 0 
C 24 24 0 
C 26 24 0 
C 28 24 0 
C 30 24 0 
C 32 24 0 
C 34 24 0 
C 36 24 0 
C 38 24 0 
C 40 24 0 
C 42 24 0 
C 44 24 0 
C 46 24 0 
C 48 24 0 
C 50 24 0 
C 52 24 0 
C 54 24 0 
C 56 24 0 
C 58 24 0 
C 60 24 0 
C 62 24 0 
C 64 24 0 
C 66 24 0 
C 68 24 0 
C 70 24 0 
C 72 24 0 
C 74 24 0 
C 76 24 0 
C 78 24 0 
C 80 24 0 
C 82 24 0 
C 84 24 0 
C 86 24 0 
C 88 24 0 
C 90 24 0 
C 92 24 0 
C 94 24 0 
C 96 24 0 
C 98 24 0 
C 100 24 0 
C 0 26 0 
C 2 26 0 
C 4 26 0 
C 6 26 0 
C 8 26 0 
C 10 26 0 
C 12 26 0 
C 14 26 0 
C 16 26 0 
C 18 26 0 
C 20 26 0 
C 22 26 0 
C 24 26 0 
C 26 26 0 
C 28 26 0 
C 30 26 0 
C 32 26 0 
C 34 26 0 
C 36 26 0 
C 38 26 0 
C 40 26 0 
C 42 26 0 
C 44 26 0 
C 46 26 0 
C 48 26 0 
C 50 26 0 
C 52 26 0 
C 54 26 0 
C 56 26 0 
C 58 26 0 
C 60 26 0 
C 62 26 0 
C 64 26 0 
C 66 26 0 
C 68 26 0 
C 70 26 0 
C 72 26 0 
C 74 26 0 
C 76 26 0 
C 78 26 0 
C 80 26 0 
C 82 26 0 
C 84 26 0 
C 86 26 0 
C 88 26 0 
C 90 26 0 
C 92 26 0 
C 94 26 0 
C 96 26 0 
C 98 26 0 
C 100 26 0 
C 0 28 0 
C 2 28 0 
C 4 28 0 
C 6 28 0 
C 8 28 0 
C 10 28 0 
C 12 28 0 
C 14 28 0 
C 16 28 0 
C 18 28 0 
C 20 28 0 
C 22 28 0 
C 24 28 0 
C 26 28 0 
C 28 28 0 
C 30 28 0 
C 32 28 0 
C 34 28 0 
C 36 28 0 
C 38 28 0 
C 40 28 0 
C 42 28 0 
C 44 28 0 
C 46 28 0 
C 48 28 0 
C 50 28 0 
C 52 28 0 
C 54 28 0 
C 56 28 0 
C 58 28 0 
C 60 28 0 
C 62 28 0 
C 64 28 0 
C 66 28 0 
C 68 28 0 
C 70 28 0 
C 72 28 0 
C 74 28 0 
C 76 28 0 
C 78 28 0 
C 80 28 0 
C 82 28 0 
C 84 28 0 
C 86 28 0 
C 88 28 0 
C 90 28 0 
C 92 28 0 
C 94 28 0 
C 96 28 0 
C 98 28 0 
C 100 28 0 
C 0 30 0 
C 2 30 0 
C 4 30 0 
C 6 30 0 
C 8 30 0 
C 10 30 0 
C 12 30 0 
C 14 30 0 
C 16 30 0 
C 18 30 0 
C 20 30 0 
C 22 30 0 
C 24 30 0 
C 26 30 0 
C 28 30 0 
C 30 30 0 
C 32 30 0 
C 34 30 0 
C 36 30 0 
C 38 30 0 
C 40 30 0 
C 42 30 0 
C 44 30 0 
C 46 30 0 
C 48 30 0 
C 50 30 0 
C 52 30 0 
C 54 30 0 
C 56 30 0 
C 58 30 0 
C 60 30 0 
C 62 30 0 
C 64 30 0 
C 66 30 0 
C 68 30 0 
C 70 30 0 
C 72 30 0 
C 74 30 0 
C 76 30 0 
C 78 30 0 
C 80 30 0 
C 82 30 0 
C 84 30 0 
C 86 30 0 
C 88 30 0 
C 90 30 0 
C 92 30 0 
C 94 30 0 
C 96 30 0 
C 98 30 0 
C 100 30 0 
C 0 32 0 
C 2 32 0 
C 4 32 0 
C 6 32 0 
C 8 32 0 
C 10 32 0 
C 12 32 0 
C 14 32 0 
C 16 32 0 
C 18 32 0 
C 20 32 0 
C 22 32 0 
C 24 32 0 
C 26 32 0 
C 28 32 0 
C 30 32 0 
C 32 32 0 
C 34 32 0 
C 36 32 0 
C 38 32 0 
C 40 32 0 
C 42 32 0 
C 44 32 0 
C 46 32 0 
C 48 32 0 
C 50 32 0 
C 52 32 0 
C 54 32 0 
C 56 32 0 
C 58 32 0 
C 60 32 0 
C 62 32 0 
C 64 32 0 
C 66 32 0 
C 68 32 0 
C 70 32 0 
C 72 32 0 
C 74 32 0 
C 76 32 0 
C 78 32 0 
C 80 32 0 
C 82 32 0 
C 84 32 0 
C 86 32 0 
C 88 32 0 
C 90 32 0 
C 92 32 0 
C 94 32 0 
C 96 32 0 
C 98 32 0 
C 100 32 0 
C 0 34 0 
C 2 34 0 
C 4 34 0 
C 6 34 0 
C 8 34 0 
C 10 34 0 
C 12 34 0 
C 14 34 0 
C 16 34 0 
C 18 34 0 
C 20 34 0 
C 22 34 0 
C 24 34 0 
C 26 34 0 
C 28 34 0 
C 30 34 0 
C 32 34 0 
C 34 34 0 
C 36 34 0 
C 38 34 0 
C 40 34 0 
C 42 34 0 
C 44 34 0 
C 46 34 0 
C 48 34 0 
C 50 34 0 
C 52 34 0 
C 54 34 0 
C 56 34 0 
C 58 34 0 
C 60 34 0 
C 62 34 0 
C 64 34 0 
C 66 34 0 
C 68 34 0 
C 70 34 0 
C 72 34 0 
C 74 34 0 
C 76 34 0 
C 78 34 0 
C 80 34 0 
C 82 34 0 
C 84 34 0 
C 86 34 0 
C 88 34 0 
C 90 34 0 
C 92 34 0 
C 94 34 0 
C 96 34 0 
C 98 34 0 
C 100 34 0 
C 0 36 0 
C 2 36 0 
C 4 36 0 
C 6 36 0 
C 8 36 0 
C 10 36 0 
C 12 36 0 
C 14 36 0 
C 16 36 0 
C 18 36 0 
C 20 36 0 
C 22 36 0 
C 24 36 0 
C 26 36 0 
C 28 36 0 
C 30 36 0 
C 32 36 0 
C 34 36 0 
C 36 36 0 
C 38 36 0 
C 40 36 0 
C 42 36 0 
C 44 36 0 
C 46 36 0 
C 48 36 0 
C 50 36 0 
C 52 36 0 
C 54 36 0 
C 56 36 0 
C 58 36 0 
C 60 36 0 
C 62 36 0 
C 64 36 0 
C 66 36 0 
C 68 36 0 
C 70 36 0 
C 72 36 0 
C 74 36 0 
C 76 36 0 
C 78 36 0 
C 80 36 0 
C 82 36 0 
C 84 36 0 
C 86 36 0 
C 88 36 0 
C 90 36 0 
C 92 36 0 
C 94 36 0 
C 96 36 0 
C 98 36 0 
C 100 36 0 
C 0 38 0 
C 2 38 0 
C 4 38 0 
C 6 38 0 
C 8 38 0 
C 10 38 0 
C 12 38 0 
C 14 38 0 
C 16 38 0 
C 18 38 0 
C 20 38 0 
C 22 38 0 
C 24 38 0 
C 26 38 0 
C 28 38 0 
C 30 38 0 
C 32 38 0 
C 34 38 0 
C 36 38 0 
C 38 38 0 
C 40 38 0 
C 42 38 0 
C 44 38 0 
C 46 38 0 
C 48 38 0 
C 50 38 0 
C 52 38 0 
C 54 38 0 
C 56 38 0 
C 58 38 0 
C 60 38 0 
C 62 38 0 
C 64 38 0 
C 66 38 0 
C 68 38 0 
C 70 38 0 
C 72 38 0 
C 74 38 0 
C 76 38 0 
C 78 38 0 
C 80 38 0 
C 82 38 0 
C 84 38 0 
C 86 38 0 
C 88 38 0 
C 90 38 0 
C 92 38 0 
C 94 38 0 
C 96 38 0 
C 98 38 0 
C 100 38 0 
C 0 40 0 
C 2 40 0 
C 4 40 0 
C 6 40 0 
C 8 40 0 
C 10 40 0 
C 12 40 0 
C 14 40 0 
C 16 40 0 
C 18 40 0 
C 20 40 0 
C 22 40 0 
C 24 40 0 
C 26 40 0 
C 28 40 0 
C 30 40 0 
C 32 40 0 
C 34 40 0 
C 36 40 0 
C 38 40 0 
C 40 40 0 
C 42 40 0 
C 44 40 0 
C 46 40 0 
C 48 40 0 
C 50 40 0 
C 52 40 0 
C 54 40 0 
C 56 40 0 
C 58 40 0 
C 60 40 0 
C 62 40 0 
C 64 40 0 
C 66 40 0 
C 68 40 0 
C 70 40 0 
C 72 40 0 
C 74 40 0 
C 76 40 0 
C 78 40 0 
C 80 40 0 
C 82 40 0 
C 84 40 0 
C 86 40 0 
C 88 40 0 
C 90 40 0 
C 92 40 0 
C 94 40 0 
C 96 40 0 
C 98 40 0 
C 100 40 0 
C 0 42 0 
C 2 42 0 
C 4 42 0 
C 6 42 0 
C 8 42 0 
C 10 42 0 
C 12 42 0 
C 14 42 0 
C 16 42 0 
C 18 42 0 
C 20 42 0 
C 22 42 0 
C 24 42 0 
C 26 42 0 
C 28 42 0 
C 30 42 0 
C 32 42 0 
C 34 42 0 
C 36 42 0 
C 38 42 0 
C 40 42 0 
C 42 42 0 
C 44 42 0 
C 46 42 0 
C 48 42 0 
C 50 42 0 
C 52 42 0 
C 54 42 0 
C 56 42 0 
C 58 42 0 
C 60 42 0 
C 62 42 0 
C 64 42 0 
C 66 42 0 
C 68 42 0 
C 70 42 0 
C 72 42 0 
C 74 42 0 
C 76 42 0 
C 78 42 0 
C 80 42 0 
C 82 42 0 
C 84 42 0 
C 86 42 0 
C 88 42 0 
C 90 42 0 
C 92 42 0 
C 94 42 0 
C 96 42 0 
C 98 42 0 
C 100 42 0 
C 0 44 0 
C 2 44 0 
C 4 44 0 
C 6 44 0 
C 8 44 0 
C 10 44 0 
C 12 44 0 
C 14 44 0 
C 16 44 0 
C 18 44 0 
C 20 44 0 
C 22 44 0 
C 24 44 0 
C 26 44 0 
C 28 44 0 
C 30 44 0 
C 32 44 0 
C 34 44 0 
C 36 44 0 
C 38 44 0 
C 40 44 0 
C 42 44 0 
C 44 44 0 
C 46 44 0 
C 48 44 0 
C 50 44 0 
C 52 44 0 
C 54 44 0 
C 56 44 0 
C 58 44 0 
C 60 44 0 
C 62 44 0 
C 64 44 0 
C 66 44 0 
C 68 44 0 
C 70 44 0 
C 72 44 0 
C 74 44 0 
C 76 44 0 
C 78 44 0 
C 80 44 0 
C 82 44 0 
C 84 44 0 
C 86 44 0 
C 88 44 0 
C 90 44 0 
C 92 44 0 
C 94 44 0 
C 96 44 0 
C 98 44 0 
C 100 44 0 
C 0 46 0 
C 2 46 0 
C 4 46 0 
C 6 46 0 
C 8 46 0 
C 10 46 0 
C 12 46 0 
C 14 46 0 
C 16 46 0 
C 18 46 0 
C 20 46 0 
C 22 46 0 
C 24 46 0 
C 26 46 0 
C 28 46 0 
C 30 46 0 
C 32 46 0 
C 34 46 0 
C 36 46 0 
C 38 46 0 
C 40 46 0 
C 42 46 0 
C 44 46 0 
C 46 46 0 
C 48 46 0 
C 50 46 0 
C 52 46 0 
C 54 46 0 
C 56 46 0 
C 58 46 0 
C 60 46 0 
C 62 46 0 
C 64 46 0 
C 66 46 0 
C 68 46 0 
C 70 46 0 
C 72 46 0 
C 74 46 0 
C 76 46 0 
C 78 46 0 
C 80 46 0 
C 82 46 0 
C 84 46 0 
C 86 46 0 
C 88 46 0 
C 90 46 0 
C 92 46 0 
C 94 46 0 
C 96 46 0 
C 98 46 0 
C 100 46 0 
C 0 48 0 
C 2 48 0 
C 4 48 0 
C 6 48 0 
C 8 48 0 
C 10 48 0 
C 12 48 0 
C 14 48 0 
C 16 48 0 
C 18 48 0 
C 20 48 0 
C 22 48 0 
C 24 48 0 
C 26 48 0 
C 28 48 0 
C 30 48 0 
C 32 48 0 
C 34 48 0 
C 36 48 0 
C 38 48 0 
C 40 48 0 
C 42 48 0 
C 44 48 0 
C 46 48 0 
C 48 48 0 
C 50 48 0 
C 52 48 0 
C 54 48 0 
C 56 48 0 
C 58 48 0 
C 60 48 0 
C 62 48 0 
C 64 48 0 
C 66 48 0 
C 68 48 0 
C 70 48 0 
C 72 48 0 
C 74 48 0 
C 76 48 0 
C 78 48 0 
C 80 48 0 
C 82 48 0 
C 84 48 0 
C 86 48 0 
C 88 48 0 
C 90 48 0 
C 92 48 0 
C 94 48 0 
C 96 48 0 
C 98 48 0 
C 100 48 0 
C 0 50 0 
C 2 50 0 
C 4 50 0 
C 6 50 0 
C 8 50 0 
C 10 50 0 
C 12 50 0 
C 14 50 0 
C 16 50 0 
C 18 50 0 
C 20 50 0 
C 22 50 0 
C 24 50 0 
C 26 50 0 
C 28 50 0 
C 30 50 0 
C 32 50 0 
C 34 50 0 
C 36 50 0 
C 38 50 0 
C 40 50 0 
C 42 50 0 
C 44 50 0 
C 46 50 0 
C 48 50 0 
C 50 50 0 
C 52 50 0 
C 54 50 0 
C 56 50 0 
C 58 50 0 
C 60 50 0 
C 62 50 0 
C 64 50 0 
C 66 50 0 
C 68 50 0 
C 70 50 0 
C 72 50 0 
C 74 50 0 
C 76 50 0 
C 78 50 0 
C 80 50 0 
C 82 50 0 
C 84 50 0 
C 86 50 0 
C 88 50 0 
C 90 50 0 
C 92 50 0 
C 94 50 0 
C 96 50 0 
C 98 50 0 
C 100 50 0 
C 0 52 0 
C 2 52 0 
C 4 52 0 
C 6 52 0 
C 8 52 0 
C 10 52 0 
C 12 52 0 
C 14 52 0 
C 16 52 0 
C 18 52 0 
C 20 52 0 
C 22 52 0 
C 24 52 0 
C 26 52 0 
C 28 52 0 
C 30 52 0 
C 32 52 0 
C 34 52 0 
C 36 52 0 
C 38 52 0 
C 40 52 0 
C 42 52 0 
C 44 52 0 
C 46 52 0 
C 48 52 0 
C 50 52 0 
C 52 52 0 
C 54 52 0 
C 56 52 0 
C 58 52 0 
C 60 52 0 
C 62 52 0 
C 64 52 0 
C 66 52 0 
C 68 52 0 
C 70 52 0 
C 72 52 0 
C 74 52 0 
C 76 52 0 
C 78 52 0 
C 80 52 0 
C 82 52 0 
C 84 52 0 
C 86 52 0 
C 88 52 0 
C 90 52 0 
C 92 52 0 
C 94 52 0 
C 96 52 0 
C 98 52 0 
C 100 52 0 
C 0 54 0 
C 2 54 0 
C 4 54 0 
C 6 54 0 
C 8 54 0 
C 10 54 0 
C 12 54 0 
C 14 54 0 
C 16 54 0 
C 18 54 0 
C 20 54 0 
C 22 54 0 
C 24 54 0 
C 26 54 0 
C 28 54 0 
C 30 54 0 
C 32 54 0 
C 34 54 0 
C 36 54 0 
C 38 54 0 
C 40 54 0 
C 42 54 0 
C 44 54 0 
C 46 54 0 
C 48 54 0 
C 50 54 0 
C 52 54 0 
C 54 54 0 
C 56 54 0 
C 58 54 0 
C 60 54 0 
C 62 54 0 
C 64 54 0 
C 66 54 0 
C 68 54 0 
C 70 54 0 
C 72 54 0 
C 74 54 0 
C 76 54 0 
C 78 54 0 
C 80 54 0 
C 82 54 0 
C 84 54 0 
C 86 54 0 
C 88 54 0 
C 90 54 0 
C 92 54 0 
C 94 54 0 
C 96 54 0 
C 98 54 0 
C 100 54 0 
C 0 56 0 
C 2 56 0 
C 4 56 0 
C 6 56 0 
C 8 56 0 
C 10 56 0 
C 12 56 0 
C 14 56 0 
C 16 56 0 
C 18 56 0 
C 20 56 0 
C 22 56 0 
C 24 56 0 
C 26 56 0 
C 28 56 0 
C 30 56 0 
C 32 56 0 
C 34 56 0 
C 36 56 0 
C 38 56 0 
C 40 56 0 
C 42 56 0 
C 44 56 0 
C 46 56 0 
C 48 56 0 
C 50 56 0 
C 52 56 0 
C 54 56 0 
C 56 56 0 
C 58 56 0 
C 60 56 0 
C 62 56 0 
C 64 56 0 
C 66 56 0 
C 68 56 0 
C 70 56 0 
C 72 56 0 
C 74 56 0 
C 76 56 0 
C 78 56 0 
C 80 56 0 
C 82 56 0 
C 84 56 0 
C 86 56 0 
C 88 56 0 
C 90 56 0 
C 92 56 0 
C 94 56 0 
C 96 56 0 
C 98 56 0 
C 100 56 0 
C 0 58 0 
C 2 58 0 
C 4 58 0 
C 6 58 0 
C 8 58 0 
C 10 58 0 
C 12 58 0 
C 14 58 0 
C 16 58 0 
C 18 58 0 
C 20 58 0 
C 22 58 0 
C 24 58 0 
C 26 58 0 
C 28 58 0 
C 30 58 0 
C 32 58 0 
C 34 58 0 
C 36 58 0 
C 38 58 0 
C 40 58 0 
C 42 58 0 
C 44 58 0 
C 46 58 0 
C 48 58 0 
C 50 58 0 
C 52 58 0 
C 54 58 0 
C 56 58 0 
C 58 58 0 
C 60 58 0 
C 62 58 0 
C 64 58 0 
C 66 58 0 
C 68 58 0 
C 70 58 0 
C 72 58 0 
C 74 58 0 
C 76 58 0 
C 78 58 0 
C 80 58 0 
C 82 58 0 
C 84 58 0 
C 86 58 0 
C 88 58 0 
C 90 58 0 
C 92 58 0 
C 94 58 0 
C 96 58 0 
C 98 58 0 
C 100 58 0 
C 0 60 0 
C 2 60 0 
C 4 60 0 
C 6 60 0 
C 8 60 0 
C 10 60 0 
C 12 60 0 
C 14 60 0 
C 16 60 0 
C 18 60 0 
C 20 60 0 
C 22 60 0 
C 24 60 0 
C 26 60 0 
C 28 60 0 
C 30 60 0 
C 32 60 0 
C 34 60 0 
C 36 60 0 
C 38 60 0 
C 40 60 0 
C 42 60 0 
C 44 60 0 
C 46 60 0 
C 48 60 0 
C 50 60 0 
C 52 60 0 
C 54 60 0 
C 56 60 0 
C 58 60 0 
C 60 60 0 
C 62 60 0 
C 64 60 0 
C 66 60 0 
C 68 60 0 
C 70 60 0 
C 72 60 0 
C 74 60 0 
C 76 60 0 
C 78 60 0 
C 80 60 0 
C 82 60 0 
C 84 60 0 
C 86 60 0 
C 88 60 0 
C 90 60 0 
C 92 60 0 
C 94 60 0 
C 96 60 0 
C 98 60 0 
C 100 60 0 
C 0 62 0 
C 2 62 0 
C 4 62 0 
C 6 62 0 
C 8 62 0 
C 10 62 0 
C 12 62 0 
C 14 62 0 
C 16 62 0 
C 18 62 0 
C 20 62 0 
C 22 62 0 
C 24 62 0 
C 26 62 0 
C 28 62 0 
C 30 62 0 
C 32 62 0 
C 34 62 0 
C 36 62 0 
C 38 62 0 
C 40 62 0 
C 42 62 0 
C 44 62 0 
C 46 62 0 
C 48 62 0 
C 50 62 0 
C 52 62 0 
C 54 62 0 
C 56 62 0 
C 58 62 0 
C 60 62 0 
C 62 62 0 
C 64 62 0 
C 66 62 0 
C 68 62 0 
C 70 62 0 
C 72 62 0 
C 74 62 0 
C 76 62 0 
C 78 62 0 
C 80 62 0 
C 82 62 0 
C 84 62 0 
C 86 62 0 
C 88 62 0 
C 90 62 0 
C 92 62 0 
C 94 62 0 
C 96 62 0 
C 98 62 0 
C 100 62 0 
C 0 64 0 
C 2 64 0 
C 4 64 0 
C 6 64 0 
C 8 64 0 
C 10 64 0 
C 12 64 0 
C 14 64 0 
C 16 64 0 
C 18 64 0 
C 20 64 0 
C 22 64 0 
C 24 64 0 
C 26 64 0 
C 28 64 0 
C 30 64 0 
C 32 64 0 
C 34 64 0 
C 36 64 0 
C 38 64 0 
C 40 64 0 
C 42 64 0 
C 44 64 0 
C 46 64 0 
C 48 64 0 
C 50 64 0 
C 52 64 0 
C 54 64 0 
C 56 64 0 
C 58 64 0 
C 60 64 0 
C 62 64 0 
C 64 64 0 
C 66 64 0 
C 68 64 0 
C 70 64 0 
C 72 64 0 
C 74 64 0 
C 76 64 0 
C 78 64 0 
C 80 64 0 
C 82 64 0 
C 84 64 0 
C 86 64 0 
C 88 64 0 
C 90 64 0 
C 92 64 0 
C 94 64 0 
C 96 64 0 
C 98 64 0 
C 100 64 0 
C 0 66 0 
C 2 66 0 
C 4 66 0 
C 6 66 0 
C 8 66 0 
C 10 66 0 
C 12 66 0 
C 14 66 0 
C 16 66 0 
C 18 66 0 
C 20 66 0 
C 22 66 0 
C 24 66 0 
C 26 66 0 
C 28 66 0 
C 30 66 0 
C 32 66 0 
C 34 66 0 
C 36 66 0 
C 38 66 0 
C 40 66 0 
C 42 66 0 
C 44 66 0 
C 46 66 0 
C 48 66 0 
C 50 66 0 
C 52 66 0 
C 54 66 0 
C 56 66 0 
C 58 66 0 
C 60 66 0 
C 62 66 0 
C 64 66 0 
C 66 66 0 
C 68 66 0 
C 70 66 0 
C 72 66 0 
C 74 66 0 
C 76 66 0 
C 78 66 0 
C 80 66 0 
C 82 66 0 
C 84 66 0 
C 86 66 0 
C 88 66 0 
C 90 66 0 
C 92 66 0 
C 94 66 0 
C 96 66 0 
C 98 66 0 
C 100 66 0 
C 0 68 0 
C 2 68 0 
C 4 68 0 
C 6 68 0 
C 8 68 0 
C 10 68 0 
C 12 68 0 
C 14 68 0 
C 16 68 0 
C 18 68 0 
C 20 68 0 
C 22 68 0 
C 24 68 0 
C 26 68 0 
C 28 68 0 
C 30 68 0 
C 32 68 0 
C 34 68 0 
C 36 68 0 
C 38 68 0 
C 40 68 0 
C 42 68 0 
C 44 68 0 
C 46 68 0 
C 48 68 0 
C 50 68 0 
C 52 68 0 
C 54 68 0 
C 56 68 0 
C 58 68 0 
C 60 68 0 
C 62 68 0 
C 64 68 0 
C 66 68 0 
C 68 68 0 
C 70 68 0 
C 72 68 0 
C 74 68 0 
C 76 68 0 
C 78 68 0 
C 80 68 0 
C 82 68 0 
C 84 68 0 
C 86 68 0 
C 88 68 0 
C 90 68 0 
C 92 68 0 
C 94 68 0 
C 96 68 0 
C 98 68 0 
C 100 68 0 
C 0 70 0 
C 2 70 0 
C 4 70 0 
C 6 70 0 
C 8 70 0 
C 10 70 0 
C 12 70 0 
C 14 70 0 
C 16 70 0 
C 18 70 0 
C 20 70 0 
C 22 70 0 
C 24 70 0 
C 26 70 0 
C 28 70 0 
C 30 70 0 
C 32 70 0 
C 34 70 0 
C 36 70 0 
C 38 70 0 
C 40 70 0 
C 42 70 0 
C 44 70 0 
C 46 70 0 
C 48 70 0 
C 50 70 0 
C 52 70 0 
C 54 70 0 
C 56 70 0 
C 58 70 0 
C 60 70 0 
C 62 70 0 
C 64 70 0 
C 66 70 0 
C 68 70 0 
C 70 70 0 
C 72 70 0 
C 74 70 0 
C 76 70 0 
C 78 70 0 
C 80 70 0 
C 82 70 0 
C 84 70 0 
C 86 70 0 
C 88 70 0 
C 90 70 0 
C 92 70 0 
C 94 70 0 
C 96 70 0 
C 98 70 0 
C 100 70 0 
C 0 72 0 
C 2 72 0 
C 4 72 0 
C 6 72 0 
C 8 72 0 
C 10 72 0 
C 12 72 0 
C 14 72 0 
C 16 72 0 
C 18 72 0 
C 20 72 0 
C 22 72 0 
C 24 72 0 
C 26 72 0 
C 28 72 0 
C 30 72 0 
C 32 72 0 
C 34 72 0 
C 36 72 0 
C 38 72 0 
C 40 72 0 
C 42 72 0 
C 44 72 0 
C 46 72 0 
C 48 72 0 
C 50 72 0 
C 52 72 0 
C 54 72 0 
C 56 72 0 
C 58 72 0 
C 60 72 0 
C 62 72 0 
C 64 72 0 
C 66 72 0 
C 68 72 0 
C 70 72 0 
C 72 72 0 
C 74 72 0 
C 76 72 0 
C 78 72 0 
C 80 72 0 
C 82 72 0 
C 84 72 0 
C 86 72 0 
C 88 72 0 
C 90 72 0 
C 92 72 0 
C 94 72 0 
C 96 72 0 
C 98 72 0 
C 100 72 0 
C 0 74 0 
C 2 74 0 
C 4 74 0 
C 6 74 0 
C 8 74 0 
C 10 74 0 
C 12 74 0 
C 14 74 0 
C 16 74 0 
C 18 74 0 
C 20 74 0 
C 22 74 0 
C 24 74 0 
C 26 74 0 
C 28 74 0 
C 30 74 0 
C 32 74 0 
C 34 74 0 
C 36 74 0 
C 38 74 0 
C 40 74 0 
C 42 74 0 
C 44 74 0 
C 46 74 0 
C 48 74 0 
C 50 74 0 
C 52 74 0 
C 54 74 0 
C 56 74 0 
C 58 74 0 
C 60 74 0 
C 62 74 0 
C 64 74 0 
C 66 74 0 
C 68 74 0 
C 70 74 0 
C 72 74 0 
C 74 74 0 
C 76 74 0 
C 78 74 0 
C 80 74 0 
C 82 74 0 
C 84 74 0 
C 86 74 0 
C 88 74 0 
C 90 74 0 
C 92 74 0 
C 94 74 0 
C 96 74 0 
C 98 74 0 
C 100 74 0 
C 0 76 0 
C 2 76 0 
C 4 76 0 
C 6 76 0 
C 8 76 0 
C 10 76 0 
C 12 76 0 
C 14 76 0 
C 16 76 0 
C 18 76 0 
C 20 76 0 
C 22 76 0 
C 24 76 0 
C 26 76 0 
C 28 76 0 
C 30 76 0 
C 32 76 0 
C 34 76 0 
C 36 76 0 
C 38 76 0 
C 40 76 0 
C 42 76 0 
C 44 76 0 
C 46 76 0 
C 48 76 0 
C 50 76 0 
C 52 76 0 
C 54 76 0 
C 56 76 0 
C 58 76 0 
C 60 76 0 
C 62 76 0 
C 64 76 0 
C 66 76 0 
C 68 76 0 
C 70 76 0 
C 72 76 0 
C 74 76 0 
C 76 76 0 
C 78 76 0 
C 80 76 0 
C 82 76 0 
C 84 76 0 
C 86 76 0 
C 88 76 0 
C 90 76 0 
C 92 76 0 
C 94 76 0 
C 96 76 0 
C 98 76 0 
C 100 76 0 
C 0 78 0 
C 2 78 0 
C 4 78 0 
C 6 78 0 
C 8 78 0 
C 10 78 0 
C 12 78 0 
C 14 78 0 
C 16 78 0 
C 18 78 0 
C 20 78 0 
C 22 78 0 
C 24 78 0 
C 26 78 0 
C 28 78 0 
C 30 78 0 
C 32 78 0 
C 34 78 0 
C 36 78 0 
C 38 78 0 
C 40 78 0 
C 42 78 0 
C 44 78 0 
C 46 78 0 
C 48 78 0 
C 50 78 0 
C 52 78 0 
C 54 78 0 
C 56 78 0 
C 58 78 0 
C 60 78 0 
C 62 78 0 
C 64 78 0 
C 66 78 0 
C 68 78 0 
C 70 78 0 
C 72 78 0 
C 74 78 0 
C 76 78 0 
C 78 78 0 
C 80 78 0 
C 82 78 0 
C 84 78 0 
C 86 78 0 
C 88 78 0 
C 90 78 0 
C 92 78 0 
C 94 78 0 
C 96 78 0 
C 98 78 0 
C 100 78 0 
C 0 80 0 
C 2 80 0 
C 4 80 0 
C 6 80 0 
C 8 80 0 
C 10 80 0 
C 12 80 0 
C 14 80 0 
C 16 80 0 
C 18 80 0 
C 20 80 0 
C 22 80 0 
C 24 80 0 
C 26 80 0 
C 28 80 0 
C 30 80 0 
C 32 80 0 
C 34 80 0 
C 36 80 0 
C 38 80 0 
C 40 80 0 
C 42 80 0 
C 44 80 0 
C 46 80 0 
C 48 80 0 
C 50 80 0 
C 52 80 0 
C 54 80 0 
C 56 80 0 
C 58 80 0 
C 60 80 0 
C 62 80 0 
C 64 80 0 
C 66 80 0 
C 68 80 0 
C 70 80 0 
C 72 80 0 
C 74 80 0 
C 76 80 0 
C 78 80 0 
C 80 80 0 
C 82 80 0 
C 84 80 0 
C 86 80 0 
C 88 80 0 
C 90 80 0 
C 92 80 0 
C 94 80 0 
C 96 80 0 
C 98 80 0 
C 100 80 0 
C 0 82 0 
C 2 82 0 
C 4 82 0 
C 6 82 0 
C 8 82 0 
C 10 82 0 
C 12 82 0 
C 14 82 0 
C 16 82 0 
C 18 82 0 
C 20 82 0 
C 22 82 0 
C 24 82 0 
C 26 82 0 
C 28 82 0 
C 30 82 0 
C 32 82 0 
C 34 82 0 
C 36 82 0 
C 38 82 0 
C 40 82 0 
C 42 82 0 
C 44 82 0 
C 46 82 0 
C 48 82 0 
C 50 82 0 
C 52 82 0 
C 54 82 0 
C 56 82 0 
C 58 82 0 
C 60 82 0 
C 62 82 0 
C 64 82 0 
C 66 82 0 
C 68 82 0 
C 70 82 0 
C 72 82 0 
C 74 82 0 
C 76 82 0 
C 78 82 0 
C 80 82 0 
C 82 82 0 
C 84 82 0 
C 86 82 0 
C 88 82 0 
C 90 82 0 
C 92 82 0 
C 94 82 0 
C 96 82 0 
C 98 82 0 
C 100 82 0 
C 0 84 0 
C 2 84 0 
C 4 84 0 
C 6 84 0 
C 8 84 0 
C 10 84 0 
C 12 84 0 
C 14 84 0 
C 16 84 0 
C 18 84 0 
C 20 84 0 
C 22 84 0 
C 24 84 0 
C 26 84 0 
C 28 84 0 
C 30 84 0 
C 32 84 0 
C 34 84 0 
C 36 84 0 
C 38 84 0 
C 40 84 0 
C 42 84 0 
C 44 84 0 
C 46 84 0 
C 48 84 0 
C 50 84 0 
C 52 84 0 
C 54 84 0 
C 56 84 0 
C 58 84 0 
C 60 84 0 
C 62 84 0 
C 64 84 0 
C 66 84 0 
C 68 84 0 
C 70 84 0 
C 72 84 0 
C 74 84 0 
C 76 84 0 
C 78 84 0 
C 80 84 0 
C 82 84 0 
C 84 84 0 
C 86 84 0 
C 88 84 0 
C 90 84 0 
C 92 84 0 
C 94 84 0 
C 96 84 0 
C 98 84 0 
C 100 84 0 
C 0 86 0 
C 2 86 0 
C 4 86 0 
C 6 86 0 
C 8 86 0 
C 10 86 0 
C 12 86 0 
C 14 86 0 
C 16 86 0 
C 18 86 0 
C 20 86 0 
C 22 86 0 
C 24 86 0 
C 26 86 0 
C 28 86 0 
C 30 86 0 
C 32 86 0 
C 34 86 0 
C 36 86 0 
C 38 86 0 
C 40 86 0 
C 42 86 0 
C 44 86 0 
C 46 86 0 
C 48 86 0 
C 50 86 0 
C 52 86 0 
C 54 86 0 
C 56 86 0 
C 58 86 0 
C 60 86 0 
C 62 86 0 
C 64 86 0 
C 66 86 0 
C 68 86 0 
C 70 86 0 
C 72 86 0 
C 74 86 0 
C 76 86 0 
C 78 86 0 
C 80 86 0 
C 82 86 0 
C 84 86 0 
C 86 86 0 
C 88 86 0 
C 90 86 0 
C 92 86 0 
C 94 86 0 
C 96 86 0 
C 98 86 0 
C 100 86 0 
C 0 88 0 
C 2 88 0 
C 4 88 0 
C 6 88 0 
C 8 88 0 
C 10 88 0 
C 12 88 0 
C 14 88 0 
C 16 88 0 
C 18 88 0 
C 20 88 0 
C 22 88 0 
C 24 88 0 
C 26 88 0 
C 28 88 0 
C 30 88 0 
C 32 88 0 
C 34 88 0 
C 36 88 0 
C 38 88 0 
C 40 88 0 
C 42 88 0 
C 44 88 0 
C 46 88 0 
C 48 88 0 
C 50 88 0 
C 52 88 0 
C 54 88 0 
C 56 88 0 
C 58 88 0 
C 60 88 0 
C 62 88 0 
C 64 88 0 
C 66 88 0 
C 68 88 0 
C 70 88 0 
C 72 88 0 
C 74 88 0 
C 76 88 0 
C 78 88 0 
C 80 88 0 
C 82 88 0 
C 84 88 0 
C 86 88 0 
C 88 88 0 
C 90 88 0 
C 92 88 0 
C 94 88 0 
C 96 88 0 
C 98 88 0 
C 100 88 0 
C 0 90 0 
C 2 90 0 
C 4 90 0 
C 6 90 0 
C 8 90 0 
C 10 90 0 
C 12 90 0 
C 14 90 0 
C 16 90 0 
C 18 90 0 
C 20 90 0 
C 22 90 0 
C 24 90 0 
C 26 90 0 
C 28 90 0 
C 30 90 0 
C 32 90 0 
C 34 90 0 
C 36 90 0 
C 38 90 0 
C 40 90 0 
C 42 90 0 
C 44 90 0 
C 46 90 0 
C 48 90 0 
C 50 90 0 
C 52 90 0 
C 54 90 0 
C 56 90 0 
C 58 90 0 
C 60 90 0 
C 62 90 0 
C 64 90 0 
C 66 90 0 
C 68 90 0 
C 70 90 0 
C 72 90 0 
C 74 90 0 
C 76 90 0 
C 78 90 0 
C 80 90 0 
C 82 90 0 
C 84 90 0 
C 86 90 0 
C 88 90 0 
C 90 90 0 
C 92 90 0 
C 94 90 0 
C 96 90 0 
C 98 90 0 
C 100 90 0 
C 0 92 0 
C 2 92 0 
C 4 92 0 
C 6 92 0 
C 8 92 0 
C 10 92 0 
C 12 92 0 
C 14 92 0 
C 16 92 0 
C 18 92 0 
C 20 92 0 
C 22 92 0 
C 24 92 0 
C 26 92 0 
C 28 92 0 
C 30 92 0 
C 32 92 0 
C 34 92 0 
C 36 92 0 
C 38 92 0 
C 40 92 0 
C 42 92 0 
C 44 92 0 
C 46 92 0 
C 48 92 0 
C 50 92 0 
C 52 92 0 
C 54 92 0 
C 56 92 0 
C 58 92 0 
C 60 92 0 
C 62 92 0 
C 64 92 0 
C 66 92 0 
C 68 92 0 
C 70 92 0 
C 72 92 0 
C 74 92 0 
C 76 92 0 
C 78 92 0 
C 80 92 0 
C 82 92 0 
C 84 92 0 
C 86 92 0 
C 88 92 0 
C 90 92 0 
C 92 92 0 
C 94 92 0 
C 96 92 0 
C 98 92 0 
C 100 92 0 
C 0 94 0 
C 2 94 0 
C 4 94 0 
C 6 94 0 
C 8 94 0 
C 10 94 0 
C 12 94 0 
C 14 94 0 
C 16 94 0 
C 18 94 0 
C 20 94 0 
C 22 94 0 
C 24 94 0 
C 26 94 0 
C 28 94 0 
C 30 94 0 
C 32 94 0 
C 34 94 0 
C 36 94 0 
C 38 94 0 
C 40 94 0 
C 42 94 0 
C 44 94 0 
C 46 94 0 
C 48 94 0 
C 50 94 0 
C 52 94 0 
C 54 94 0 
C 56 94 0 
C 58 94 0 
C 60 94 0 
C 62 94 0 
C 64 94 0 
C 66 94 0 
C 68 94 0 
C 70 94 0 
C 72 94 0 
C 74 94 0 
C 76 94 0 
C 78 94 0 
C 80 94 0 
C 82 94 0 
C 84 94 0 
C 86 94 0 
C 88 94 0 
C 90 94 0 
C 92 94 0 
C 94 94 0 
C 96 94 0 
C 98 94 0 
C 100 94 0 
C 0 96 0 
C 2 96 0 
C 4 96 0 
C 6 96 0 
C 8 96 0 
C 10 96 0 
C 12 96 0 
C 14 96 0 
C 16 96 0 
C 18 96 0 
C 20 96 0 
C 22 96 0 
C 24 96 0 
C 26 96 0 
C 28 96 0 
C 30 96 0 
C 32 96 0 
C 34 96 0 
C 36 96 0 
C 38 96 0 
C 40 96 0 
C 42 96 0 
C 44 96 0 
C 46 96 0 
C 48 96 0 
C 50 96 0 
C 52 96 0 
C 54 96 0 
C 56 96 0 
C 58 96 0 
C 60 96 0 
C 62 96 0 
C 64 96 0 
C 66 96 0 
C 68 96 0 
C 70 96 0 
C 72 96 0 
C 74 96 0 
C 76 96 0 
C 78 96 0 
C 80 96 0 
C 82 96 0 
C 84 96 0 
C 86 96 0 
C 88 96 0 
C 90 96 0 
C 92 96 0 
C 94 96 0 
C 96 96 0 
C 98 96 0 
C 100 96 0 
C 0 98 0 
C 2 98 0 
C 4 98 0 
C 6 98 0 
C 8 98 0 
C 10 98 0 
C 12 98 0 
C 14 98 0 
C 16 98 0 
C 18 98 0 
C 20 98 0 
C 22 98 0 
C 24 98 0 
C 26 98 0 
C 28 98 0 
C 30 98 0 
C 32 98 0 
C 34 98 0 
C 36 98 0 
C 38 98 0 
C 40 98 0 
C 42 98 0 
C 44 98 0 
C 46 98 0 
C 48 98 0 
C 50 98 0 
C 52 98 0 
C 54 98 0 
C 56 98 0 
C 58 98 0 
C 60 98 0 
C 62 98 0 
C 64 98 0 
C 66 98 0 
C 68 98 0 
C 70 98 0 
C 72 98 0 
C 74 98 0 
C 76 98 0 
C 78 98 0 
C 80 98 0 
C 82 98 0 
C 84 98 0 
C 86 98 0 
C 88 98 0 
C 90 98 0 
C 92 98 0 
C 94 98 0 
C 96 98 0 
C 98 98 0 
C 100 98 0 
C 0 100 0 
C 2 100 0 
C 4 100 0 
C 6 100 0 
C 8 100 0 
C 10 100 0 
C 12 100 0 
C 14 100 0 
C 16 100 0 
C 18 100 0 
C 20 100 0 
C 22 100 0 
C 24 100 0 
C 26 100 0 
C 28 100 0 
C 30 100 0 
C 32 100 0 
C 34 100 0 
C 36 100 0 
C 38 100 0 
C 40 100 0 
C 42 100 0 
C 44 100 0 
C 46 100 0 
C 48 100 0 
C 50 100 0 
C 52 100 0 
C 54 100 0 
C 56 100 0 
C 58 100 0 
C 60 100 0 
C 62 100 0 
C 64 100 0 
C 66 100 0 
C 68 100 0 
C 70 100 0 
C 72 100 0 
C 74 100 0 
C 76 100 0 
C 78 100 0 
C 80 100 0 
C 82 100 0 
C 84 100 0 
C 86 100 0 
C 88 100 0 
C 90 100 0 
C 92 100 0 
C 94 100 0 
C 96 100 0 
C 98 100 0 
C 100 100 0 
