956
Atoms. Timestep: 1
N 22 55 0 
N 80 93 0 
N 29 40 0 
N 52 80 0 
N 26 94 0 
N 23 95 0 
N 53 95 0 
N 48 92 0 
N 91 12 0 
N 38 40 0 
N 72 83 0 
N 98 40 0 
N 82 45 0 
N 56 73 0 
N 78 48 0 
N 33 73 0 
N 99 61 0 
N 44 1 0 
N 16 57 0 
N 5 0 0 
N 13 21 0 
N 65 87 0 
N 65 13 0 
N 97 13 0 
N 96 17 0 
N 42 7 0 
N 40 38 0 
N 78 42 0 
N 73 81 0 
N 88 16 0 
N 9 78 0 
N 55 10 0 
N 58 79 0 
N 3 50 0 
N 52 98 0 
N 57 79 0 
N 58 70 0 
N 48 50 0 
N 8 75 0 
N 42 79 0 
N 97 6 0 
N 53 54 0 
N 68 82 0 
N 75 25 0 
N 22 65 0 
N 88 83 0 
N 53 17 0 
N 35 4 0 
N 78 25 0 
N 24 80 0 
N 68 28 0 
N 32 36 0 
N 97 18 0 
N 15 51 0 
N 47 25 0 
N 23 24 0 
N 82 98 0 
N 93 74 0 
N 32 91 0 
N 95 38 0 
N 38 81 0 
N 76 97 0 
N 66 98 0 
N 36 20 0 
N 29 76 0 
N 13 24 0 
N 0 55 0 
N 65 2 0 
N 66 54 0 
N 96 7 0 
N 20 89 0 
N 87 68 0 
N 73 90 0 
N 6 16 0 
N 66 88 0 
N 95 33 0 
N 24 40 0 
N 17 92 0 
N 27 95 0 
N 16 26 0 
N 84 50 0 
N 19 12 0 
N 69 94 0 
N 27 94 0 
N 54 84 0 
N 32 72 0 
N 92 32 0 
N 48 80 0 
N 35 8 0 
N 22 1 0 
N 82 59 0 
N 59 81 0 
N 4 20 0 
N 38 82 0 
N 81 43 0 
N 19 25 0 
N 17 89 0 
N 44 98 0 
N 36 43 0 
N 9 90 0 
N 23 85 0 
N 99 39 0 
N 53 30 0 
N 26 29 0 
N 69 96 0 
N 4 93 0 
N 96 37 0 
N 78 31 0 
N 89 51 0 
N 13 55 0 
N 87 76 0 
N 99 29 0 
N 54 42 0 
N 92 63 0 
N 20 9 0 
N 0 97 0 
N 41 83 0 
N 56 11 0 
N 60 91 0 
N 81 54 0 
N 97 60 0 
N 85 50 0 
N 93 29 0 
N 32 20 0 
N 87 56 0 
N 77 87 0 
N 79 25 0 
N 14 94 0 
N 88 85 0 
N 33 70 0 
N 15 98 0 
N 66 29 0 
N 66 12 0 
N 97 8 0 
N 67 37 0 
N 32 83 0 
N 38 86 0 
N 38 28 0 
N 71 97 0 
N 7 15 0 
N 1 88 0 
N 53 25 0 
N 57 11 0 
N 72 23 0 
N 45 11 0 
N 46 35 0 
N 18 70 0 
N 54 89 0 
N 85 95 0 
N 75 22 0 
N 90 91 0 
N 89 91 0 
N 27 43 0 
N 68 50 0 
N 1 71 0 
N 36 59 0 
N 71 83 0 
N 21 98 0 
N 42 2 0 
N 36 67 0 
N 92 67 0 
N 73 93 0 
N 87 20 0 
N 61 72 0 
N 61 49 0 
N 31 40 0 
N 2 83 0 
N 36 1 0 
N 55 90 0 
N 71 66 0 
N 45 99 0 
N 61 34 0 
N 22 36 0 
N 75 32 0 
N 74 95 0 
N 41 55 0 
N 59 13 0 
N 67 38 0 
N 20 29 0 
N 78 61 0 
N 74 42 0 
N 42 70 0 
N 46 80 0 
N 8 74 0 
N 13 13 0 
N 50 37 0 
N 67 84 0 
N 54 41 0 
N 70 64 0 
N 84 33 0 
N 16 59 0 
N 92 18 0 
N 22 48 0 
N 82 28 0 
N 68 95 0 
N 11 90 0 
N 39 9 0 
N 74 55 0 
N 99 57 0 
N 30 47 0 
N 67 83 0 
N 77 30 0 
N 16 44 0 
N 14 25 0 
N 70 97 0 
N 35 2 0 
N 73 62 0 
N 62 28 0 
N 8 38 0 
N 51 90 0 
N 45 64 0 
N 28 13 0 
N 50 11 0 
N 57 94 0 
N 87 78 0 
N 20 2 0 
N 29 49 0 
N 88 33 0 
N 40 78 0 
N 9 11 0 
N 30 92 0 
N 94 8 0 
N 71 15 0 
N 92 35 0 
N 5 26 0 
N 14 33 0 
N 11 69 0 
N 91 25 0 
N 6 35 0 
N 60 71 0 
N 21 27 0 
N 44 23 0 
N 36 78 0 
N 25 29 0 
N 10 41 0 
N 28 38 0 
N 62 9 0 
N 60 47 0 
N 37 37 0 
N 0 17 0 
N 14 1 0 
N 56 26 0 
N 67 93 0 
N 34 98 0 
N 42 5 0 
N 77 22 0 
N 23 70 0 
N 92 75 0 
N 61 19 0 
N 19 24 0 
N 58 13 0 
N 34 71 0 
N 38 32 0 
N 47 19 0 
N 38 25 0 
N 85 55 0 
N 72 74 0 
N 76 23 0 
N 45 48 0 
N 86 8 0 
N 37 3 0 
N 26 38 0 
N 42 36 0 
N 60 57 0 
N 44 81 0 
N 51 78 0 
N 5 57 0 
N 15 72 0 
N 34 75 0 
N 62 61 0 
N 42 31 0 
N 67 9 0 
N 59 73 0 
N 70 58 0 
N 66 68 0 
N 83 57 0 
N 59 54 0 
N 51 60 0 
N 19 36 0 
N 50 15 0 
N 64 41 0 
N 7 46 0 
N 57 99 0 
N 80 56 0 
N 72 38 0 
N 99 18 0 
N 45 34 0 
N 6 97 0 
N 42 66 0 
N 50 23 0 
N 65 17 0 
N 34 56 0 
N 79 13 0 
N 49 90 0 
N 35 46 0 
N 92 42 0 
N 7 98 0 
N 40 81 0 
N 70 27 0 
N 62 95 0 
N 81 97 0 
N 27 85 0 
N 23 86 0 
N 9 99 0 
N 24 50 0 
N 97 61 0 
N 46 47 0 
N 55 63 0 
N 42 71 0 
N 69 58 0 
N 23 20 0 
N 71 96 0 
N 43 27 0 
N 90 25 0 
N 44 80 0 
N 45 38 0 
N 78 43 0 
N 72 94 0 
N 17 48 0 
N 21 22 0 
N 48 24 0 
N 97 53 0 
N 5 56 0 
N 7 86 0 
N 74 23 0 
N 34 46 0 
N 47 50 0 
N 24 31 0 
N 8 72 0 
N 82 44 0 
N 0 46 0 
N 27 56 0 
N 16 85 0 
N 31 61 0 
N 11 74 0 
N 67 59 0 
N 62 26 0 
N 18 49 0 
N 64 77 0 
N 79 93 0 
N 58 90 0 
N 24 54 0 
N 78 57 0 
N 1 42 0 
N 12 64 0 
N 26 73 0 
N 50 14 0 
N 40 31 0 
N 55 5 0 
N 19 64 0 
N 96 11 0 
N 23 46 0 
N 43 61 0 
N 92 91 0 
N 21 50 0 
N 72 63 0 
N 46 48 0 
N 96 93 0 
N 98 74 0 
N 77 14 0 
N 2 65 0 
N 83 25 0 
N 69 90 0 
N 62 62 0 
N 87 46 0 
N 7 45 0 
N 97 79 0 
N 64 4 0 
N 46 90 0 
N 61 38 0 
N 19 54 0 
N 89 84 0 
N 36 61 0 
N 99 84 0 
N 53 34 0 
N 81 14 0 
N 13 30 0 
N 69 35 0 
N 77 44 0 
N 46 68 0 
N 32 40 0 
N 45 67 0 
N 38 57 0 
N 65 74 0 
N 63 53 0 
N 34 78 0 
N 46 11 0 
N 73 82 0 
N 73 0 0 
N 16 52 0 
N 89 11 0 
N 64 31 0 
N 4 2 0 
N 51 46 0 
N 19 5 0 
N 91 88 0 
N 29 35 0 
N 44 36 0 
N 11 27 0 
N 66 45 0 
N 35 30 0 
N 95 31 0 
N 16 24 0 
N 27 83 0 
N 26 20 0 
N 90 53 0 
N 31 1 0 
N 29 19 0 
N 39 88 0 
N 73 57 0 
N 87 23 0 
N 9 29 0 
N 47 74 0 
N 8 16 0 
N 39 36 0 
N 98 11 0 
N 61 59 0 
N 11 85 0 
N 72 41 0 
N 44 47 0 
N 28 15 0 
N 59 11 0 
N 71 6 0 
N 23 3 0 
N 41 84 0 
N 60 55 0 
N 90 85 0 
N 27 31 0 
N 29 20 0 
N 12 3 0 
N 36 92 0 
N 91 98 0 
N 70 18 0 
N 0 48 0 
N 88 1 0 
N 58 7 0 
N 94 22 0 
N 10 54 0 
N 9 44 0 
N 78 27 0 
N 47 72 0 
N 4 85 0 
N 92 78 0 
N 67 25 0 
N 55 34 0 
N 61 92 0 
N 68 32 0 
N 45 92 0 
N 24 85 0 
N 26 56 0 
N 85 5 0 
N 8 65 0 
N 55 4 0 
N 82 10 0 
N 33 22 0 
N 7 74 0 
N 94 50 0 
N 45 16 0 
N 79 52 0 
N 28 46 0 
N 5 69 0 
N 58 8 0 
N 74 18 0 
N 79 97 0 
N 49 6 0 
N 38 49 0 
N 72 61 0 
N 8 86 0 
N 66 35 0 
N 74 44 0 
N 18 43 0 
N 62 97 0 
N 97 85 0 
N 85 40 0 
N 30 84 0 
N 99 54 0 
N 35 13 0 
N 20 24 0 
N 79 2 0 
N 64 51 0 
N 58 88 0 
N 17 6 0 
N 18 73 0 
N 71 86 0 
N 68 7 0 
N 82 7 0 
N 58 23 0 
N 99 1 0 
N 26 30 0 
N 39 46 0 
N 64 11 0 
N 69 65 0 
N 28 84 0 
N 90 60 0 
N 83 90 0 
N 75 75 0 
N 1 13 0 
N 48 40 0 
N 20 96 0 
N 87 48 0 
C 0 0 0 
C 20 0 0 
C 40 0 0 
C 60 0 0 
C 80 0 0 
C 100 0 0 
C 0 20 0 
C 20 20 0 
C 40 20 0 
C 60 20 0 
C 80 20 0 
C 100 20 0 
C 0 40 0 
C 20 40 0 
C 40 40 0 
C 60 40 0 
C 80 40 0 
C 100 40 0 
C 0 60 0 
C 20 60 0 
C 40 60 0 
C 60 60 0 
C 80 60 0 
C 100 60 0 
C 0 80 0 
C 20 80 0 
C 40 80 0 
C 60 80 0 
C 80 80 0 
C 100 80 0 
C 0 100 0 
C 20 100 0 
C 40 100 0 
C 60 100 0 
C 80 100 0 
C 100 100 0 
O 43 76 0 
O 45 87 0 
O 14 14 0 
O 81 91 0 
O 47 46 0 
O 6 18 0 
O 75 74 0 
O 64 56 0 
O 23 23 0 
O 41 75 0 
O 36 66 0 
O 20 83 0 
O 84 22 0 
O 62 18 0 
O 80 42 0 
O 15 97 0 
O 48 51 0 
O 96 76 0 
O 95 28 0 
O 30 72 0 
O 29 22 0 
O 92 19 0 
O 24 27 0 
O 46 62 0 
O 67 29 0 
O 46 88 0 
O 70 59 0 
O 36 72 0 
O 19 28 0 
O 9 61 0 
O 6 27 0 
O 36 39 0 
O 35 98 0 
O 13 97 0 
O 32 11 0 
O 62 2 0 
O 26 5 0 
O 3 27 0 
O 66 11 0 
O 21 25 0 
O 83 99 0 
O 40 44 0 
O 87 95 0 
O 85 3 0 
O 42 73 0 
O 15 13 0 
O 99 24 0 
O 44 0 0 
O 14 13 0 
O 22 61 0 
O 29 62 0 
O 22 92 0 
O 40 54 0 
O 93 64 0 
O 5 81 0 
O 81 44 0 
O 49 0 0 
O 84 85 0 
O 56 27 0 
O 91 92 0 
O 11 4 0 
O 54 46 0 
O 46 66 0 
O 54 35 0 
O 66 71 0 
O 44 93 0 
O 25 39 0 
O 95 18 0 
O 52 32 0 
O 89 61 0 
O 95 95 0 
O 58 40 0 
O 56 13 0 
O 10 89 0 
O 84 26 0 
O 35 49 0 
O 98 50 0 
O 11 65 0 
O 45 9 0 
O 98 83 0 
O 91 80 0 
O 60 95 0 
O 42 27 0 
O 10 14 0 
O 73 58 0 
O 22 94 0 
O 65 75 0 
O 44 39 0 
O 22 60 0 
O 32 17 0 
O 76 5 0 
O 20 11 0 
O 43 69 0 
O 26 44 0 
O 12 8 0 
O 11 9 0 
O 55 29 0 
O 76 26 0 
O 78 32 0 
O 20 50 0 
O 39 84 0 
O 67 31 0 
O 16 69 0 
O 35 37 0 
O 74 59 0 
O 14 37 0 
O 0 18 0 
O 85 8 0 
O 97 26 0 
O 47 44 0 
O 79 69 0 
O 58 99 0 
O 14 8 0 
O 90 81 0 
O 43 95 0 
O 35 20 0 
O 49 98 0 
O 70 99 0 
O 77 60 0 
O 4 62 0 
O 50 93 0 
O 99 14 0 
O 61 40 0 
O 28 34 0 
O 31 50 0 
O 37 12 0 
O 9 16 0 
O 6 85 0 
O 20 99 0 
O 0 83 0 
O 85 63 0 
O 89 78 0 
O 46 34 0 
O 71 72 0 
O 24 92 0 
O 18 93 0 
O 68 44 0 
O 97 52 0 
O 27 33 0 
O 60 39 0 
O 18 90 0 
O 57 27 0 
O 5 39 0 
O 19 80 0 
O 41 6 0 
O 12 17 0 
O 87 74 0 
O 80 6 0 
O 71 80 0 
O 20 59 0 
O 46 75 0 
O 67 40 0 
O 49 62 0 
O 70 69 0 
O 19 75 0 
O 98 71 0 
O 73 54 0 
O 25 84 0 
O 86 92 0 
O 29 93 0 
O 85 73 0 
O 44 8 0 
O 99 89 0 
O 79 14 0 
O 35 95 0 
O 5 98 0 
O 90 48 0 
O 18 81 0 
O 41 7 0 
O 50 7 0 
O 89 7 0 
O 16 18 0 
O 7 28 0 
O 84 39 0 
O 76 34 0 
O 13 2 0 
O 9 49 0 
O 14 7 0 
O 24 2 0 
O 28 50 0 
O 29 5 0 
O 33 32 0 
O 91 22 0 
O 39 5 0 
O 0 62 0 
O 9 80 0 
O 83 81 0 
O 87 31 0 
O 25 95 0 
O 64 26 0 
O 8 98 0 
O 74 16 0 
O 19 61 0 
O 12 26 0 
O 40 17 0 
O 76 9 0 
O 2 64 0 
O 57 3 0 
O 58 93 0 
O 15 78 0 
O 21 54 0 
O 25 59 0 
O 61 62 0 
O 7 67 0 
O 15 16 0 
O 55 37 0 
O 14 99 0 
O 1 27 0 
O 91 65 0 
O 58 50 0 
O 31 93 0 
O 26 65 0 
O 89 50 0 
O 93 21 0 
O 26 67 0 
O 23 14 0 
O 56 77 0 
O 5 47 0 
O 91 97 0 
O 43 70 0 
O 27 60 0 
O 73 43 0 
O 74 52 0 
O 14 69 0 
O 60 29 0 
O 64 19 0 
O 81 57 0 
O 75 88 0 
O 11 18 0 
O 82 4 0 
O 38 6 0 
O 9 7 0 
O 17 83 0 
O 15 58 0 
O 7 64 0 
O 70 5 0 
O 17 61 0 
O 94 28 0 
O 0 85 0 
O 75 40 0 
O 82 82 0 
O 52 15 0 
O 53 97 0 
O 78 96 0 
O 3 1 0 
O 11 76 0 
O 8 24 0 
O 37 48 0 
O 86 73 0 
O 22 69 0 
O 4 47 0 
O 16 82 0 
O 30 23 0 
O 72 77 0 
O 80 70 0 
O 63 5 0 
O 60 72 0 
O 53 87 0 
O 14 59 0 
O 68 47 0 
O 63 27 0 
O 52 24 0 
O 46 43 0 
O 29 0 0 
O 90 21 0 
O 29 24 0 
O 25 99 0 
O 86 90 0 
O 59 55 0 
O 37 65 0 
O 64 89 0 
O 30 10 0 
O 66 18 0 
O 60 30 0 
O 17 3 0 
O 30 20 0 
O 36 4 0 
O 59 40 0 
O 8 42 0 
O 70 14 0 
O 14 19 0 
O 72 44 0 
O 46 56 0 
O 97 71 0 
O 47 64 0 
O 30 68 0 
O 56 22 0 
O 49 94 0 
O 67 35 0 
O 3 76 0 
O 61 29 0 
O 96 77 0 
O 47 1 0 
O 70 45 0 
O 30 51 0 
O 30 16 0 
O 81 39 0 
O 13 73 0 
O 49 47 0 
O 25 13 0 
O 3 91 0 
O 37 42 0 
O 58 25 0 
O 88 30 0 
O 3 48 0 
O 72 12 0 
O 84 72 0 
O 94 36 0 
O 30 4 0 
O 68 37 0 
O 81 92 0 
O 5 63 0 
O 88 96 0 
O 28 39 0 
O 66 83 0 
O 68 54 0 
O 17 42 0 
O 99 55 0 
O 97 42 0 
O 94 96 0 
O 64 40 0 
O 97 64 0 
O 57 23 0 
O 53 84 0 
O 84 36 0 
O 16 0 0 
O 72 82 0 
O 0 4 0 
O 11 42 0 
O 87 58 0 
O 85 34 0 
O 52 83 0 
O 15 9 0 
O 86 37 0 
O 53 5 0 
O 38 17 0 
O 41 76 0 
O 14 60 0 
O 90 34 0 
O 10 9 0 
O 41 3 0 
O 90 31 0 
O 8 58 0 
O 7 70 0 
O 2 38 0 
O 56 69 0 
O 9 63 0 
O 79 71 0 
O 65 64 0 
O 51 26 0 
O 73 59 0 
O 44 37 0 
O 98 5 0 
O 96 46 0 
O 5 5 0 
O 40 89 0 
O 12 53 0 
O 5 60 0 
O 92 73 0 
O 31 6 0 
O 51 80 0 
O 43 73 0 
O 74 69 0 
O 79 62 0 
O 32 19 0 
O 51 98 0 
O 76 96 0 
O 88 68 0 
O 40 25 0 
O 53 43 0 
O 70 28 0 
O 99 3 0 
O 68 55 0 
O 41 73 0 
O 40 43 0 
O 77 32 0 
O 18 4 0 
O 55 12 0 
O 19 72 0 
O 41 17 0 
O 35 19 0 
O 32 85 0 
O 55 20 0 
O 19 57 0 
O 15 41 0 
O 27 66 0 
O 46 79 0 
O 61 11 0 
O 48 54 0 
O 89 71 0 
O 88 10 0 
O 74 8 0 
O 58 64 0 
O 81 32 0 
O 50 2 0 
O 53 53 0 
O 94 82 0 
O 98 28 0 
O 46 96 0 
O 83 64 0 
O 69 51 0 
O 39 3 0 
O 74 47 0 
O 13 12 0 
O 37 51 0 
O 40 10 0 
O 14 93 0 
O 87 99 0 
O 25 0 0 
O 54 1 0 
O 92 72 0 
O 78 88 0 
O 62 45 0 
O 68 96 0 
O 69 43 0 
O 91 36 0 
O 80 15 0 
O 27 14 0 
O 44 20 0 
O 9 17 0 
901
Atoms. Timestep: 2
N 21 55 0 
N 80 92 0 
N 28 40 0 
N 51 80 0 
N 25 94 0 
N 23 94 0 
N 53 96 0 
N 48 93 0 
N 90 12 0 
N 38 41 0 
N 71 83 0 
N 98 41 0 
N 82 44 0 
N 56 74 0 
N 78 47 0 
N 33 72 0 
N 98 61 0 
N 44 0 0 
N 15 57 0 
N 5 1 0 
N 14 21 0 
N 64 87 0 
N 66 13 0 
N 98 13 0 
N 95 17 0 
N 41 7 0 
N 40 39 0 
N 79 42 0 
N 73 80 0 
N 88 15 0 
N 9 79 0 
N 55 11 0 
N 57 79 0 
N 3 49 0 
N 52 99 0 
N 57 78 0 
N 58 69 0 
N 48 51 0 
N 9 75 0 
N 43 79 0 
N 97 5 0 
N 53 53 0 
N 69 82 0 
N 76 25 0 
N 22 64 0 
N 88 82 0 
N 52 17 0 
N 36 4 0 
N 78 26 0 
N 23 80 0 
N 68 29 0 
N 32 37 0 
N 96 18 0 
N 14 51 0 
N 47 26 0 
N 23 23 0 
N 83 98 0 
N 93 73 0 
N 32 92 0 
N 95 37 0 
N 38 82 0 
N 76 96 0 
N 67 98 0 
N 35 20 0 
N 30 76 0 
N 12 24 0 
N 1 55 0 
N 64 2 0 
N 67 54 0 
N 96 6 0 
N 20 90 0 
N 88 68 0 
N 74 90 0 
N 6 17 0 
N 66 89 0 
N 94 33 0 
N 24 39 0 
N 17 93 0 
N 26 95 0 
N 15 26 0 
N 85 50 0 
N 19 11 0 
N 69 95 0 
N 28 94 0 
N 53 84 0 
N 31 72 0 
N 92 31 0 
N 48 81 0 
N 36 8 0 
N 22 2 0 
N 82 58 0 
N 59 80 0 
N 4 19 0 
N 39 82 0 
N 81 42 0 
N 19 25 0 
N 17 90 0 
N 44 97 0 
N 37 43 0 
N 10 90 0 
N 24 85 0 
N 99 38 0 
N 53 31 0 
N 25 29 0 
N 69 97 0 
N 3 93 0 
N 96 36 0 
N 78 32 0 
N 89 50 0 
N 13 54 0 
N 87 75 0 
N 99 28 0 
N 53 42 0 
N 92 64 0 
N 20 10 0 
N 1 97 0 
N 40 83 0 
N 56 12 0 
N 60 92 0 
N 81 55 0 
N 97 61 0 
N 86 50 0 
N 94 29 0 
N 32 19 0 
N 87 57 0 
N 77 88 0 
N 79 26 0 
N 14 93 0 
N 87 85 0 
N 33 71 0 
N 15 97 0 
N 67 29 0 
N 66 11 0 
N 98 8 0 
N 68 37 0 
N 32 84 0 
N 38 85 0 
N 39 28 0 
N 71 98 0 
N 7 16 0 
N 2 88 0 
N 52 25 0 
N 57 12 0 
N 72 24 0 
N 45 10 0 
N 46 34 0 
N 18 69 0 
N 54 88 0 
N 86 95 0 
N 75 22 0 
N 90 92 0 
N 89 92 0 
N 26 43 0 
N 69 50 0 
N 2 71 0 
N 36 60 0 
N 71 82 0 
N 21 99 0 
N 42 3 0 
N 36 66 0 
N 91 67 0 
N 74 93 0 
N 87 21 0 
N 61 71 0 
N 61 50 0 
N 32 40 0 
N 1 83 0 
N 36 1 0 
N 55 89 0 
N 70 66 0 
N 45 98 0 
N 61 33 0 
N 23 36 0 
N 76 32 0 
N 74 96 0 
N 41 54 0 
N 58 13 0 
N 67 39 0 
N 19 29 0 
N 78 60 0 
N 74 41 0 
N 43 70 0 
N 46 79 0 
N 9 74 0 
N 14 13 0 
N 51 37 0 
N 67 83 0 
N 54 40 0 
N 70 65 0 
N 84 34 0 
N 15 59 0 
N 92 19 0 
N 22 49 0 
N 82 27 0 
N 68 96 0 
N 11 89 0 
N 40 9 0 
N 73 55 0 
N 99 58 0 
N 30 48 0 
N 66 83 0 
N 77 31 0 
N 17 44 0 
N 13 25 0 
N 70 98 0 
N 36 2 0 
N 73 61 0 
N 62 29 0 
N 7 38 0 
N 51 91 0 
N 46 64 0 
N 27 13 0 
N 50 10 0 
N 58 94 0 
N 88 78 0 
N 20 3 0 
N 29 50 0 
N 88 32 0 
N 40 77 0 
N 10 11 0 
N 30 93 0 
N 94 7 0 
N 70 15 0 
N 91 35 0 
N 6 26 0 
N 14 34 0 
N 12 69 0 
N 91 24 0 
N 6 36 0 
N 60 72 0 
N 21 26 0 
N 44 22 0 
N 36 77 0 
N 24 29 0 
N 10 42 0 
N 28 39 0 
N 62 10 0 
N 60 46 0 
N 36 37 0 
N 0 18 0 
N 13 1 0 
N 56 27 0 
N 68 93 0 
N 34 99 0 
N 42 6 0 
N 76 22 0 
N 23 69 0 
N 92 74 0 
N 62 19 0 
N 20 24 0 
N 57 13 0 
N 35 71 0 
N 38 31 0 
N 47 20 0 
N 39 25 0 
N 85 56 0 
N 71 74 0 
N 76 24 0 
N 46 48 0 
N 85 8 0 
N 36 3 0 
N 27 38 0 
N 43 36 0 
N 61 57 0 
N 45 81 0 
N 51 79 0 
N 5 58 0 
N 14 72 0 
N 35 75 0 
N 62 62 0 
N 42 32 0 
N 66 9 0 
N 59 72 0 
N 70 59 0 
N 66 69 0 
N 82 57 0 
N 59 53 0 
N 50 60 0 
N 18 36 0 
N 51 15 0 
N 64 40 0 
N 6 46 0 
N 58 99 0 
N 80 57 0 
N 72 39 0 
N 98 18 0 
N 45 33 0 
N 5 97 0 
N 43 66 0 
N 50 24 0 
N 66 17 0 
N 35 56 0 
N 79 14 0 
N 50 90 0 
N 35 47 0 
N 93 42 0 
N 8 98 0 
N 39 81 0 
N 70 28 0 
N 62 94 0 
N 81 98 0 
N 26 85 0 
N 24 86 0 
N 9 98 0 
N 25 50 0 
N 97 62 0 
N 46 46 0 
N 55 62 0 
N 42 72 0 
N 69 59 0 
N 23 21 0 
N 70 96 0 
N 42 27 0 
N 90 24 0 
N 44 79 0 
N 45 39 0 
N 79 43 0 
N 73 94 0 
N 17 47 0 
N 21 23 0 
N 49 24 0 
N 97 52 0 
N 5 56 0 
N 6 86 0 
N 75 23 0 
N 34 47 0 
N 47 51 0 
N 24 30 0 
N 7 72 0 
N 81 44 0 
N 1 46 0 
N 27 57 0 
N 16 84 0 
N 31 62 0 
N 11 75 0 
N 68 59 0 
N 63 26 0 
N 18 50 0 
N 65 77 0 
N 79 92 0 
N 58 91 0 
N 23 54 0 
N 79 57 0 
N 2 42 0 
N 11 64 0 
N 26 72 0 
N 51 14 0 
N 41 31 0 
N 54 5 0 
N 19 63 0 
N 97 11 0 
N 23 45 0 
N 43 62 0 
N 92 92 0 
N 20 50 0 
N 73 63 0 
N 47 48 0 
N 96 94 0 
N 98 73 0 
N 78 14 0 
N 2 64 0 
N 83 26 0 
N 69 89 0 
N 61 62 0 
N 87 47 0 
N 6 45 0 
N 97 78 0 
N 63 4 0 
N 46 89 0 
N 61 39 0 
N 20 54 0 
N 89 83 0 
N 36 62 0 
N 99 83 0 
N 53 35 0 
N 80 14 0 
N 13 29 0 
N 69 36 0 
N 78 44 0 
N 46 67 0 
N 32 39 0 
N 45 68 0 
N 38 56 0 
N 65 75 0 
N 63 54 0 
N 35 78 0 
N 46 10 0 
N 72 82 0 
N 73 1 0 
N 15 52 0 
N 89 10 0 
N 65 31 0 
N 4 1 0 
N 52 46 0 
N 19 4 0 
N 91 89 0 
N 29 34 0 
N 44 37 0 
N 11 26 0 
N 66 44 0 
N 35 31 0 
N 95 32 0 
N 17 24 0 
N 26 83 0 
N 26 21 0 
N 89 53 0 
N 31 0 0 
N 29 20 0 
N 39 89 0 
N 73 58 0 
N 86 23 0 
N 9 28 0 
N 46 74 0 
N 9 16 0 
N 38 36 0 
N 98 12 0 
N 61 60 0 
N 10 85 0 
N 72 42 0 
N 45 47 0 
N 27 15 0 
N 60 11 0 
N 71 5 0 
N 24 3 0 
N 40 84 0 
N 59 55 0 
N 90 84 0 
N 27 32 0 
N 30 20 0 
N 11 3 0 
N 36 93 0 
N 90 98 0 
N 69 18 0 
N 1 48 0 
N 88 0 0 
N 58 6 0 
N 93 22 0 
N 11 54 0 
N 8 44 0 
N 77 27 0 
N 48 72 0 
N 5 85 0 
N 92 79 0 
N 67 26 0 
N 54 34 0 
N 61 93 0 
N 67 32 0 
N 44 92 0 
N 25 85 0 
N 26 57 0 
N 85 4 0 
N 7 65 0 
N 55 3 0 
N 82 11 0 
N 32 22 0 
N 7 73 0 
N 95 50 0 
N 45 17 0 
N 78 52 0 
N 28 45 0 
N 6 69 0 
N 57 8 0 
N 74 17 0 
N 79 96 0 
N 49 7 0 
N 37 49 0 
N 72 60 0 
N 8 85 0 
N 67 35 0 
N 74 43 0 
N 18 42 0 
N 62 96 0 
N 98 85 0 
N 84 40 0 
N 30 85 0 
N 99 55 0 
N 35 12 0 
N 20 25 0 
N 79 3 0 
N 64 52 0 
N 58 89 0 
N 17 5 0 
N 18 72 0 
N 72 86 0 
N 69 7 0 
N 82 6 0 
N 57 23 0 
N 99 2 0 
N 26 31 0 
N 40 46 0 
N 65 11 0 
N 69 66 0 
N 27 84 0 
N 90 61 0 
N 83 91 0 
N 75 74 0 
N 1 14 0 
N 47 40 0 
N 19 96 0 
N 88 48 0 
C 0 0 0 
C 20 0 0 
C 40 0 0 
C 60 0 0 
C 80 0 0 
C 100 0 0 
C 0 20 0 
C 20 20 0 
C 40 20 0 
C 60 20 0 
C 80 20 0 
C 100 20 0 
C 0 40 0 
C 20 40 0 
C 40 40 0 
C 60 40 0 
C 80 40 0 
C 100 40 0 
C 0 60 0 
C 20 60 0 
C 40 60 0 
C 60 60 0 
C 80 60 0 
C 100 60 0 
C 0 80 0 
C 20 80 0 
C 40 80 0 
C 60 80 0 
C 80 80 0 
C 100 80 0 
C 0 100 0 
C 20 100 0 
C 40 100 0 
C 60 100 0 
C 80 100 0 
C 100 100 0 
O 44 76 0 
O 44 87 0 
O 13 14 0 
O 82 91 0 
O 48 46 0 
O 5 18 0 
O 64 55 0 
O 40 75 0 
O 20 84 0 
O 84 21 0 
O 62 17 0 
O 80 43 0 
O 96 77 0 
O 95 27 0 
O 30 73 0 
O 29 21 0 
O 23 27 0 
O 47 62 0 
O 47 88 0 
O 36 73 0 
O 20 28 0 
O 8 61 0 
O 5 27 0 
O 36 40 0 
O 35 99 0 
O 12 97 0 
O 32 10 0 
O 61 2 0 
O 26 4 0 
O 2 27 0 
O 21 24 0 
O 83 0 0 
O 40 43 0 
O 88 95 0 
O 86 3 0 
O 41 73 0 
O 16 13 0 
O 0 24 0 
O 22 60 0 
O 28 62 0 
O 22 93 0 
O 39 54 0 
O 93 63 0 
O 4 81 0 
O 50 0 0 
O 84 86 0 
O 91 93 0 
O 11 5 0 
O 53 46 0 
O 47 66 0 
O 54 36 0 
O 67 71 0 
O 43 93 0 
O 25 38 0 
O 95 18 0 
O 53 32 0 
O 89 60 0 
O 96 95 0 
O 58 39 0 
O 55 13 0 
O 9 89 0 
O 84 25 0 
O 35 48 0 
O 98 51 0 
O 10 65 0 
O 46 9 0 
O 98 84 0 
O 92 80 0 
O 59 95 0 
O 10 15 0 
O 21 94 0 
O 44 38 0 
O 22 59 0 
O 32 18 0 
O 76 4 0 
O 20 11 0 
O 44 69 0 
O 27 44 0 
O 11 8 0 
O 10 9 0 
O 54 29 0 
O 77 26 0 
O 38 84 0 
O 67 30 0 
O 16 68 0 
O 35 36 0 
O 73 59 0 
O 14 36 0 
O 98 26 0 
O 47 45 0 
O 79 70 0 
O 13 8 0 
O 91 81 0 
O 44 95 0 
O 49 99 0 
O 70 0 0 
O 77 59 0 
O 3 62 0 
O 50 94 0 
O 99 13 0 
O 62 40 0 
O 28 33 0 
O 30 50 0 
O 37 11 0 
O 6 84 0 
O 20 99 0 
O 0 84 0 
O 85 64 0 
O 89 79 0 
O 71 73 0 
O 24 93 0 
O 18 94 0 
O 68 45 0 
O 26 33 0 
O 60 39 0 
O 19 90 0 
O 58 27 0 
O 5 40 0 
O 18 80 0 
O 40 6 0 
O 12 16 0 
O 88 74 0 
O 79 6 0 
O 72 80 0 
O 19 59 0 
O 45 75 0 
O 67 41 0 
O 49 61 0 
O 70 68 0 
O 18 75 0 
O 98 70 0 
O 74 54 0 
O 24 84 0 
O 86 93 0 
O 28 93 0 
O 85 72 0 
O 45 8 0 
O 0 89 0 
O 34 95 0 
O 4 98 0 
O 91 48 0 
O 18 82 0 
O 50 6 0 
O 90 7 0 
O 15 18 0 
O 6 28 0 
O 85 39 0 
O 76 33 0 
O 12 2 0 
O 9 50 0 
O 15 7 0 
O 24 1 0 
O 28 51 0 
O 28 5 0 
O 33 31 0 
O 92 22 0 
O 39 4 0 
O 0 61 0 
O 8 80 0 
O 84 81 0 
O 86 31 0 
O 25 96 0 
O 64 27 0 
O 75 16 0 
O 19 62 0 
O 12 25 0 
O 40 16 0 
O 77 9 0 
O 57 2 0 
O 57 93 0 
O 15 77 0 
O 21 54 0 
O 25 60 0 
O 6 67 0 
O 14 16 0 
O 54 37 0 
O 14 0 0 
O 1 28 0 
O 92 65 0 
O 57 50 0 
O 31 94 0 
O 25 65 0 
O 94 21 0 
O 26 66 0 
O 24 14 0 
O 57 77 0 
O 5 46 0 
O 91 98 0 
O 26 60 0 
O 72 43 0 
O 74 53 0 
O 14 70 0 
O 60 28 0 
O 63 19 0 
O 81 56 0 
O 75 87 0 
O 11 17 0 
O 83 4 0 
O 38 5 0 
O 8 7 0 
O 17 84 0 
O 14 58 0 
O 6 64 0 
O 70 4 0 
O 17 60 0 
O 94 28 0 
O 99 85 0 
O 76 40 0 
O 82 83 0 
O 52 14 0 
O 54 97 0 
O 78 97 0 
O 2 1 0 
O 10 76 0 
O 7 24 0 
O 38 48 0 
O 86 74 0 
O 22 70 0 
O 4 46 0 
O 17 82 0 
O 31 23 0 
O 72 78 0 
O 81 70 0 
O 62 5 0 
O 53 88 0 
O 14 60 0 
O 68 46 0 
O 62 27 0 
O 53 24 0 
O 46 42 0 
O 29 99 0 
O 91 21 0 
O 29 23 0 
O 25 0 0 
O 86 91 0 
O 37 66 0 
O 65 89 0 
O 30 9 0 
O 67 18 0 
O 60 31 0 
O 18 3 0 
O 59 41 0 
O 7 42 0 
O 70 13 0 
O 14 20 0 
O 72 45 0 
O 46 55 0 
O 97 70 0 
O 47 65 0 
O 30 69 0 
O 55 22 0 
O 49 95 0 
O 2 76 0 
O 61 30 0 
O 97 77 0 
O 47 0 0 
O 70 44 0 
O 29 51 0 
O 29 16 0 
O 80 39 0 
O 12 73 0 
O 50 47 0 
O 24 13 0 
O 3 92 0 
O 37 41 0 
O 59 25 0 
O 89 30 0 
O 3 47 0 
O 73 12 0 
O 84 73 0 
O 95 36 0 
O 29 4 0 
O 82 92 0 
O 5 64 0 
O 89 96 0 
O 68 53 0 
O 17 41 0 
O 98 42 0 
O 94 97 0 
O 98 64 0 
O 85 36 0 
O 16 99 0 
O 99 4 0 
O 11 41 0 
O 87 59 0 
O 85 35 0 
O 52 84 0 
O 16 9 0 
O 86 36 0 
O 52 5 0 
O 37 17 0 
O 41 77 0 
O 14 61 0 
O 91 34 0 
O 9 9 0 
O 41 2 0 
O 90 30 0 
O 7 58 0 
O 6 70 0 
O 2 37 0 
O 55 69 0 
O 8 63 0 
O 80 71 0 
O 66 64 0 
O 52 26 0 
O 72 59 0 
O 98 4 0 
O 97 46 0 
O 4 5 0 
O 40 90 0 
O 11 53 0 
O 4 60 0 
O 92 73 0 
O 31 5 0 
O 43 72 0 
O 74 70 0 
O 79 63 0 
O 51 99 0 
O 40 24 0 
O 54 43 0 
O 0 3 0 
O 68 56 0 
O 41 74 0 
O 41 43 0 
O 77 33 0 
O 17 4 0 
O 55 12 0 
O 19 73 0 
O 42 17 0 
O 34 19 0 
O 32 86 0 
O 56 20 0 
O 20 57 0 
O 14 41 0 
O 27 65 0 
O 61 10 0 
O 47 54 0 
O 89 72 0 
O 88 9 0 
O 74 7 0 
O 59 64 0 
O 82 32 0 
O 49 2 0 
O 94 83 0 
O 98 27 0 
O 47 96 0 
O 83 65 0 
O 69 52 0 
O 39 2 0 
O 74 46 0 
O 13 13 0 
O 37 52 0 
O 39 10 0 
O 87 0 0 
O 26 0 0 
O 54 0 0 
O 93 72 0 
O 78 87 0 
O 62 44 0 
O 68 43 0 
O 92 36 0 
O 79 15 0 
O 26 14 0 
O 43 20 0 
O 8 17 0 
834
Atoms. Timestep: 3
N 20 55 0 
N 81 92 0 
N 28 39 0 
N 51 79 0 
N 24 94 0 
N 23 93 0 
N 54 96 0 
N 48 94 0 
N 90 11 0 
N 37 41 0 
N 71 82 0 
N 98 42 0 
N 82 45 0 
N 56 73 0 
N 77 47 0 
N 32 72 0 
N 97 61 0 
N 45 0 0 
N 15 58 0 
N 4 1 0 
N 14 20 0 
N 65 87 0 
N 67 13 0 
N 99 13 0 
N 94 17 0 
N 40 7 0 
N 41 39 0 
N 79 41 0 
N 72 80 0 
N 88 14 0 
N 9 80 0 
N 55 11 0 
N 57 78 0 
N 3 48 0 
N 51 99 0 
N 57 77 0 
N 57 69 0 
N 48 52 0 
N 9 76 0 
N 43 78 0 
N 98 5 0 
N 54 53 0 
N 69 81 0 
N 76 24 0 
N 22 63 0 
N 88 81 0 
N 53 17 0 
N 37 4 0 
N 78 25 0 
N 22 80 0 
N 67 29 0 
N 32 36 0 
N 95 18 0 
N 13 51 0 
N 48 26 0 
N 23 24 0 
N 83 97 0 
N 92 73 0 
N 31 92 0 
N 94 37 0 
N 39 82 0 
N 77 96 0 
N 68 98 0 
N 34 20 0 
N 30 75 0 
N 11 24 0 
N 1 54 0 
N 63 2 0 
N 68 54 0 
N 97 6 0 
N 19 90 0 
N 89 68 0 
N 75 90 0 
N 6 18 0 
N 65 89 0 
N 94 34 0 
N 25 39 0 
N 17 94 0 
N 26 96 0 
N 15 27 0 
N 85 49 0 
N 19 12 0 
N 69 94 0 
N 28 93 0 
N 52 84 0 
N 30 72 0 
N 91 31 0 
N 48 82 0 
N 37 8 0 
N 23 2 0 
N 81 58 0 
N 59 79 0 
N 5 19 0 
N 39 83 0 
N 81 41 0 
N 19 24 0 
N 18 90 0 
N 44 96 0 
N 37 42 0 
N 9 90 0 
N 24 84 0 
N 99 37 0 
N 53 32 0 
N 24 29 0 
N 69 98 0 
N 3 92 0 
N 95 36 0 
N 78 33 0 
N 89 49 0 
N 13 55 0 
N 87 74 0 
N 99 27 0 
N 53 43 0 
N 92 65 0 
N 20 11 0 
N 2 97 0 
N 40 84 0 
N 55 12 0 
N 59 92 0 
N 81 56 0 
N 96 61 0 
N 87 50 0 
N 94 28 0 
N 32 18 0 
N 87 58 0 
N 78 88 0 
N 80 26 0 
N 14 94 0 
N 86 85 0 
N 32 71 0 
N 14 97 0 
N 67 30 0 
N 66 12 0 
N 98 7 0 
N 67 37 0 
N 32 85 0 
N 38 84 0 
N 40 28 0 
N 71 97 0 
N 8 16 0 
N 1 88 0 
N 52 26 0 
N 57 12 0 
N 71 24 0 
N 45 9 0 
N 46 35 0 
N 17 69 0 
N 53 88 0 
N 87 95 0 
N 75 21 0 
N 91 92 0 
N 89 93 0 
N 26 44 0 
N 69 51 0 
N 2 72 0 
N 36 59 0 
N 72 82 0 
N 20 99 0 
N 41 3 0 
N 37 66 0 
N 91 66 0 
N 75 93 0 
N 86 21 0 
N 62 71 0 
N 60 50 0 
N 33 40 0 
N 0 83 0 
N 37 1 0 
N 55 88 0 
N 70 67 0 
N 44 98 0 
N 61 32 0 
N 23 37 0 
N 76 33 0 
N 75 96 0 
N 40 54 0 
N 57 13 0 
N 67 40 0 
N 19 30 0 
N 78 59 0 
N 75 41 0 
N 43 69 0 
N 45 79 0 
N 10 74 0 
N 13 13 0 
N 52 37 0 
N 67 82 0 
N 54 39 0 
N 70 65 0 
N 85 34 0 
N 14 59 0 
N 91 19 0 
N 22 50 0 
N 82 26 0 
N 68 95 0 
N 10 89 0 
N 39 9 0 
N 74 55 0 
N 98 58 0 
N 30 49 0 
N 65 83 0 
N 77 32 0 
N 17 43 0 
N 12 25 0 
N 70 97 0 
N 37 2 0 
N 73 60 0 
N 62 28 0 
N 6 38 0 
N 51 92 0 
N 47 64 0 
N 26 13 0 
N 50 9 0 
N 59 94 0 
N 88 79 0 
N 20 3 0 
N 29 49 0 
N 87 32 0 
N 41 77 0 
N 11 11 0 
N 29 93 0 
N 93 7 0 
N 70 14 0 
N 91 34 0 
N 5 26 0 
N 14 35 0 
N 12 70 0 
N 91 23 0 
N 6 37 0 
N 60 71 0 
N 22 26 0 
N 43 22 0 
N 36 76 0 
N 23 29 0 
N 10 41 0 
N 27 39 0 
N 61 10 0 
N 61 46 0 
N 36 36 0 
N 1 18 0 
N 12 1 0 
N 57 27 0 
N 68 92 0 
N 35 99 0 
N 41 6 0 
N 76 21 0 
N 23 70 0 
N 91 74 0 
N 63 19 0 
N 21 24 0 
N 56 13 0 
N 36 71 0 
N 37 31 0 
N 46 20 0 
N 39 24 0 
N 84 56 0 
N 71 73 0 
N 77 24 0 
N 47 48 0 
N 85 9 0 
N 37 3 0 
N 26 38 0 
N 42 36 0 
N 61 56 0 
N 45 80 0 
N 52 79 0 
N 6 58 0 
N 14 71 0 
N 36 75 0 
N 61 62 0 
N 41 32 0 
N 65 9 0 
N 58 72 0 
N 70 58 0 
N 66 70 0 
N 81 57 0 
N 59 52 0 
N 49 60 0 
N 17 36 0 
N 52 15 0 
N 63 40 0 
N 5 46 0 
N 58 98 0 
N 80 56 0 
N 73 39 0 
N 97 18 0 
N 45 34 0 
N 4 97 0 
N 44 66 0 
N 51 24 0 
N 67 17 0 
N 35 55 0 
N 79 15 0 
N 50 91 0 
N 35 48 0 
N 94 42 0 
N 7 98 0 
N 38 81 0 
N 69 28 0 
N 62 94 0 
N 82 98 0 
N 25 85 0 
N 24 86 0 
N 9 97 0 
N 25 51 0 
N 97 63 0 
N 47 46 0 
N 56 62 0 
N 43 72 0 
N 69 58 0 
N 22 21 0 
N 70 95 0 
N 41 27 0 
N 90 23 0 
N 44 78 0 
N 46 39 0 
N 80 43 0 
N 74 94 0 
N 17 46 0 
N 22 23 0 
N 49 24 0 
N 97 51 0 
N 5 57 0 
N 6 86 0 
N 75 23 0 
N 34 48 0 
N 47 52 0 
N 23 30 0 
N 6 72 0 
N 81 43 0 
N 2 46 0 
N 26 57 0 
N 17 84 0 
N 30 62 0 
N 10 75 0 
N 68 58 0 
N 63 27 0 
N 17 50 0 
N 65 76 0 
N 79 92 0 
N 58 92 0 
N 23 55 0 
N 79 56 0 
N 3 42 0 
N 10 64 0 
N 26 73 0 
N 52 14 0 
N 40 31 0 
N 53 5 0 
N 19 62 0 
N 98 11 0 
N 23 44 0 
N 44 62 0 
N 92 93 0 
N 20 51 0 
N 74 63 0 
N 48 48 0 
N 96 95 0 
N 98 74 0 
N 78 15 0 
N 2 63 0 
N 84 26 0 
N 68 89 0 
N 61 63 0 
N 88 47 0 
N 5 45 0 
N 97 77 0 
N 62 4 0 
N 46 88 0 
N 60 39 0 
N 21 54 0 
N 89 82 0 
N 37 62 0 
N 98 83 0 
N 53 36 0 
N 80 15 0 
N 12 29 0 
N 69 37 0 
N 79 44 0 
N 47 67 0 
N 33 39 0 
N 45 69 0 
N 38 55 0 
N 65 74 0 
N 63 55 0 
N 36 78 0 
N 46 9 0 
N 72 81 0 
N 72 1 0 
N 15 53 0 
N 88 10 0 
N 66 31 0 
N 3 1 0 
N 53 46 0 
N 19 3 0 
N 91 90 0 
N 29 33 0 
N 44 38 0 
N 12 26 0 
N 66 45 0 
N 34 31 0 
N 95 33 0 
N 18 24 0 
N 25 83 0 
N 27 21 0 
N 88 53 0 
N 31 1 0 
N 28 20 0 
N 40 89 0 
N 73 59 0 
N 86 22 0 
N 8 28 0 
N 46 75 0 
N 10 16 0 
N 37 36 0 
N 99 12 0 
N 61 61 0 
N 10 86 0 
N 72 43 0 
N 46 47 0 
N 27 14 0 
N 60 10 0 
N 71 4 0 
N 24 2 0 
N 39 84 0 
N 60 55 0 
N 90 83 0 
N 28 32 0 
N 30 21 0 
N 11 4 0 
N 36 94 0 
N 91 98 0 
N 68 18 0 
N 2 48 0 
N 87 0 0 
N 58 5 0 
N 92 22 0 
N 11 53 0 
N 8 43 0 
N 77 26 0 
N 47 72 0 
N 6 85 0 
N 92 80 0 
N 67 27 0 
N 54 35 0 
N 61 94 0 
N 67 31 0 
N 44 93 0 
N 25 84 0 
N 26 58 0 
N 86 4 0 
N 6 65 0 
N 56 3 0 
N 81 11 0 
N 32 23 0 
N 6 73 0 
N 95 51 0 
N 44 17 0 
N 78 53 0 
N 27 45 0 
N 6 70 0 
N 57 7 0 
N 75 17 0 
N 78 96 0 
N 50 7 0 
N 37 48 0 
N 72 59 0 
N 8 84 0 
N 67 34 0 
N 73 43 0 
N 17 42 0 
N 62 95 0 
N 98 84 0 
N 84 39 0 
N 31 85 0 
N 98 55 0 
N 36 12 0 
N 21 25 0 
N 79 4 0 
N 64 53 0 
N 58 90 0 
N 17 4 0 
N 19 72 0 
N 72 87 0 
N 69 6 0 
N 81 6 0 
N 57 22 0 
N 99 3 0 
N 26 32 0 
N 40 45 0 
N 65 10 0 
N 69 67 0 
N 26 84 0 
N 90 60 0 
N 82 91 0 
N 75 73 0 
N 2 14 0 
N 46 40 0 
N 19 95 0 
N 89 48 0 
C 0 0 0 
C 20 0 0 
C 40 0 0 
C 60 0 0 
C 80 0 0 
C 100 0 0 
C 0 20 0 
C 20 20 0 
C 40 20 0 
C 60 20 0 
C 80 20 0 
C 100 20 0 
C 0 40 0 
C 20 40 0 
C 40 40 0 
C 60 40 0 
C 80 40 0 
C 100 40 0 
C 0 60 0 
C 20 60 0 
C 40 60 0 
C 60 60 0 
C 80 60 0 
C 100 60 0 
C 0 80 0 
C 20 80 0 
C 40 80 0 
C 60 80 0 
C 80 80 0 
C 100 80 0 
C 0 100 0 
C 20 100 0 
C 40 100 0 
C 60 100 0 
C 80 100 0 
C 100 100 0 
O 45 76 0 
O 43 87 0 
O 12 14 0 
O 48 46 0 
O 4 18 0 
O 64 54 0 
O 40 74 0 
O 20 83 0 
O 83 21 0 
O 63 17 0 
O 96 76 0 
O 94 27 0 
O 30 74 0 
O 28 21 0 
O 22 27 0 
O 48 62 0 
O 47 89 0 
O 35 73 0 
O 20 27 0 
O 9 61 0 
O 4 27 0 
O 36 39 0 
O 11 97 0 
O 31 10 0 
O 60 2 0 
O 25 4 0 
O 1 27 0 
O 83 99 0 
O 39 43 0 
O 89 95 0 
O 86 2 0 
O 40 73 0 
O 16 12 0 
O 99 24 0 
O 22 59 0 
O 27 62 0 
O 22 94 0 
O 39 55 0 
O 93 62 0 
O 4 82 0 
O 50 99 0 
O 85 86 0 
O 91 94 0 
O 10 5 0 
O 48 66 0 
O 54 36 0 
O 67 72 0 
O 43 94 0 
O 24 38 0 
O 89 59 0 
O 58 40 0 
O 55 13 0 
O 8 89 0 
O 85 25 0 
O 99 51 0 
O 10 66 0 
O 58 95 0 
O 9 15 0 
O 21 95 0 
O 21 59 0 
O 77 4 0 
O 44 68 0 
O 27 43 0 
O 11 7 0 
O 10 8 0 
O 55 29 0 
O 16 69 0 
O 34 36 0 
O 13 36 0 
O 99 26 0 
O 48 45 0 
O 79 71 0 
O 12 8 0 
O 91 82 0 
O 43 95 0 
O 49 0 0 
O 70 99 0 
O 77 58 0 
O 2 62 0 
O 51 94 0 
O 62 39 0 
O 28 34 0 
O 30 50 0 
O 37 10 0 
O 7 84 0 
O 99 84 0 
O 85 65 0 
O 90 79 0 
O 24 93 0 
O 18 95 0 
O 68 44 0 
O 25 33 0 
O 58 28 0 
O 5 39 0 
O 18 81 0 
O 40 5 0 
O 11 16 0 
O 88 73 0 
O 79 5 0 
O 20 59 0 
O 45 74 0 
O 66 41 0 
O 49 62 0 
O 71 68 0 
O 17 75 0 
O 98 69 0 
O 73 54 0 
O 86 94 0 
O 84 72 0 
O 46 8 0 
O 0 90 0 
O 34 96 0 
O 3 98 0 
O 91 47 0 
O 17 82 0 
O 51 6 0 
O 91 7 0 
O 14 18 0 
O 5 28 0 
O 85 38 0 
O 11 2 0 
O 9 51 0 
O 14 7 0 
O 24 0 0 
O 28 50 0 
O 28 4 0 
O 33 32 0 
O 40 4 0 
O 99 61 0 
O 7 80 0 
O 84 80 0 
O 86 32 0 
O 24 96 0 
O 64 28 0 
O 76 16 0 
O 41 16 0 
O 77 8 0 
O 57 1 0 
O 56 93 0 
O 15 76 0 
O 25 59 0 
O 6 68 0 
O 13 16 0 
O 53 37 0 
O 14 99 0 
O 0 28 0 
O 58 50 0 
O 31 95 0 
O 24 65 0 
O 95 21 0 
O 25 66 0 
O 23 14 0 
O 27 60 0 
O 75 53 0 
O 15 70 0 
O 61 28 0 
O 75 88 0 
O 10 17 0 
O 83 5 0 
O 39 5 0 
O 9 7 0 
O 14 57 0 
O 5 64 0 
O 70 3 0 
O 17 61 0 
O 0 85 0 
O 75 40 0 
O 82 84 0 
O 54 98 0 
O 78 98 0 
O 2 0 0 
O 10 77 0 
O 7 23 0 
O 38 49 0 
O 86 73 0 
O 21 70 0 
O 4 47 0 
O 16 82 0 
O 31 22 0 
O 71 78 0 
O 82 70 0 
O 63 5 0 
O 13 60 0 
O 69 46 0 
O 62 27 0 
O 53 23 0 
O 46 41 0 
O 29 0 0 
O 91 20 0 
O 28 23 0 
O 25 99 0 
O 85 91 0 
O 30 8 0 
O 66 18 0 
O 59 31 0 
O 18 2 0 
O 60 41 0 
O 6 42 0 
O 70 12 0 
O 72 44 0 
O 45 55 0 
O 97 71 0 
O 48 65 0 
O 31 69 0 
O 55 21 0 
O 50 95 0 
O 2 77 0 
O 61 31 0 
O 47 99 0 
O 71 44 0 
O 29 50 0 
O 29 17 0 
O 81 39 0 
O 12 72 0 
O 49 47 0 
O 25 13 0 
O 59 24 0 
O 90 30 0 
O 3 46 0 
O 73 13 0 
O 85 73 0 
O 29 3 0 
O 83 92 0 
O 4 64 0 
O 89 97 0 
O 69 53 0 
O 18 41 0 
O 94 98 0 
O 99 64 0 
O 85 37 0 
O 16 0 0 
O 0 4 0 
O 11 40 0 
O 87 60 0 
O 86 35 0 
O 15 9 0 
O 86 37 0 
O 51 5 0 
O 37 16 0 
O 15 61 0 
O 9 10 0 
O 41 1 0 
O 90 29 0 
O 7 57 0 
O 2 38 0 
O 54 69 0 
O 8 62 0 
O 80 70 0 
O 67 64 0 
O 98 3 0 
O 97 47 0 
O 4 4 0 
O 40 91 0 
O 3 60 0 
O 31 4 0 
O 74 71 0 
O 79 62 0 
O 40 25 0 
O 54 42 0 
O 0 2 0 
O 68 57 0 
O 42 74 0 
O 41 44 0 
O 77 33 0 
O 18 73 0 
O 42 16 0 
O 35 19 0 
O 32 87 0 
O 56 19 0 
O 20 56 0 
O 13 41 0 
O 27 66 0 
O 46 54 0 
O 89 73 0 
O 88 8 0 
O 74 6 0 
O 58 64 0 
O 82 31 0 
O 50 2 0 
O 94 84 0 
O 98 27 0 
O 48 96 0 
O 83 64 0 
O 68 52 0 
O 38 2 0 
O 74 47 0 
O 37 53 0 
O 40 10 0 
O 26 99 0 
O 54 1 0 
O 93 73 0 
O 79 87 0 
O 61 44 0 
O 69 43 0 
O 92 35 0 
O 25 14 0 
O 44 20 0 
O 7 17 0 
796
Atoms. Timestep: 4
N 20 56 0 
N 82 92 0 
N 27 39 0 
N 50 79 0 
N 23 94 0 
N 24 93 0 
N 54 97 0 
N 48 95 0 
N 91 11 0 
N 36 41 0 
N 71 82 0 
N 98 43 0 
N 81 45 0 
N 56 72 0 
N 76 47 0 
N 33 72 0 
N 98 61 0 
N 45 1 0 
N 15 57 0 
N 4 0 0 
N 14 19 0 
N 65 88 0 
N 68 13 0 
N 0 13 0 
N 95 17 0 
N 40 7 0 
N 40 39 0 
N 80 41 0 
N 71 80 0 
N 88 13 0 
N 8 80 0 
N 55 10 0 
N 57 77 0 
N 4 48 0 
N 50 99 0 
N 56 77 0 
N 56 69 0 
N 47 52 0 
N 9 77 0 
N 44 78 0 
N 98 4 0 
N 55 53 0 
N 70 81 0 
N 76 23 0 
N 22 64 0 
N 89 81 0 
N 53 18 0 
N 38 4 0 
N 79 25 0 
N 22 81 0 
N 66 29 0 
N 33 36 0 
N 95 19 0 
N 12 51 0 
N 49 26 0 
N 23 25 0 
N 83 98 0 
N 93 73 0 
N 31 93 0 
N 93 37 0 
N 40 82 0 
N 77 97 0 
N 68 99 0 
N 35 20 0 
N 30 74 0 
N 11 23 0 
N 1 53 0 
N 62 2 0 
N 68 53 0 
N 97 5 0 
N 19 91 0 
N 89 69 0 
N 75 89 0 
N 5 18 0 
N 66 89 0 
N 93 34 0 
N 24 39 0 
N 18 94 0 
N 25 96 0 
N 16 27 0 
N 86 49 0 
N 18 12 0 
N 70 94 0 
N 27 93 0 
N 52 85 0 
N 30 73 0 
N 90 31 0 
N 48 83 0 
N 37 9 0 
N 23 3 0 
N 80 58 0 
N 60 79 0 
N 4 19 0 
N 40 83 0 
N 81 40 0 
N 18 24 0 
N 18 91 0 
N 44 95 0 
N 38 42 0 
N 8 90 0 
N 23 84 0 
N 98 37 0 
N 54 32 0 
N 24 30 0 
N 69 99 0 
N 2 92 0 
N 95 35 0 
N 79 33 0 
N 89 48 0 
N 13 56 0 
N 87 73 0 
N 99 26 0 
N 54 43 0 
N 92 64 0 
N 19 11 0 
N 2 98 0 
N 40 85 0 
N 55 12 0 
N 58 92 0 
N 80 56 0 
N 96 61 0 
N 87 49 0 
N 94 27 0 
N 31 18 0 
N 87 59 0 
N 78 87 0 
N 80 25 0 
N 14 95 0 
N 85 85 0 
N 32 70 0 
N 14 98 0 
N 66 30 0 
N 67 12 0 
N 98 6 0 
N 67 38 0 
N 32 86 0 
N 39 84 0 
N 40 28 0 
N 70 97 0 
N 9 16 0 
N 0 88 0 
N 53 26 0 
N 56 12 0 
N 71 25 0 
N 44 9 0 
N 47 35 0 
N 16 69 0 
N 53 89 0 
N 88 95 0 
N 76 21 0 
N 91 93 0 
N 89 94 0 
N 26 43 0 
N 69 52 0 
N 2 73 0 
N 37 59 0 
N 72 81 0 
N 20 98 0 
N 40 3 0 
N 36 66 0 
N 92 66 0 
N 75 92 0 
N 85 21 0 
N 62 72 0 
N 59 50 0 
N 33 39 0 
N 0 84 0 
N 38 1 0 
N 55 89 0 
N 71 67 0 
N 43 98 0 
N 61 31 0 
N 23 38 0 
N 76 32 0 
N 75 97 0 
N 40 53 0 
N 57 14 0 
N 66 40 0 
N 20 30 0 
N 78 58 0 
N 75 40 0 
N 43 68 0 
N 45 78 0 
N 10 75 0 
N 13 14 0 
N 52 38 0 
N 68 82 0 
N 54 40 0 
N 71 65 0 
N 86 34 0 
N 14 58 0 
N 91 20 0 
N 23 50 0 
N 82 25 0 
N 69 95 0 
N 9 89 0 
N 40 9 0 
N 74 54 0 
N 98 59 0 
N 30 50 0 
N 65 82 0 
N 77 33 0 
N 18 43 0 
N 12 24 0 
N 70 98 0 
N 38 2 0 
N 73 59 0 
N 61 28 0 
N 5 38 0 
N 51 93 0 
N 48 64 0 
N 25 13 0 
N 51 9 0 
N 58 94 0 
N 89 79 0 
N 19 3 0 
N 29 50 0 
N 86 32 0 
N 40 77 0 
N 11 12 0 
N 29 94 0 
N 92 7 0 
N 70 13 0 
N 91 35 0 
N 4 26 0 
N 13 35 0 
N 12 71 0 
N 91 23 0 
N 5 37 0 
N 61 71 0 
N 22 27 0 
N 44 22 0 
N 35 76 0 
N 23 28 0 
N 10 40 0 
N 27 38 0 
N 61 9 0 
N 61 45 0 
N 35 36 0 
N 2 18 0 
N 12 2 0 
N 57 28 0 
N 67 92 0 
N 35 98 0 
N 40 6 0 
N 76 20 0 
N 22 70 0 
N 90 74 0 
N 63 18 0 
N 20 24 0 
N 55 13 0 
N 35 71 0 
N 36 31 0 
N 45 20 0 
N 39 25 0 
N 85 56 0 
N 71 72 0 
N 77 23 0 
N 48 48 0 
N 85 8 0 
N 38 3 0 
N 25 38 0 
N 41 36 0 
N 60 56 0 
N 45 80 0 
N 52 78 0 
N 7 58 0 
N 14 72 0 
N 35 75 0 
N 61 61 0 
N 41 32 0 
N 64 9 0 
N 57 72 0 
N 70 57 0 
N 67 70 0 
N 80 57 0 
N 58 52 0 
N 49 61 0 
N 16 36 0 
N 53 15 0 
N 62 40 0 
N 4 46 0 
N 58 97 0 
N 79 56 0 
N 74 39 0 
N 96 18 0 
N 44 34 0 
N 3 97 0 
N 44 67 0 
N 51 23 0 
N 66 17 0 
N 36 55 0 
N 78 15 0 
N 50 92 0 
N 35 49 0 
N 93 42 0 
N 6 98 0 
N 38 80 0 
N 68 28 0 
N 61 94 0 
N 82 99 0 
N 25 85 0 
N 24 85 0 
N 10 97 0 
N 26 51 0 
N 98 63 0 
N 48 46 0 
N 56 63 0 
N 42 72 0 
N 69 57 0 
N 22 22 0 
N 70 96 0 
N 40 27 0 
N 90 22 0 
N 44 77 0 
N 46 40 0 
N 81 43 0 
N 74 93 0 
N 17 45 0 
N 22 24 0 
N 50 24 0 
N 98 51 0 
N 6 57 0 
N 6 87 0 
N 75 22 0 
N 34 49 0 
N 47 53 0 
N 22 30 0 
N 6 71 0 
N 81 42 0 
N 3 46 0 
N 26 58 0 
N 17 83 0 
N 29 62 0 
N 10 76 0 
N 68 57 0 
N 62 27 0 
N 17 51 0 
N 65 75 0 
N 80 92 0 
N 58 93 0 
N 23 56 0 
N 79 57 0 
N 4 42 0 
N 10 63 0 
N 26 72 0 
N 53 14 0 
N 40 32 0 
N 52 5 0 
N 19 61 0 
N 98 10 0 
N 24 44 0 
N 45 62 0 
N 92 94 0 
N 20 52 0 
N 75 63 0 
N 48 47 0 
N 96 96 0 
N 97 74 0 
N 77 15 0 
N 2 62 0 
N 85 26 0 
N 69 89 0 
N 60 63 0 
N 89 47 0 
N 6 45 0 
N 97 76 0 
N 62 5 0 
N 46 89 0 
N 61 39 0 
N 20 54 0 
N 90 82 0 
N 37 61 0 
N 97 83 0 
N 53 37 0 
N 80 16 0 
N 12 30 0 
N 69 38 0 
N 79 43 0 
N 48 67 0 
N 34 39 0 
N 44 69 0 
N 39 55 0 
N 66 74 0 
N 63 56 0 
N 36 77 0 
N 46 8 0 
N 71 81 0 
N 71 1 0 
N 14 53 0 
N 88 9 0 
N 65 31 0 
N 3 2 0 
N 52 46 0 
N 18 3 0 
N 91 91 0 
N 29 34 0 
N 43 38 0 
N 11 26 0 
N 67 45 0 
N 34 32 0 
N 94 33 0 
N 18 25 0 
N 24 83 0 
N 27 22 0 
N 88 54 0 
N 31 0 0 
N 28 21 0 
N 40 90 0 
N 73 58 0 
N 85 22 0 
N 7 28 0 
N 46 76 0 
N 11 16 0 
N 37 36 0 
N 98 12 0 
N 60 61 0 
N 9 86 0 
N 72 44 0 
N 46 46 0 
N 26 14 0 
N 60 9 0 
N 70 4 0 
N 24 1 0 
N 39 85 0 
N 59 55 0 
N 91 83 0 
N 28 33 0 
N 29 21 0 
N 11 5 0 
N 36 95 0 
N 90 98 0 
N 67 18 0 
N 2 47 0 
N 86 0 0 
N 58 4 0 
N 91 22 0 
N 10 53 0 
N 8 42 0 
N 77 27 0 
N 46 72 0 
N 6 84 0 
N 91 80 0 
N 67 28 0 
N 54 36 0 
N 60 94 0 
N 67 31 0 
N 43 93 0 
N 25 84 0 
N 26 59 0 
N 86 3 0 
N 5 65 0 
N 57 3 0 
N 80 11 0 
N 31 23 0 
N 6 73 0 
N 96 51 0 
N 44 16 0 
N 77 53 0 
N 27 44 0 
N 6 69 0 
N 57 6 0 
N 75 16 0 
N 78 97 0 
N 51 7 0 
N 37 49 0 
N 72 58 0 
N 7 84 0 
N 66 34 0 
N 73 44 0 
N 18 42 0 
N 61 95 0 
N 99 84 0 
N 85 39 0 
N 31 86 0 
N 99 55 0 
N 37 12 0 
N 21 26 0 
N 79 5 0 
N 64 54 0 
N 58 91 0 
N 17 3 0 
N 19 73 0 
N 72 88 0 
N 70 6 0 
N 80 6 0 
N 56 22 0 
N 98 3 0 
N 26 33 0 
N 40 44 0 
N 64 10 0 
N 69 68 0 
N 26 83 0 
N 90 59 0 
N 83 91 0 
N 74 73 0 
N 3 14 0 
N 46 41 0 
N 20 95 0 
N 90 48 0 
C 0 0 0 
C 20 0 0 
C 40 0 0 
C 60 0 0 
C 80 0 0 
C 100 0 0 
C 0 20 0 
C 20 20 0 
C 40 20 0 
C 60 20 0 
C 80 20 0 
C 100 20 0 
C 0 40 0 
C 20 40 0 
C 40 40 0 
C 60 40 0 
C 80 40 0 
C 100 40 0 
C 0 60 0 
C 20 60 0 
C 40 60 0 
C 60 60 0 
C 80 60 0 
C 100 60 0 
C 0 80 0 
C 20 80 0 
C 40 80 0 
C 60 80 0 
C 80 80 0 
C 100 80 0 
C 0 100 0 
C 20 100 0 
C 40 100 0 
C 60 100 0 
C 80 100 0 
C 100 100 0 
O 45 77 0 
O 43 86 0 
O 12 15 0 
O 3 18 0 
O 40 73 0 
O 19 83 0 
O 84 21 0 
O 63 16 0 
O 96 77 0 
O 49 62 0 
O 47 90 0 
O 35 74 0 
O 19 27 0 
O 8 61 0 
O 3 27 0 
O 37 39 0 
O 11 98 0 
O 30 10 0 
O 61 2 0 
O 25 5 0 
O 0 27 0 
O 84 99 0 
O 39 44 0 
O 89 96 0 
O 86 1 0 
O 39 73 0 
O 16 11 0 
O 99 23 0 
O 21 59 0 
O 26 62 0 
O 22 95 0 
O 94 62 0 
O 4 83 0 
O 85 87 0 
O 91 94 0 
O 10 6 0 
O 48 65 0 
O 68 72 0 
O 43 95 0 
O 24 37 0 
O 88 59 0 
O 58 39 0 
O 7 89 0 
O 86 25 0 
O 99 50 0 
O 10 65 0 
O 59 95 0 
O 8 15 0 
O 21 96 0 
O 21 58 0 
O 77 3 0 
O 45 68 0 
O 27 43 0 
O 11 6 0 
O 9 8 0 
O 56 29 0 
O 34 35 0 
O 12 36 0 
O 48 44 0 
O 79 72 0 
O 12 7 0 
O 92 82 0 
O 42 95 0 
O 50 0 0 
O 70 0 0 
O 77 59 0 
O 51 95 0 
O 63 39 0 
O 27 34 0 
O 36 10 0 
O 85 64 0 
O 90 80 0 
O 17 95 0 
O 68 45 0 
O 24 33 0 
O 58 27 0 
O 4 39 0 
O 19 81 0 
O 41 5 0 
O 89 73 0 
O 19 59 0 
O 46 74 0 
O 65 41 0 
O 50 62 0 
O 72 68 0 
O 17 76 0 
O 99 69 0 
O 73 53 0 
O 87 94 0 
O 84 73 0 
O 0 91 0 
O 33 96 0 
O 3 99 0 
O 91 46 0 
O 16 82 0 
O 52 6 0 
O 91 6 0 
O 13 18 0 
O 4 28 0 
O 85 37 0 
O 10 2 0 
O 9 52 0 
O 14 6 0 
O 25 0 0 
O 28 49 0 
O 29 4 0 
O 33 33 0 
O 40 4 0 
O 0 61 0 
O 7 81 0 
O 83 80 0 
O 24 97 0 
O 64 27 0 
O 76 15 0 
O 41 17 0 
O 77 7 0 
O 58 1 0 
O 57 93 0 
O 14 76 0 
O 25 60 0 
O 5 68 0 
O 12 16 0 
O 13 99 0 
O 0 29 0 
O 57 50 0 
O 30 95 0 
O 24 66 0 
O 95 20 0 
O 25 65 0 
O 23 13 0 
O 27 61 0 
O 75 54 0 
O 14 70 0 
O 74 88 0 
O 10 18 0 
O 84 5 0 
O 39 4 0 
O 9 6 0 
O 14 56 0 
O 4 64 0 
O 70 2 0 
O 16 61 0 
O 99 85 0 
O 82 85 0 
O 54 99 0 
O 78 99 0 
O 1 0 0 
O 10 77 0 
O 7 22 0 
O 38 50 0 
O 85 73 0 
O 20 70 0 
O 3 47 0 
O 15 82 0 
O 31 21 0 
O 72 78 0 
O 82 69 0 
O 63 4 0 
O 12 60 0 
O 69 45 0 
O 52 23 0 
O 29 99 0 
O 27 23 0 
O 24 99 0 
O 86 91 0 
O 30 7 0 
O 66 18 0 
O 59 32 0 
O 17 2 0 
O 59 41 0 
O 5 42 0 
O 71 12 0 
O 46 55 0 
O 98 71 0 
O 47 65 0 
O 31 70 0 
O 55 22 0 
O 49 95 0 
O 1 77 0 
O 46 99 0 
O 71 45 0 
O 28 17 0 
O 82 39 0 
O 13 72 0 
O 49 48 0 
O 60 24 0 
O 90 29 0 
O 73 12 0 
O 85 74 0 
O 28 3 0 
O 83 93 0 
O 3 64 0 
O 90 97 0 
O 69 54 0 
O 17 41 0 
O 94 99 0 
O 0 64 0 
O 86 37 0 
O 15 0 0 
O 99 4 0 
O 11 39 0 
O 87 61 0 
O 87 35 0 
O 16 9 0 
O 86 36 0 
O 51 5 0 
O 36 16 0 
O 15 62 0 
O 8 10 0 
O 41 0 0 
O 89 29 0 
O 7 57 0 
O 2 39 0 
O 53 69 0 
O 7 62 0 
O 81 70 0 
O 66 64 0 
O 98 47 0 
O 3 4 0 
O 41 91 0 
O 3 59 0 
O 30 4 0 
O 74 72 0 
O 78 62 0 
O 40 24 0 
O 53 42 0 
O 0 1 0 
O 42 75 0 
O 42 44 0 
O 17 73 0 
O 42 15 0 
O 34 19 0 
O 32 88 0 
O 56 18 0 
O 13 42 0 
O 27 67 0 
O 45 54 0 
O 89 74 0 
O 89 8 0 
O 75 6 0 
O 58 65 0 
O 82 32 0 
O 51 2 0 
O 95 84 0 
O 99 27 0 
O 48 97 0 
O 83 63 0 
O 68 51 0 
O 74 48 0 
O 38 53 0 
O 39 10 0 
O 26 0 0 
O 54 2 0 
O 79 86 0 
O 62 44 0 
O 68 43 0 
O 92 34 0 
O 24 14 0 
O 43 20 0 
O 7 18 0 
751
Atoms. Timestep: 5
N 21 56 0 
N 83 92 0 
N 27 38 0 
N 50 78 0 
N 22 94 0 
N 24 94 0 
N 54 98 0 
N 49 95 0 
N 91 10 0 
N 36 40 0 
N 72 82 0 
N 98 44 0 
N 81 44 0 
N 56 71 0 
N 76 48 0 
N 34 72 0 
N 97 61 0 
N 45 2 0 
N 16 57 0 
N 4 1 0 
N 14 18 0 
N 66 88 0 
N 69 13 0 
N 1 13 0 
N 96 17 0 
N 41 7 0 
N 39 39 0 
N 81 41 0 
N 71 79 0 
N 89 13 0 
N 8 79 0 
N 55 9 0 
N 57 76 0 
N 5 48 0 
N 50 98 0 
N 55 77 0 
N 55 69 0 
N 46 52 0 
N 8 77 0 
N 43 78 0 
N 99 4 0 
N 56 53 0 
N 70 80 0 
N 77 23 0 
N 23 64 0 
N 89 82 0 
N 54 18 0 
N 39 4 0 
N 80 25 0 
N 21 81 0 
N 66 28 0 
N 33 35 0 
N 95 20 0 
N 11 51 0 
N 49 27 0 
N 23 26 0 
N 83 97 0 
N 92 73 0 
N 30 93 0 
N 92 37 0 
N 41 82 0 
N 78 97 0 
N 68 98 0 
N 34 20 0 
N 30 73 0 
N 11 22 0 
N 1 52 0 
N 61 2 0 
N 68 54 0 
N 98 5 0 
N 19 92 0 
N 89 70 0 
N 74 89 0 
N 6 18 0 
N 66 90 0 
N 92 34 0 
N 24 39 0 
N 17 94 0 
N 24 96 0 
N 17 27 0 
N 86 48 0 
N 17 12 0 
N 70 93 0 
N 28 93 0 
N 51 85 0 
N 31 73 0 
N 90 30 0 
N 48 84 0 
N 36 9 0 
N 23 4 0 
N 79 58 0 
N 61 79 0 
N 5 19 0 
N 41 83 0 
N 81 39 0 
N 18 25 0 
N 18 92 0 
N 43 95 0 
N 37 42 0 
N 7 90 0 
N 22 84 0 
N 97 37 0 
N 54 31 0 
N 24 31 0 
N 70 99 0 
N 2 91 0 
N 94 35 0 
N 79 32 0 
N 89 47 0 
N 14 56 0 
N 87 74 0 
N 99 27 0 
N 54 42 0 
N 92 63 0 
N 18 11 0 
N 2 99 0 
N 40 86 0 
N 55 13 0 
N 59 92 0 
N 80 57 0 
N 95 61 0 
N 87 48 0 
N 95 27 0 
N 31 19 0 
N 88 59 0 
N 78 86 0 
N 81 25 0 
N 15 95 0 
N 85 86 0 
N 31 70 0 
N 14 99 0 
N 66 30 0 
N 68 12 0 
N 99 6 0 
N 66 38 0 
N 32 87 0 
N 40 84 0 
N 40 27 0 
N 70 96 0 
N 8 16 0 
N 0 89 0 
N 53 27 0 
N 56 13 0 
N 71 26 0 
N 44 10 0 
N 48 35 0 
N 16 70 0 
N 53 90 0 
N 88 96 0 
N 76 20 0 
N 90 93 0 
N 89 95 0 
N 25 43 0 
N 69 53 0 
N 1 73 0 
N 38 59 0 
N 72 80 0 
N 21 98 0 
N 40 4 0 
N 35 66 0 
N 93 66 0 
N 75 91 0 
N 84 21 0 
N 63 72 0 
N 58 50 0 
N 34 39 0 
N 1 84 0 
N 39 1 0 
N 55 90 0 
N 71 68 0 
N 43 97 0 
N 61 32 0 
N 24 38 0 
N 76 32 0 
N 75 98 0 
N 39 53 0 
N 57 15 0 
N 66 41 0 
N 19 30 0 
N 77 58 0 
N 76 40 0 
N 43 68 0 
N 46 78 0 
N 10 76 0 
N 12 14 0 
N 52 39 0 
N 69 82 0 
N 54 41 0 
N 71 66 0 
N 87 34 0 
N 14 57 0 
N 92 20 0 
N 23 49 0 
N 83 25 0 
N 69 94 0 
N 8 89 0 
N 39 9 0 
N 75 54 0 
N 98 60 0 
N 31 50 0 
N 66 82 0 
N 77 32 0 
N 18 42 0 
N 13 24 0 
N 70 98 0 
N 38 3 0 
N 74 59 0 
N 61 27 0 
N 5 39 0 
N 51 94 0 
N 48 65 0 
N 24 13 0 
N 51 8 0 
N 58 95 0 
N 89 80 0 
N 19 2 0 
N 29 49 0 
N 87 32 0 
N 40 76 0 
N 11 13 0 
N 29 95 0 
N 91 7 0 
N 70 12 0 
N 92 35 0 
N 4 27 0 
N 13 36 0 
N 12 70 0 
N 90 23 0 
N 4 37 0 
N 61 72 0 
N 22 27 0 
N 44 21 0 
N 35 75 0 
N 23 27 0 
N 9 40 0 
N 27 37 0 
N 61 8 0 
N 61 44 0 
N 34 36 0 
N 3 18 0 
N 11 2 0 
N 56 28 0 
N 66 92 0 
N 34 98 0 
N 40 5 0 
N 77 20 0 
N 21 70 0 
N 89 74 0 
N 63 17 0 
N 20 25 0 
N 55 14 0 
N 35 70 0 
N 36 32 0 
N 44 20 0 
N 39 24 0 
N 85 57 0 
N 70 72 0 
N 78 23 0 
N 49 48 0 
N 84 8 0 
N 39 3 0 
N 25 37 0 
N 41 37 0 
N 60 55 0 
N 46 80 0 
N 51 78 0 
N 7 59 0 
N 13 72 0 
N 35 74 0 
N 60 61 0 
N 41 33 0 
N 63 9 0 
N 57 71 0 
N 70 58 0 
N 67 71 0 
N 79 57 0 
N 57 52 0 
N 49 62 0 
N 15 36 0 
N 54 15 0 
N 63 40 0 
N 4 45 0 
N 58 96 0 
N 78 56 0 
N 75 39 0 
N 96 19 0 
N 44 35 0 
N 3 98 0 
N 45 67 0 
N 52 23 0 
N 66 16 0 
N 37 55 0 
N 78 14 0 
N 50 93 0 
N 36 49 0 
N 92 42 0 
N 6 99 0 
N 39 80 0 
N 67 28 0 
N 62 94 0 
N 83 99 0 
N 24 85 0 
N 23 85 0 
N 10 98 0 
N 27 51 0 
N 97 63 0 
N 48 45 0 
N 56 64 0 
N 41 72 0 
N 69 56 0 
N 22 23 0 
N 70 95 0 
N 40 26 0 
N 90 21 0 
N 45 77 0 
N 46 41 0 
N 82 43 0 
N 74 92 0 
N 17 44 0 
N 22 25 0 
N 51 24 0 
N 98 50 0 
N 7 57 0 
N 6 88 0 
N 75 21 0 
N 34 50 0 
N 47 54 0 
N 22 31 0 
N 5 71 0 
N 82 42 0 
N 3 46 0 
N 25 58 0 
N 18 83 0 
N 28 62 0 
N 10 77 0 
N 68 56 0 
N 63 27 0 
N 16 51 0 
N 65 74 0 
N 80 91 0 
N 57 93 0 
N 23 57 0 
N 78 57 0 
N 5 42 0 
N 10 64 0 
N 26 71 0 
N 52 14 0 
N 40 33 0 
N 52 6 0 
N 19 60 0 
N 99 10 0 
N 24 43 0 
N 46 62 0 
N 91 94 0 
N 21 52 0 
N 75 62 0 
N 49 47 0 
N 96 97 0 
N 97 75 0 
N 76 15 0 
N 1 62 0 
N 85 25 0 
N 69 88 0 
N 59 63 0 
N 89 46 0 
N 5 45 0 
N 97 77 0 
N 62 4 0 
N 46 90 0 
N 62 39 0 
N 21 54 0 
N 90 82 0 
N 38 61 0 
N 96 83 0 
N 53 38 0 
N 79 16 0 
N 12 31 0 
N 69 39 0 
N 80 43 0 
N 48 66 0 
N 35 39 0 
N 44 68 0 
N 38 55 0 
N 66 73 0 
N 64 56 0 
N 35 77 0 
N 46 7 0 
N 71 81 0 
N 71 0 0 
N 14 54 0 
N 88 8 0 
N 65 30 0 
N 3 3 0 
N 53 46 0 
N 17 3 0 
N 91 92 0 
N 28 34 0 
N 43 39 0 
N 11 25 0 
N 68 45 0 
N 33 32 0 
N 93 33 0 
N 18 26 0 
N 23 83 0 
N 27 23 0 
N 88 55 0 
N 30 0 0 
N 29 21 0 
N 41 90 0 
N 74 58 0 
N 84 22 0 
N 6 28 0 
N 46 77 0 
N 12 16 0 
N 37 37 0 
N 99 12 0 
N 60 62 0 
N 8 86 0 
N 71 44 0 
N 47 46 0 
N 25 14 0 
N 60 8 0 
N 70 3 0 
N 24 0 0 
N 39 86 0 
N 59 54 0 
N 91 82 0 
N 27 33 0 
N 30 21 0 
N 11 6 0 
N 35 95 0 
N 90 97 0 
N 66 18 0 
N 3 47 0 
N 86 1 0 
N 58 3 0 
N 91 21 0 
N 10 54 0 
N 7 42 0 
N 77 28 0 
N 46 73 0 
N 6 83 0 
N 90 80 0 
N 67 27 0 
N 55 36 0 
N 59 94 0 
N 66 31 0 
N 43 94 0 
N 24 84 0 
N 25 59 0 
N 86 2 0 
N 5 64 0 
N 57 2 0 
N 79 11 0 
N 31 22 0 
N 5 73 0 
N 97 51 0 
N 43 16 0 
N 76 53 0 
N 27 43 0 
N 6 68 0 
N 56 6 0 
N 75 15 0 
N 78 98 0 
N 51 6 0 
N 37 50 0 
N 72 59 0 
N 7 83 0 
N 65 34 0 
N 73 45 0 
N 18 41 0 
N 60 95 0 
N 99 85 0 
N 85 38 0 
N 31 87 0 
N 99 54 0 
N 36 12 0 
N 21 27 0 
N 78 5 0 
N 65 54 0 
N 57 91 0 
N 17 2 0 
N 18 73 0 
N 73 88 0 
N 70 5 0 
N 79 6 0 
N 55 22 0 
N 99 3 0 
N 25 33 0 
N 39 44 0 
N 64 11 0 
N 70 68 0 
N 25 83 0 
N 89 59 0 
N 84 91 0 
N 74 72 0 
N 3 15 0 
N 47 41 0 
N 21 95 0 
N 90 47 0 
C 0 0 0 
C 20 0 0 
C 40 0 0 
C 60 0 0 
C 80 0 0 
C 100 0 0 
C 0 20 0 
C 20 20 0 
C 40 20 0 
C 60 20 0 
C 80 20 0 
C 100 20 0 
C 0 40 0 
C 20 40 0 
C 40 40 0 
C 60 40 0 
C 80 40 0 
C 100 40 0 
C 0 60 0 
C 20 60 0 
C 40 60 0 
C 60 60 0 
C 80 60 0 
C 100 60 0 
C 0 80 0 
C 20 80 0 
C 40 80 0 
C 60 80 0 
C 80 80 0 
C 100 80 0 
C 0 100 0 
C 20 100 0 
C 40 100 0 
C 60 100 0 
C 80 100 0 
C 100 100 0 
O 44 86 0 
O 11 15 0 
O 40 74 0 
O 19 84 0 
O 64 16 0 
O 96 76 0 
O 47 89 0 
O 19 26 0 
O 8 62 0 
O 3 26 0 
O 36 39 0 
O 11 99 0 
O 30 9 0 
O 25 4 0 
O 0 26 0 
O 84 0 0 
O 89 97 0 
O 39 74 0 
O 15 11 0 
O 99 24 0 
O 21 60 0 
O 25 62 0 
O 22 96 0 
O 95 62 0 
O 3 83 0 
O 85 88 0 
O 9 6 0 
O 68 73 0 
O 23 37 0 
O 59 39 0 
O 6 89 0 
O 87 25 0 
O 99 49 0 
O 11 65 0 
O 59 95 0 
O 7 15 0 
O 20 96 0 
O 20 58 0 
O 77 2 0 
O 46 68 0 
O 8 8 0 
O 57 29 0 
O 34 34 0 
O 12 37 0 
O 48 43 0 
O 79 71 0 
O 11 7 0 
O 93 82 0 
O 41 95 0 
O 51 0 0 
O 70 0 0 
O 77 60 0 
O 52 95 0 
O 64 39 0 
O 27 35 0 
O 37 10 0 
O 85 63 0 
O 17 96 0 
O 23 33 0 
O 58 26 0 
O 3 39 0 
O 19 80 0 
O 41 4 0 
O 90 73 0 
O 18 59 0 
O 46 75 0 
O 65 40 0 
O 50 63 0 
O 72 69 0 
O 16 76 0 
O 99 68 0 
O 73 52 0 
O 87 93 0 
O 85 73 0 
O 99 91 0 
O 32 96 0 
O 3 0 0 
O 92 46 0 
O 15 82 0 
O 91 5 0 
O 12 18 0 
O 3 28 0 
O 85 36 0 
O 9 2 0 
O 9 51 0 
O 14 5 0 
O 25 99 0 
O 28 48 0 
O 29 3 0 
O 33 34 0 
O 0 62 0 
O 6 81 0 
O 83 81 0 
O 23 97 0 
O 64 26 0 
O 42 17 0 
O 78 7 0 
O 58 0 0 
O 14 77 0 
O 26 60 0 
O 5 67 0 
O 13 0 0 
O 0 28 0 
O 57 51 0 
O 30 94 0 
O 24 65 0 
O 25 66 0 
O 23 12 0 
O 26 61 0 
O 13 70 0 
O 74 88 0 
O 9 18 0 
O 84 4 0 
O 8 6 0 
O 4 63 0 
O 70 1 0 
O 15 61 0 
O 82 86 0 
O 54 0 0 
O 78 0 0 
O 1 99 0 
O 6 22 0 
O 38 51 0 
O 86 73 0 
O 19 70 0 
O 15 81 0 
O 31 20 0 
O 73 78 0 
O 82 68 0 
O 63 3 0 
O 12 59 0 
O 69 44 0 
O 28 99 0 
O 23 99 0 
O 87 91 0 
O 29 7 0 
O 59 31 0 
O 59 42 0 
O 71 11 0 
O 46 56 0 
O 98 70 0 
O 46 65 0 
O 0 77 0 
O 46 0 0 
O 72 45 0 
O 28 16 0 
O 82 38 0 
O 61 24 0 
O 91 29 0 
O 72 12 0 
O 84 74 0 
O 28 2 0 
O 82 93 0 
O 3 65 0 
O 70 54 0 
O 17 40 0 
O 94 0 0 
O 0 63 0 
O 87 37 0 
O 15 99 0 
O 10 39 0 
O 87 60 0 
O 87 36 0 
O 15 9 0 
O 86 35 0 
O 52 5 0 
O 36 15 0 
O 14 62 0 
O 7 10 0 
O 41 99 0 
O 89 28 0 
O 2 40 0 
O 54 69 0 
O 6 62 0 
O 81 69 0 
O 66 65 0 
O 99 47 0 
O 2 4 0 
O 42 91 0 
O 2 59 0 
O 30 3 0 
O 79 62 0 
O 40 23 0 
O 53 41 0 
O 1 1 0 
O 42 76 0 
O 42 43 0 
O 16 73 0 
O 41 15 0 
O 33 19 0 
O 33 88 0 
O 55 18 0 
O 12 42 0 
O 26 67 0 
O 44 54 0 
O 89 7 0 
O 75 5 0 
O 57 65 0 
O 81 32 0 
O 52 2 0 
O 96 84 0 
O 47 97 0 
O 83 64 0 
O 69 51 0 
O 75 48 0 
O 37 53 0 
O 38 10 0 
O 26 99 0 
O 54 1 0 
O 79 85 0 
O 63 44 0 
O 68 44 0 
O 24 15 0 
O 42 20 0 
O 7 17 0 
727
Atoms. Timestep: 6
N 21 57 0 
N 83 93 0 
N 27 37 0 
N 49 78 0 
N 22 94 0 
N 24 95 0 
N 54 97 0 
N 50 95 0 
N 91 9 0 
N 35 40 0 
N 73 82 0 
N 98 45 0 
N 82 44 0 
N 57 71 0 
N 75 48 0 
N 35 72 0 
N 97 62 0 
N 45 1 0 
N 17 57 0 
N 3 1 0 
N 13 18 0 
N 67 88 0 
N 70 13 0 
N 1 14 0 
N 97 17 0 
N 40 7 0 
N 39 40 0 
N 81 40 0 
N 72 79 0 
N 89 12 0 
N 8 80 0 
N 54 9 0 
N 57 75 0 
N 6 48 0 
N 51 98 0 
N 55 76 0 
N 54 69 0 
N 46 53 0 
N 7 77 0 
N 43 77 0 
N 99 4 0 
N 56 54 0 
N 71 80 0 
N 78 23 0 
N 24 64 0 
N 90 82 0 
N 55 18 0 
N 40 4 0 
N 81 25 0 
N 21 80 0 
N 65 28 0 
N 33 34 0 
N 95 21 0 
N 10 51 0 
N 49 28 0 
N 23 26 0 
N 83 96 0 
N 91 73 0 
N 30 92 0 
N 91 37 0 
N 42 82 0 
N 78 96 0 
N 69 98 0 
N 34 19 0 
N 30 74 0 
N 12 22 0 
N 2 52 0 
N 62 2 0 
N 67 54 0 
N 98 4 0 
N 20 92 0 
N 89 69 0 
N 75 89 0 
N 6 17 0 
N 66 89 0 
N 91 34 0 
N 23 39 0 
N 17 93 0 
N 23 96 0 
N 18 27 0 
N 87 48 0 
N 16 12 0 
N 70 92 0 
N 29 93 0 
N 51 86 0 
N 32 73 0 
N 90 29 0 
N 48 85 0 
N 36 10 0 
N 24 4 0 
N 79 59 0 
N 61 78 0 
N 5 20 0 
N 42 83 0 
N 81 38 0 
N 18 26 0 
N 18 93 0 
N 42 95 0 
N 38 42 0 
N 8 90 0 
N 21 84 0 
N 96 37 0 
N 54 30 0 
N 24 32 0 
N 70 98 0 
N 3 91 0 
N 94 36 0 
N 80 32 0 
N 90 47 0 
N 13 56 0 
N 86 74 0 
N 99 26 0 
N 55 42 0 
N 91 63 0 
N 17 11 0 
N 1 99 0 
N 41 86 0 
N 55 14 0 
N 59 91 0 
N 80 58 0 
N 95 62 0 
N 88 48 0 
N 94 27 0 
N 31 20 0 
N 87 59 0 
N 79 86 0 
N 81 26 0 
N 15 96 0 
N 85 87 0 
N 31 69 0 
N 15 99 0 
N 65 30 0 
N 69 12 0 
N 99 5 0 
N 65 38 0 
N 32 88 0 
N 41 84 0 
N 40 26 0 
N 70 95 0 
N 8 15 0 
N 0 90 0 
N 54 27 0 
N 56 14 0 
N 70 26 0 
N 43 10 0 
N 48 36 0 
N 15 70 0 
N 53 91 0 
N 88 95 0 
N 75 20 0 
N 89 93 0 
N 89 94 0 
N 25 42 0 
N 70 53 0 
N 1 74 0 
N 38 58 0 
N 73 80 0 
N 22 98 0 
N 41 4 0 
N 34 66 0 
N 93 65 0 
N 75 92 0 
N 84 22 0 
N 63 73 0 
N 58 49 0 
N 34 38 0 
N 2 84 0 
N 40 1 0 
N 54 90 0 
N 71 69 0 
N 43 96 0 
N 61 31 0 
N 23 38 0 
N 77 32 0 
N 75 97 0 
N 38 53 0 
N 57 16 0 
N 65 41 0 
N 20 30 0 
N 77 59 0 
N 77 40 0 
N 44 68 0 
N 46 78 0 
N 11 76 0 
N 12 14 0 
N 52 39 0 
N 69 81 0 
N 53 41 0 
N 71 67 0 
N 87 35 0 
N 13 57 0 
N 92 21 0 
N 24 49 0 
N 84 25 0 
N 69 93 0 
N 7 89 0 
N 39 10 0 
N 75 53 0 
N 97 60 0 
N 30 50 0 
N 66 81 0 
N 78 32 0 
N 18 41 0 
N 13 23 0 
N 70 97 0 
N 38 4 0 
N 75 59 0 
N 61 26 0 
N 4 39 0 
N 52 94 0 
N 47 65 0 
N 23 13 0 
N 52 8 0 
N 58 94 0 
N 89 81 0 
N 18 2 0 
N 29 48 0 
N 87 33 0 
N 40 75 0 
N 11 14 0 
N 29 94 0 
N 91 6 0 
N 71 12 0 
N 92 36 0 
N 4 26 0 
N 12 36 0 
N 12 69 0 
N 90 24 0 
N 4 38 0 
N 61 73 0 
N 23 27 0 
N 43 21 0 
N 35 74 0 
N 23 28 0 
N 10 40 0 
N 27 36 0 
N 62 8 0 
N 62 44 0 
N 34 35 0 
N 4 18 0 
N 10 2 0 
N 57 28 0 
N 67 92 0 
N 33 98 0 
N 41 5 0 
N 77 19 0 
N 20 70 0 
N 90 74 0 
N 63 16 0 
N 20 26 0 
N 55 15 0 
N 35 71 0 
N 35 32 0 
N 43 20 0 
N 39 23 0 
N 86 57 0 
N 70 73 0 
N 78 24 0 
N 48 48 0 
N 84 7 0 
N 40 3 0 
N 24 37 0 
N 41 38 0 
N 60 54 0 
N 46 79 0 
N 51 77 0 
N 8 59 0 
N 13 71 0 
N 36 74 0 
N 60 62 0 
N 40 33 0 
N 63 8 0 
N 57 70 0 
N 70 57 0 
N 68 71 0 
N 79 57 0 
N 57 51 0 
N 50 62 0 
N 14 36 0 
N 54 16 0 
N 64 40 0 
N 3 45 0 
N 58 96 0 
N 78 57 0 
N 76 39 0 
N 97 19 0 
N 44 36 0 
N 3 97 0 
N 44 67 0 
N 53 23 0 
N 65 16 0 
N 37 54 0 
N 78 13 0 
N 51 93 0 
N 36 50 0 
N 92 43 0 
N 5 99 0 
N 39 79 0 
N 67 27 0 
N 61 94 0 
N 84 99 0 
N 23 85 0 
N 22 85 0 
N 11 98 0 
N 28 51 0 
N 96 63 0 
N 48 44 0 
N 57 64 0 
N 41 73 0 
N 69 55 0 
N 23 23 0 
N 70 94 0 
N 40 25 0 
N 89 21 0 
N 46 77 0 
N 46 42 0 
N 82 42 0 
N 74 93 0 
N 17 43 0 
N 22 24 0 
N 51 25 0 
N 99 50 0 
N 7 58 0 
N 6 89 0 
N 76 21 0 
N 34 51 0 
N 48 54 0 
N 23 31 0 
N 5 70 0 
N 82 41 0 
N 4 46 0 
N 25 59 0 
N 19 83 0 
N 27 62 0 
N 11 77 0 
N 68 55 0 
N 63 26 0 
N 15 51 0 
N 66 74 0 
N 80 92 0 
N 56 93 0 
N 23 58 0 
N 78 58 0 
N 5 41 0 
N 11 64 0 
N 26 70 0 
N 53 14 0 
N 39 33 0 
N 52 5 0 
N 19 60 0 
N 98 10 0 
N 24 42 0 
N 46 63 0 
N 90 94 0 
N 20 52 0 
N 75 61 0 
N 49 46 0 
N 95 97 0 
N 96 75 0 
N 75 15 0 
N 0 62 0 
N 86 25 0 
N 69 87 0 
N 59 64 0 
N 90 46 0 
N 5 44 0 
N 96 77 0 
N 62 3 0 
N 47 90 0 
N 63 39 0 
N 20 54 0 
N 91 82 0 
N 38 60 0 
N 96 84 0 
N 53 39 0 
N 78 16 0 
N 12 32 0 
N 68 39 0 
N 81 43 0 
N 47 66 0 
N 36 39 0 
N 45 68 0 
N 38 54 0 
N 67 73 0 
N 65 56 0 
N 35 76 0 
N 46 6 0 
N 72 81 0 
N 70 0 0 
N 14 55 0 
N 89 8 0 
N 64 30 0 
N 2 3 0 
N 53 45 0 
N 16 3 0 
N 91 93 0 
N 28 35 0 
N 43 40 0 
N 11 24 0 
N 68 44 0 
N 33 33 0 
N 92 33 0 
N 19 26 0 
N 22 83 0 
N 27 22 0 
N 87 55 0 
N 29 0 0 
N 30 21 0 
N 42 90 0 
N 75 58 0 
N 84 23 0 
N 5 28 0 
N 46 76 0 
N 12 15 0 
N 37 38 0 
N 99 11 0 
N 60 63 0 
N 7 86 0 
N 70 44 0 
N 48 46 0 
N 25 15 0 
N 60 7 0 
N 70 2 0 
N 24 1 0 
N 39 86 0 
N 58 54 0 
N 92 82 0 
N 27 34 0 
N 30 20 0 
N 11 7 0 
N 34 95 0 
N 89 97 0 
N 66 17 0 
N 4 47 0 
N 86 0 0 
N 58 3 0 
N 91 22 0 
N 9 54 0 
N 8 42 0 
N 78 28 0 
N 46 74 0 
N 6 82 0 
N 90 81 0 
N 66 27 0 
N 56 36 0 
N 59 93 0 
N 65 31 0 
N 42 94 0 
N 23 84 0 
N 25 60 0 
N 85 2 0 
N 5 63 0 
N 58 2 0 
N 79 10 0 
N 31 21 0 
N 5 72 0 
N 97 50 0 
N 42 16 0 
N 76 52 0 
N 28 43 0 
N 5 68 0 
N 56 5 0 
N 75 14 0 
N 78 98 0 
N 51 5 0 
N 38 50 0 
N 73 59 0 
N 7 82 0 
N 65 35 0 
N 72 45 0 
N 17 41 0 
N 59 95 0 
N 99 84 0 
N 85 37 0 
N 31 88 0 
N 99 53 0 
N 36 11 0 
N 21 26 0 
N 78 6 0 
N 66 54 0 
N 57 92 0 
N 16 2 0 
N 17 73 0 
N 74 88 0 
N 70 4 0 
N 79 7 0 
N 55 21 0 
N 98 3 0 
N 24 33 0 
N 40 44 0 
N 64 12 0 
N 70 69 0 
N 24 83 0 
N 89 60 0 
N 85 91 0 
N 73 72 0 
N 4 15 0 
N 48 41 0 
N 22 95 0 
N 91 47 0 
C 0 0 0 
C 20 0 0 
C 40 0 0 
C 60 0 0 
C 80 0 0 
C 100 0 0 
C 0 20 0 
C 20 20 0 
C 40 20 0 
C 60 20 0 
C 80 20 0 
C 100 20 0 
C 0 40 0 
C 20 40 0 
C 40 40 0 
C 60 40 0 
C 80 40 0 
C 100 40 0 
C 0 60 0 
C 20 60 0 
C 40 60 0 
C 60 60 0 
C 80 60 0 
C 100 60 0 
C 0 80 0 
C 20 80 0 
C 40 80 0 
C 60 80 0 
C 80 80 0 
C 100 80 0 
C 0 100 0 
C 20 100 0 
C 40 100 0 
C 60 100 0 
C 80 100 0 
C 100 100 0 
O 44 87 0 
O 10 15 0 
O 41 74 0 
O 19 85 0 
O 64 15 0 
O 97 76 0 
O 46 89 0 
O 8 61 0 
O 2 26 0 
O 10 99 0 
O 29 9 0 
O 25 3 0 
O 0 25 0 
O 85 0 0 
O 38 74 0 
O 14 11 0 
O 99 23 0 
O 21 61 0 
O 25 63 0 
O 22 96 0 
O 2 83 0 
O 86 88 0 
O 8 6 0 
O 69 73 0 
O 22 37 0 
O 59 40 0 
O 87 24 0 
O 0 49 0 
O 10 65 0 
O 6 15 0 
O 21 96 0 
O 19 58 0 
O 77 1 0 
O 46 69 0 
O 7 8 0 
O 58 29 0 
O 34 33 0 
O 11 37 0 
O 48 42 0 
O 79 70 0 
O 93 83 0 
O 40 95 0 
O 50 0 0 
O 77 61 0 
O 53 95 0 
O 64 38 0 
O 26 35 0 
O 37 11 0 
O 85 64 0 
O 16 96 0 
O 23 34 0 
O 59 26 0 
O 3 40 0 
O 19 81 0 
O 90 73 0 
O 17 59 0 
O 45 75 0 
O 65 39 0 
O 51 63 0 
O 72 70 0 
O 17 76 0 
O 0 68 0 
O 73 51 0 
O 87 94 0 
O 85 72 0 
O 0 91 0 
O 33 96 0 
O 2 0 0 
O 93 46 0 
O 14 82 0 
O 92 5 0 
O 12 17 0 
O 3 27 0 
O 86 36 0 
O 9 3 0 
O 8 51 0 
O 13 5 0 
O 25 0 0 
O 28 47 0 
O 30 3 0 
O 5 81 0 
O 83 82 0 
O 22 97 0 
O 65 26 0 
O 41 17 0 
O 78 7 0 
O 57 0 0 
O 14 76 0 
O 26 61 0 
O 4 67 0 
O 12 0 0 
O 0 27 0 
O 30 95 0 
O 23 65 0 
O 25 67 0 
O 23 11 0 
O 27 61 0 
O 12 70 0 
O 9 17 0 
O 84 3 0 
O 7 6 0 
O 3 63 0 
O 71 1 0 
O 15 62 0 
O 83 86 0 
O 54 99 0 
O 77 0 0 
O 5 22 0 
O 37 51 0 
O 87 73 0 
O 19 69 0 
O 14 81 0 
O 74 78 0 
O 81 68 0 
O 64 3 0 
O 13 59 0 
O 69 43 0 
O 28 0 0 
O 23 0 0 
O 88 91 0 
O 29 6 0 
O 59 30 0 
O 59 43 0 
O 71 10 0 
O 45 56 0 
O 98 69 0 
O 46 66 0 
O 99 77 0 
O 46 99 0 
O 27 16 0 
O 83 38 0 
O 61 23 0 
O 92 29 0 
O 72 13 0 
O 85 74 0 
O 28 1 0 
O 82 94 0 
O 3 66 0 
O 69 54 0 
O 18 40 0 
O 95 0 0 
O 99 63 0 
O 88 37 0 
O 9 39 0 
O 87 61 0 
O 88 36 0 
O 15 8 0 
O 86 34 0 
O 36 14 0 
O 14 63 0 
O 6 10 0 
O 40 99 0 
O 89 27 0 
O 1 40 0 
O 7 62 0 
O 82 69 0 
O 66 64 0 
O 0 47 0 
O 1 4 0 
O 42 92 0 
O 2 58 0 
O 30 2 0 
O 78 62 0 
O 40 22 0 
O 0 1 0 
O 42 77 0 
O 43 43 0 
O 16 74 0 
O 40 15 0 
O 33 18 0 
O 33 87 0 
O 12 43 0 
O 26 68 0 
O 44 55 0 
O 89 6 0 
O 76 5 0 
O 58 65 0 
O 81 31 0 
O 53 2 0 
O 47 98 0 
O 84 64 0 
O 69 50 0 
O 37 52 0 
O 38 9 0 
O 27 99 0 
O 55 1 0 
O 80 85 0 
O 63 45 0 
O 23 15 0 
O 42 19 0 
O 7 16 0 
705
Atoms. Timestep: 7
N 20 57 0 
N 83 94 0 
N 26 37 0 
N 48 78 0 
N 21 94 0 
N 23 95 0 
N 53 97 0 
N 51 95 0 
N 91 8 0 
N 35 41 0 
N 73 81 0 
N 99 45 0 
N 83 44 0 
N 57 70 0 
N 74 48 0 
N 35 73 0 
N 98 62 0 
N 45 2 0 
N 17 58 0 
N 3 0 0 
N 12 18 0 
N 67 87 0 
N 71 13 0 
N 2 14 0 
N 98 17 0 
N 40 8 0 
N 39 41 0 
N 82 40 0 
N 72 78 0 
N 90 12 0 
N 8 81 0 
N 53 9 0 
N 58 75 0 
N 7 48 0 
N 51 97 0 
N 54 76 0 
N 53 69 0 
N 45 53 0 
N 7 78 0 
N 42 77 0 
N 98 4 0 
N 55 54 0 
N 71 79 0 
N 78 24 0 
N 24 63 0 
N 91 82 0 
N 56 18 0 
N 40 4 0 
N 81 26 0 
N 21 81 0 
N 65 27 0 
N 32 34 0 
N 95 22 0 
N 9 51 0 
N 50 28 0 
N 23 27 0 
N 82 96 0 
N 91 73 0 
N 30 92 0 
N 90 37 0 
N 42 81 0 
N 78 95 0 
N 69 97 0 
N 34 18 0 
N 31 74 0 
N 12 21 0 
N 1 52 0 
N 62 3 0 
N 67 53 0 
N 97 4 0 
N 21 92 0 
N 89 70 0 
N 76 89 0 
N 6 16 0 
N 65 89 0 
N 90 34 0 
N 23 38 0 
N 17 94 0 
N 23 96 0 
N 18 28 0 
N 88 48 0 
N 15 12 0 
N 70 91 0 
N 30 93 0 
N 50 86 0 
N 33 73 0 
N 91 29 0 
N 47 85 0 
N 36 9 0 
N 24 3 0 
N 79 60 0 
N 62 78 0 
N 5 21 0 
N 42 84 0 
N 82 38 0 
N 19 26 0 
N 19 93 0 
N 41 95 0 
N 39 42 0 
N 9 90 0 
N 20 84 0 
N 95 37 0 
N 54 29 0 
N 24 33 0 
N 71 98 0 
N 2 91 0 
N 93 36 0 
N 80 31 0 
N 90 46 0 
N 13 57 0 
N 85 74 0 
N 99 25 0 
N 55 43 0 
N 91 62 0 
N 16 11 0 
N 1 98 0 
N 42 86 0 
N 55 15 0 
N 59 92 0 
N 79 58 0 
N 95 63 0 
N 88 47 0 
N 95 27 0 
N 31 19 0 
N 87 60 0 
N 79 85 0 
N 81 27 0 
N 16 96 0 
N 86 87 0 
N 31 68 0 
N 16 99 0 
N 65 29 0 
N 70 12 0 
N 98 5 0 
N 64 38 0 
N 32 87 0 
N 41 85 0 
N 40 25 0 
N 70 94 0 
N 9 15 0 
N 0 91 0 
N 55 27 0 
N 57 14 0 
N 69 26 0 
N 42 10 0 
N 47 36 0 
N 16 70 0 
N 53 92 0 
N 87 95 0 
N 74 20 0 
N 88 93 0 
N 88 94 0 
N 24 42 0 
N 70 52 0 
N 1 75 0 
N 38 57 0 
N 73 79 0 
N 22 97 0 
N 41 5 0 
N 34 65 0 
N 94 65 0 
N 76 92 0 
N 85 22 0 
N 64 73 0 
N 59 49 0 
N 33 38 0 
N 2 83 0 
N 40 2 0 
N 53 90 0 
N 72 69 0 
N 42 96 0 
N 60 31 0 
N 22 38 0 
N 77 31 0 
N 75 96 0 
N 38 52 0 
N 57 15 0 
N 65 40 0 
N 20 31 0 
N 77 60 0 
N 78 40 0 
N 44 69 0 
N 46 77 0 
N 12 76 0 
N 12 15 0 
N 53 39 0 
N 69 80 0 
N 53 40 0 
N 71 68 0 
N 86 35 0 
N 13 58 0 
N 91 21 0 
N 24 48 0 
N 85 25 0 
N 69 92 0 
N 7 90 0 
N 39 9 0 
N 75 52 0 
N 97 61 0 
N 30 49 0 
N 66 82 0 
N 79 32 0 
N 18 40 0 
N 12 23 0 
N 71 97 0 
N 38 5 0 
N 76 59 0 
N 60 26 0 
N 3 39 0 
N 53 94 0 
N 46 65 0 
N 23 12 0 
N 53 8 0 
N 57 94 0 
N 89 82 0 
N 19 2 0 
N 28 48 0 
N 86 33 0 
N 39 75 0 
N 10 14 0 
N 29 95 0 
N 92 6 0 
N 71 11 0 
N 91 36 0 
N 4 27 0 
N 12 37 0 
N 12 70 0 
N 89 24 0 
N 3 38 0 
N 60 73 0 
N 24 27 0 
N 42 21 0 
N 36 74 0 
N 23 29 0 
N 9 40 0 
N 26 36 0 
N 63 8 0 
N 62 45 0 
N 33 35 0 
N 4 17 0 
N 9 2 0 
N 58 28 0 
N 67 91 0 
N 33 97 0 
N 40 5 0 
N 77 18 0 
N 20 69 0 
N 90 73 0 
N 64 16 0 
N 21 26 0 
N 56 15 0 
N 36 71 0 
N 34 32 0 
N 43 19 0 
N 39 24 0 
N 86 56 0 
N 69 73 0 
N 79 24 0 
N 48 47 0 
N 84 6 0 
N 40 3 0 
N 23 37 0 
N 41 39 0 
N 60 53 0 
N 45 79 0 
N 50 77 0 
N 8 60 0 
N 12 71 0 
N 37 74 0 
N 59 62 0 
N 40 32 0 
N 64 8 0 
N 58 70 0 
N 69 57 0 
N 69 71 0 
N 78 57 0 
N 58 51 0 
N 50 63 0 
N 14 37 0 
N 55 16 0 
N 64 39 0 
N 3 44 0 
N 57 96 0 
N 77 57 0 
N 76 38 0 
N 98 19 0 
N 43 36 0 
N 3 96 0 
N 45 67 0 
N 54 23 0 
N 65 15 0 
N 37 53 0 
N 77 13 0 
N 52 93 0 
N 37 50 0 
N 93 43 0 
N 4 99 0 
N 39 78 0 
N 66 27 0 
N 61 95 0 
N 84 98 0 
N 22 85 0 
N 21 85 0 
N 11 99 0 
N 28 50 0 
N 97 63 0 
N 48 43 0 
N 57 65 0 
N 41 74 0 
N 69 54 0 
N 23 22 0 
N 70 93 0 
N 40 24 0 
N 89 22 0 
N 45 77 0 
N 46 43 0 
N 83 42 0 
N 75 93 0 
N 17 42 0 
N 23 24 0 
N 51 26 0 
N 99 49 0 
N 7 59 0 
N 5 89 0 
N 75 21 0 
N 35 51 0 
N 47 54 0 
N 23 32 0 
N 5 69 0 
N 83 41 0 
N 4 47 0 
N 25 58 0 
N 19 84 0 
N 27 61 0 
N 12 77 0 
N 68 54 0 
N 64 26 0 
N 14 51 0 
N 67 74 0 
N 81 92 0 
N 55 93 0 
N 22 58 0 
N 78 59 0 
N 4 41 0 
N 10 64 0 
N 26 69 0 
N 53 15 0 
N 39 32 0 
N 53 5 0 
N 19 59 0 
N 97 10 0 
N 24 41 0 
N 47 63 0 
N 90 94 0 
N 19 52 0 
N 76 61 0 
N 48 46 0 
N 95 96 0 
N 96 76 0 
N 74 15 0 
N 1 62 0 
N 86 24 0 
N 70 87 0 
N 58 64 0 
N 91 46 0 
N 4 44 0 
N 97 77 0 
N 63 3 0 
N 47 89 0 
N 62 39 0 
N 20 55 0 
N 91 83 0 
N 38 59 0 
N 96 83 0 
N 54 39 0 
N 77 16 0 
N 12 33 0 
N 67 39 0 
N 82 43 0 
N 46 66 0 
N 36 40 0 
N 45 69 0 
N 38 54 0 
N 68 73 0 
N 66 56 0 
N 36 76 0 
N 46 7 0 
N 72 80 0 
N 71 0 0 
N 13 55 0 
N 89 7 0 
N 64 29 0 
N 1 3 0 
N 53 44 0 
N 15 3 0 
N 91 94 0 
N 27 35 0 
N 43 41 0 
N 12 24 0 
N 68 43 0 
N 34 33 0 
N 92 32 0 
N 19 27 0 
N 21 83 0 
N 27 21 0 
N 87 56 0 
N 28 0 0 
N 30 20 0 
N 42 91 0 
N 76 58 0 
N 84 24 0 
N 5 27 0 
N 45 76 0 
N 11 15 0 
N 37 37 0 
N 99 10 0 
N 59 63 0 
N 7 85 0 
N 69 44 0 
N 48 45 0 
N 24 15 0 
N 60 6 0 
N 70 1 0 
N 25 1 0 
N 40 86 0 
N 59 54 0 
N 93 82 0 
N 26 34 0 
N 30 19 0 
N 10 7 0 
N 33 95 0 
N 89 96 0 
N 66 16 0 
N 3 47 0 
N 85 0 0 
N 58 2 0 
N 90 22 0 
N 8 54 0 
N 8 41 0 
N 79 28 0 
N 46 75 0 
N 5 82 0 
N 91 81 0 
N 66 26 0 
N 57 36 0 
N 58 93 0 
N 65 31 0 
N 42 93 0 
N 22 84 0 
N 26 60 0 
N 85 1 0 
N 4 63 0 
N 58 1 0 
N 78 10 0 
N 32 21 0 
N 5 71 0 
N 97 49 0 
N 42 17 0 
N 76 51 0 
N 28 44 0 
N 4 68 0 
N 55 5 0 
N 75 13 0 
N 77 98 0 
N 51 4 0 
N 38 51 0 
N 74 59 0 
N 7 81 0 
N 65 36 0 
N 72 44 0 
N 17 40 0 
N 58 95 0 
N 99 83 0 
N 85 36 0 
N 31 87 0 
N 99 52 0 
N 37 11 0 
N 21 25 0 
N 77 6 0 
N 66 54 0 
N 57 93 0 
N 16 2 0 
N 16 73 0 
N 75 88 0 
N 71 4 0 
N 78 7 0 
N 55 22 0 
N 97 3 0 
N 23 33 0 
N 41 44 0 
N 64 13 0 
N 70 70 0 
N 24 84 0 
N 88 60 0 
N 86 91 0 
N 73 71 0 
N 5 15 0 
N 48 42 0 
N 22 96 0 
N 91 48 0 
C 0 0 0 
C 20 0 0 
C 40 0 0 
C 60 0 0 
C 80 0 0 
C 100 0 0 
C 0 20 0 
C 20 20 0 
C 40 20 0 
C 60 20 0 
C 80 20 0 
C 100 20 0 
C 0 40 0 
C 20 40 0 
C 40 40 0 
C 60 40 0 
C 80 40 0 
C 100 40 0 
C 0 60 0 
C 20 60 0 
C 40 60 0 
C 60 60 0 
C 80 60 0 
C 100 60 0 
C 0 80 0 
C 20 80 0 
C 40 80 0 
C 60 80 0 
C 80 80 0 
C 100 80 0 
C 0 100 0 
C 20 100 0 
C 40 100 0 
C 60 100 0 
C 80 100 0 
C 100 100 0 
O 44 88 0 
O 10 15 0 
O 19 86 0 
O 64 14 0 
O 97 75 0 
O 46 88 0 
O 7 61 0 
O 1 26 0 
O 10 0 0 
O 28 9 0 
O 25 2 0 
O 0 24 0 
O 38 75 0 
O 14 10 0 
O 99 22 0 
O 20 61 0 
O 25 64 0 
O 87 88 0 
O 7 6 0 
O 22 37 0 
O 59 41 0 
O 88 24 0 
O 0 50 0 
O 10 66 0 
O 6 14 0 
O 21 97 0 
O 18 58 0 
O 77 0 0 
O 46 68 0 
O 7 7 0 
O 59 29 0 
O 11 38 0 
O 79 69 0 
O 93 84 0 
O 40 94 0 
O 49 0 0 
O 78 61 0 
O 53 96 0 
O 26 35 0 
O 85 63 0 
O 23 35 0 
O 59 25 0 
O 2 40 0 
O 18 81 0 
O 16 59 0 
O 45 74 0 
O 66 39 0 
O 51 64 0 
O 72 71 0 
O 16 76 0 
O 0 69 0 
O 74 51 0 
O 87 93 0 
O 86 72 0 
O 32 96 0 
O 1 0 0 
O 94 46 0 
O 13 82 0 
O 92 4 0 
O 12 16 0 
O 2 27 0 
O 87 36 0 
O 8 3 0 
O 8 52 0 
O 13 4 0 
O 26 0 0 
O 29 47 0 
O 30 2 0 
O 4 81 0 
O 83 83 0 
O 65 25 0 
O 41 16 0 
O 56 0 0 
O 14 77 0 
O 25 61 0 
O 4 66 0 
O 11 0 0 
O 0 26 0 
O 30 94 0 
O 23 64 0 
O 24 67 0 
O 24 11 0 
O 9 16 0 
O 85 3 0 
O 7 5 0 
O 2 63 0 
O 71 1 0 
O 15 61 0 
O 83 87 0 
O 55 99 0 
O 77 99 0 
O 4 22 0 
O 37 52 0 
O 88 73 0 
O 18 69 0 
O 13 81 0 
O 74 77 0 
O 81 67 0 
O 64 2 0 
O 14 59 0 
O 69 42 0 
O 23 99 0 
O 88 92 0 
O 29 5 0 
O 58 30 0 
O 59 42 0 
O 71 9 0 
O 44 56 0 
O 98 70 0 
O 0 77 0 
O 45 99 0 
O 27 17 0 
O 83 37 0 
O 60 23 0 
O 93 29 0 
O 73 13 0 
O 27 1 0 
O 82 95 0 
O 2 66 0 
O 96 0 0 
O 99 62 0 
O 87 37 0 
O 9 38 0 
O 87 62 0 
O 89 36 0 
O 14 8 0 
O 87 34 0 
O 36 13 0 
O 14 62 0 
O 5 10 0 
O 40 98 0 
O 90 27 0 
O 1 41 0 
O 7 63 0 
O 83 69 0 
O 67 64 0 
O 99 47 0 
O 0 4 0 
O 41 92 0 
O 2 59 0 
O 31 2 0 
O 79 62 0 
O 39 22 0 
O 99 1 0 
O 43 44 0 
O 15 74 0 
O 41 15 0 
O 33 17 0 
O 33 86 0 
O 12 44 0 
O 25 68 0 
O 44 54 0 
O 90 6 0 
O 76 4 0 
O 58 66 0 
O 81 30 0 
O 52 2 0 
O 48 98 0 
O 84 65 0 
O 68 50 0 
O 36 52 0 
O 37 9 0 
O 26 99 0 
O 55 0 0 
O 81 85 0 
O 63 46 0 
O 23 14 0 
O 42 20 0 
O 7 15 0 
682
Atoms. Timestep: 8
N 20 58 0 
N 83 93 0 
N 26 36 0 
N 47 78 0 
N 22 94 0 
N 24 95 0 
N 53 96 0 
N 52 95 0 
N 90 8 0 
N 36 41 0 
N 74 81 0 
N 99 46 0 
N 83 43 0 
N 58 70 0 
N 74 49 0 
N 35 74 0 
N 99 62 0 
N 45 3 0 
N 18 58 0 
N 2 0 0 
N 11 18 0 
N 68 87 0 
N 72 13 0 
N 3 14 0 
N 98 18 0 
N 41 8 0 
N 40 41 0 
N 83 40 0 
N 72 77 0 
N 90 11 0 
N 7 81 0 
N 52 9 0 
N 58 74 0 
N 7 49 0 
N 51 96 0 
N 53 76 0 
N 53 68 0 
N 45 54 0 
N 6 78 0 
N 43 77 0 
N 97 4 0 
N 54 54 0 
N 72 79 0 
N 79 24 0 
N 25 63 0 
N 91 83 0 
N 57 18 0 
N 40 4 0 
N 81 27 0 
N 20 81 0 
N 65 27 0 
N 31 34 0 
N 96 22 0 
N 9 52 0 
N 50 29 0 
N 23 28 0 
N 82 95 0 
N 90 73 0 
N 31 92 0 
N 89 37 0 
N 42 82 0 
N 77 95 0 
N 69 96 0 
N 34 17 0 
N 30 74 0 
N 11 21 0 
N 1 51 0 
N 62 2 0 
N 67 52 0 
N 96 4 0 
N 21 91 0 
N 88 70 0 
N 77 89 0 
N 6 15 0 
N 64 89 0 
N 90 35 0 
N 23 37 0 
N 18 94 0 
N 24 96 0 
N 18 29 0 
N 88 47 0 
N 14 12 0 
N 71 91 0 
N 30 94 0 
N 49 86 0 
N 33 74 0 
N 92 29 0 
N 47 86 0 
N 37 9 0 
N 25 3 0 
N 79 61 0 
N 63 78 0 
N 5 22 0 
N 43 84 0 
N 82 37 0 
N 19 27 0 
N 19 92 0 
N 41 94 0 
N 40 42 0 
N 9 89 0 
N 19 84 0 
N 95 36 0 
N 55 29 0 
N 24 34 0 
N 72 98 0 
N 2 90 0 
N 92 36 0 
N 80 30 0 
N 91 46 0 
N 14 57 0 
N 86 74 0 
N 98 25 0 
N 54 43 0 
N 90 62 0 
N 15 11 0 
N 1 99 0 
N 43 86 0 
N 55 16 0 
N 58 92 0 
N 79 59 0 
N 95 62 0 
N 89 47 0 
N 95 28 0 
N 32 19 0 
N 87 61 0 
N 80 85 0 
N 81 28 0 
N 15 96 0 
N 87 87 0 
N 30 68 0 
N 16 98 0 
N 65 28 0 
N 71 12 0 
N 97 5 0 
N 63 38 0 
N 32 86 0 
N 42 85 0 
N 39 25 0 
N 71 94 0 
N 9 16 0 
N 1 91 0 
N 55 28 0 
N 57 15 0 
N 69 25 0 
N 41 10 0 
N 47 37 0 
N 17 70 0 
N 53 93 0 
N 88 95 0 
N 74 19 0 
N 87 93 0 
N 87 94 0 
N 23 42 0 
N 69 52 0 
N 0 75 0 
N 38 56 0 
N 73 78 0 
N 21 97 0 
N 40 5 0 
N 34 64 0 
N 94 64 0 
N 77 92 0 
N 85 23 0 
N 64 72 0 
N 59 48 0 
N 32 38 0 
N 3 83 0 
N 40 2 0 
N 53 91 0 
N 73 69 0 
N 41 96 0 
N 60 30 0 
N 22 38 0 
N 78 31 0 
N 75 95 0 
N 38 52 0 
N 58 15 0 
N 66 40 0 
N 21 31 0 
N 77 60 0 
N 79 40 0 
N 45 69 0 
N 46 76 0 
N 13 76 0 
N 12 16 0 
N 53 40 0 
N 69 79 0 
N 53 41 0 
N 71 67 0 
N 87 35 0 
N 13 59 0 
N 90 21 0 
N 24 47 0 
N 85 26 0 
N 68 92 0 
N 6 90 0 
N 38 9 0 
N 74 52 0 
N 98 61 0 
N 29 49 0 
N 67 82 0 
N 80 32 0 
N 17 40 0 
N 12 22 0 
N 72 97 0 
N 37 5 0 
N 76 60 0 
N 60 25 0 
N 3 40 0 
N 53 95 0 
N 46 66 0 
N 23 11 0 
N 53 7 0 
N 56 94 0 
N 89 83 0 
N 19 3 0 
N 29 48 0 
N 86 34 0 
N 38 75 0 
N 9 14 0 
N 30 95 0 
N 92 5 0 
N 71 10 0 
N 90 36 0 
N 3 27 0 
N 11 37 0 
N 12 69 0 
N 88 24 0 
N 2 38 0 
N 60 72 0 
N 24 28 0 
N 42 20 0 
N 36 75 0 
N 23 30 0 
N 9 39 0 
N 25 36 0 
N 64 8 0 
N 63 45 0 
N 32 35 0 
N 4 16 0 
N 9 3 0 
N 59 28 0 
N 66 91 0 
N 33 96 0 
N 40 6 0 
N 76 18 0 
N 19 69 0 
N 89 73 0 
N 64 17 0 
N 22 26 0 
N 56 16 0 
N 36 72 0 
N 34 33 0 
N 43 20 0 
N 39 23 0 
N 86 57 0 
N 69 74 0 
N 80 24 0 
N 48 46 0 
N 84 5 0 
N 40 3 0 
N 22 37 0 
N 41 40 0 
N 60 52 0 
N 45 78 0 
N 49 77 0 
N 8 61 0 
N 12 72 0 
N 37 75 0 
N 59 63 0 
N 40 31 0 
N 64 7 0 
N 58 69 0 
N 69 56 0 
N 68 71 0 
N 78 58 0 
N 58 50 0 
N 50 64 0 
N 14 38 0 
N 55 17 0 
N 64 40 0 
N 3 43 0 
N 56 96 0 
N 77 57 0 
N 76 37 0 
N 98 20 0 
N 43 37 0 
N 2 96 0 
N 45 68 0 
N 54 23 0 
N 65 16 0 
N 37 52 0 
N 76 13 0 
N 52 94 0 
N 37 51 0 
N 92 43 0 
N 3 99 0 
N 39 77 0 
N 66 26 0 
N 61 96 0 
N 84 97 0 
N 21 85 0 
N 21 86 0 
N 11 98 0 
N 28 49 0 
N 98 63 0 
N 48 44 0 
N 57 66 0 
N 41 75 0 
N 69 53 0 
N 23 21 0 
N 70 92 0 
N 40 23 0 
N 89 23 0 
N 45 77 0 
N 45 43 0 
N 83 41 0 
N 75 92 0 
N 16 42 0 
N 23 23 0 
N 51 25 0 
N 99 50 0 
N 7 60 0 
N 4 89 0 
N 74 21 0 
N 35 50 0 
N 46 54 0 
N 23 33 0 
N 4 69 0 
N 82 41 0 
N 5 47 0 
N 25 59 0 
N 19 85 0 
N 26 61 0 
N 13 77 0 
N 68 53 0 
N 64 25 0 
N 14 52 0 
N 67 75 0 
N 81 93 0 
N 54 93 0 
N 21 58 0 
N 78 60 0 
N 3 41 0 
N 10 65 0 
N 25 69 0 
N 52 15 0 
N 39 31 0 
N 53 4 0 
N 18 59 0 
N 96 10 0 
N 23 41 0 
N 47 64 0 
N 89 94 0 
N 18 52 0 
N 77 61 0 
N 47 46 0 
N 95 95 0 
N 96 75 0 
N 73 15 0 
N 2 62 0 
N 87 24 0 
N 71 87 0 
N 58 65 0 
N 92 46 0 
N 4 43 0 
N 97 76 0 
N 63 2 0 
N 47 88 0 
N 62 40 0 
N 19 55 0 
N 92 83 0 
N 37 59 0 
N 95 83 0 
N 54 40 0 
N 77 15 0 
N 12 34 0 
N 66 39 0 
N 82 42 0 
N 45 66 0 
N 37 40 0 
N 46 69 0 
N 38 53 0 
N 68 74 0 
N 66 55 0 
N 37 76 0 
N 46 8 0 
N 73 80 0 
N 72 0 0 
N 14 55 0 
N 89 8 0 
N 63 29 0 
N 0 3 0 
N 54 44 0 
N 15 4 0 
N 91 93 0 
N 27 35 0 
N 43 42 0 
N 12 24 0 
N 68 42 0 
N 34 34 0 
N 93 32 0 
N 19 28 0 
N 20 83 0 
N 27 20 0 
N 87 57 0 
N 27 0 0 
N 29 20 0 
N 42 92 0 
N 77 58 0 
N 85 24 0 
N 5 27 0 
N 45 76 0 
N 10 15 0 
N 37 38 0 
N 98 10 0 
N 58 63 0 
N 6 85 0 
N 69 43 0 
N 47 45 0 
N 24 14 0 
N 60 5 0 
N 71 1 0 
N 25 2 0 
N 41 86 0 
N 59 53 0 
N 92 82 0 
N 26 35 0 
N 29 19 0 
N 9 7 0 
N 34 95 0 
N 89 95 0 
N 66 17 0 
N 3 47 0 
N 85 1 0 
N 58 1 0 
N 90 23 0 
N 8 53 0 
N 8 40 0 
N 80 28 0 
N 45 75 0 
N 5 81 0 
N 92 81 0 
N 65 26 0 
N 57 37 0 
N 57 93 0 
N 65 30 0 
N 41 93 0 
N 21 84 0 
N 25 60 0 
N 85 2 0 
N 3 63 0 
N 57 1 0 
N 77 10 0 
N 32 20 0 
N 5 70 0 
N 96 49 0 
N 42 16 0 
N 75 51 0 
N 28 45 0 
N 4 67 0 
N 55 4 0 
N 74 13 0 
N 77 99 0 
N 51 3 0 
N 39 51 0 
N 75 59 0 
N 6 81 0 
N 65 37 0 
N 72 43 0 
N 17 39 0 
N 57 95 0 
N 98 83 0 
N 86 36 0 
N 31 86 0 
N 0 52 0 
N 37 10 0 
N 22 25 0 
N 77 5 0 
N 67 54 0 
N 56 93 0 
N 15 2 0 
N 15 73 0 
N 76 88 0 
N 71 3 0 
N 77 7 0 
N 55 23 0 
N 96 3 0 
N 23 34 0 
N 42 44 0 
N 64 14 0 
N 69 70 0 
N 23 84 0 
N 88 61 0 
N 86 92 0 
N 72 71 0 
N 5 14 0 
N 47 42 0 
N 21 96 0 
N 91 47 0 
C 0 0 0 
C 20 0 0 
C 40 0 0 
C 60 0 0 
C 80 0 0 
C 100 0 0 
C 0 20 0 
C 20 20 0 
C 40 20 0 
C 60 20 0 
C 80 20 0 
C 100 20 0 
C 0 40 0 
C 20 40 0 
C 40 40 0 
C 60 40 0 
C 80 40 0 
C 100 40 0 
C 0 60 0 
C 20 60 0 
C 40 60 0 
C 60 60 0 
C 80 60 0 
C 100 60 0 
C 0 80 0 
C 20 80 0 
C 40 80 0 
C 60 80 0 
C 80 80 0 
C 100 80 0 
C 0 100 0 
C 20 100 0 
C 40 100 0 
C 60 100 0 
C 80 100 0 
C 100 100 0 
O 45 88 0 
O 18 86 0 
O 98 75 0 
O 46 89 0 
O 6 61 0 
O 1 27 0 
O 10 99 0 
O 28 8 0 
O 0 25 0 
O 13 10 0 
O 0 22 0 
O 19 61 0 
O 25 65 0 
O 87 89 0 
O 6 6 0 
O 59 40 0 
O 0 49 0 
O 10 67 0 
O 6 13 0 
O 77 1 0 
O 47 68 0 
O 6 7 0 
O 59 30 0 
O 11 39 0 
O 78 69 0 
O 94 84 0 
O 39 94 0 
O 49 99 0 
O 78 61 0 
O 85 62 0 
O 24 35 0 
O 59 26 0 
O 1 40 0 
O 19 81 0 
O 15 59 0 
O 44 74 0 
O 51 63 0 
O 16 77 0 
O 0 68 0 
O 74 50 0 
O 85 72 0 
O 32 97 0 
O 1 0 0 
O 95 46 0 
O 12 82 0 
O 92 3 0 
O 2 28 0 
O 87 37 0 
O 8 2 0 
O 8 51 0 
O 12 4 0 
O 26 99 0 
O 28 47 0 
O 31 2 0 
O 4 80 0 
O 84 83 0 
O 65 24 0 
O 41 15 0 
O 57 0 0 
O 14 78 0 
O 24 61 0 
O 4 65 0 
O 11 99 0 
O 99 26 0 
O 22 64 0 
O 24 68 0 
O 24 10 0 
O 85 4 0 
O 6 5 0 
O 2 64 0 
O 14 61 0 
O 82 87 0 
O 54 99 0 
O 3 22 0 
O 88 72 0 
O 18 70 0 
O 12 81 0 
O 75 77 0 
O 81 66 0 
O 64 1 0 
O 14 60 0 
O 70 42 0 
O 22 99 0 
O 89 92 0 
O 29 4 0 
O 58 29 0 
O 59 43 0 
O 72 9 0 
O 44 57 0 
O 99 70 0 
O 99 77 0 
O 44 99 0 
O 27 16 0 
O 83 36 0 
O 60 22 0 
O 93 30 0 
O 73 12 0 
O 26 1 0 
O 1 66 0 
O 97 0 0 
O 88 37 0 
O 8 38 0 
O 87 63 0 
O 89 36 0 
O 14 7 0 
O 88 34 0 
O 37 13 0 
O 14 63 0 
O 5 9 0 
O 40 99 0 
O 90 26 0 
O 0 41 0 
O 6 63 0 
O 83 68 0 
O 68 64 0 
O 99 48 0 
O 99 4 0 
O 40 92 0 
O 1 59 0 
O 31 1 0 
O 78 62 0 
O 38 22 0 
O 0 1 0 
O 44 44 0 
O 15 75 0 
O 41 14 0 
O 33 16 0 
O 33 85 0 
O 12 43 0 
O 25 67 0 
O 44 53 0 
O 91 6 0 
O 77 4 0 
O 58 67 0 
O 81 29 0 
O 53 2 0 
O 49 98 0 
O 84 66 0 
O 67 50 0 
O 36 53 0 
O 27 99 0 
O 54 0 0 
O 82 85 0 
O 63 47 0 
O 23 15 0 
O 7 14 0 
670
Atoms. Timestep: 9
N 20 59 0 
N 83 92 0 
N 27 36 0 
N 47 77 0 
N 22 95 0 
N 24 96 0 
N 54 96 0 
N 53 95 0 
N 90 7 0 
N 36 42 0 
N 75 81 0 
N 99 47 0 
N 83 43 0 
N 58 69 0 
N 74 50 0 
N 35 74 0 
N 99 63 0 
N 45 4 0 
N 18 59 0 
N 1 0 0 
N 11 17 0 
N 69 87 0 
N 72 13 0 
N 3 13 0 
N 97 18 0 
N 41 8 0 
N 39 41 0 
N 83 39 0 
N 72 77 0 
N 90 10 0 
N 7 80 0 
N 53 9 0 
N 58 73 0 
N 7 50 0 
N 51 97 0 
N 53 75 0 
N 52 68 0 
N 44 54 0 
N 5 78 0 
N 44 77 0 
N 98 4 0 
N 54 53 0 
N 72 78 0 
N 79 25 0 
N 25 64 0 
N 92 83 0 
N 58 18 0 
N 40 5 0 
N 81 26 0 
N 19 81 0 
N 65 27 0 
N 30 34 0 
N 95 22 0 
N 9 51 0 
N 51 29 0 
N 23 27 0 
N 82 94 0 
N 89 73 0 
N 31 93 0 
N 88 37 0 
N 43 82 0 
N 77 94 0 
N 69 95 0 
N 33 17 0 
N 30 73 0 
N 10 21 0 
N 1 50 0 
N 63 2 0 
N 67 51 0 
N 96 4 0 
N 20 91 0 
N 88 71 0 
N 78 89 0 
N 6 14 0 
N 64 88 0 
N 89 35 0 
N 22 37 0 
N 18 93 0 
N 24 97 0 
N 18 30 0 
N 88 46 0 
N 13 12 0 
N 72 91 0 
N 31 94 0 
N 48 86 0 
N 34 74 0 
N 93 29 0 
N 47 87 0 
N 37 10 0 
N 26 3 0 
N 79 62 0 
N 63 77 0 
N 4 22 0 
N 44 84 0 
N 82 36 0 
N 19 26 0 
N 19 91 0 
N 40 94 0 
N 41 42 0 
N 9 88 0 
N 19 85 0 
N 94 36 0 
N 56 29 0 
N 24 35 0 
N 73 98 0 
N 2 89 0 
N 92 37 0 
N 81 30 0 
N 92 46 0 
N 14 58 0 
N 86 73 0 
N 97 25 0 
N 55 43 0 
N 90 63 0 
N 15 10 0 
N 1 98 0 
N 44 86 0 
N 56 16 0 
N 57 92 0 
N 79 60 0 
N 94 62 0 
N 89 46 0 
N 95 29 0 
N 32 18 0 
N 87 62 0 
N 81 85 0 
N 81 29 0 
N 14 96 0 
N 87 88 0 
N 29 68 0 
N 16 99 0 
N 65 28 0 
N 72 12 0 
N 98 5 0 
N 63 39 0 
N 32 85 0 
N 43 85 0 
N 39 24 0 
N 72 94 0 
N 8 16 0 
N 1 90 0 
N 56 28 0 
N 58 15 0 
N 69 24 0 
N 41 9 0 
N 46 37 0 
N 18 70 0 
N 53 94 0 
N 88 95 0 
N 74 18 0 
N 88 93 0 
N 88 94 0 
N 23 41 0 
N 69 51 0 
N 1 75 0 
N 38 55 0 
N 73 77 0 
N 22 97 0 
N 40 6 0 
N 33 64 0 
N 93 64 0 
N 77 91 0 
N 85 24 0 
N 63 72 0 
N 59 47 0 
N 32 37 0 
N 3 82 0 
N 40 2 0 
N 54 91 0 
N 74 69 0 
N 40 96 0 
N 60 29 0 
N 23 38 0 
N 79 31 0 
N 75 94 0 
N 37 52 0 
N 59 15 0 
N 67 40 0 
N 21 32 0 
N 77 61 0 
N 79 39 0 
N 46 69 0 
N 46 75 0 
N 12 76 0 
N 13 16 0 
N 54 40 0 
N 70 79 0 
N 54 41 0 
N 70 67 0 
N 87 35 0 
N 14 59 0 
N 90 22 0 
N 25 47 0 
N 86 26 0 
N 68 91 0 
N 6 89 0 
N 38 10 0 
N 74 52 0 
N 97 61 0 
N 28 49 0 
N 67 81 0 
N 81 32 0 
N 17 39 0 
N 11 22 0 
N 73 97 0 
N 37 6 0 
N 75 60 0 
N 60 26 0 
N 2 40 0 
N 54 95 0 
N 47 66 0 
N 23 10 0 
N 53 6 0 
N 56 95 0 
N 88 83 0 
N 19 4 0 
N 29 47 0 
N 87 34 0 
N 38 74 0 
N 8 14 0 
N 31 95 0 
N 92 4 0 
N 72 10 0 
N 89 36 0 
N 2 27 0 
N 11 38 0 
N 12 68 0 
N 88 25 0 
N 1 38 0 
N 60 71 0 
N 24 29 0 
N 42 19 0 
N 36 74 0 
N 24 30 0 
N 10 39 0 
N 24 36 0 
N 64 7 0 
N 63 46 0 
N 31 35 0 
N 5 16 0 
N 9 2 0 
N 59 29 0 
N 65 91 0 
N 33 97 0 
N 40 7 0 
N 76 17 0 
N 19 70 0 
N 89 74 0 
N 65 17 0 
N 23 26 0 
N 56 17 0 
N 35 72 0 
N 33 33 0 
N 43 19 0 
N 38 23 0 
N 86 58 0 
N 70 74 0 
N 81 24 0 
N 47 46 0 
N 85 5 0 
N 40 3 0 
N 22 36 0 
N 41 41 0 
N 61 52 0 
N 45 77 0 
N 49 76 0 
N 8 61 0 
N 11 72 0 
N 37 74 0 
N 59 64 0 
N 40 30 0 
N 64 6 0 
N 58 68 0 
N 68 56 0 
N 68 71 0 
N 78 59 0 
N 59 50 0 
N 50 63 0 
N 14 39 0 
N 55 18 0 
N 63 40 0 
N 3 42 0 
N 56 97 0 
N 78 57 0 
N 77 37 0 
N 97 20 0 
N 43 38 0 
N 1 96 0 
N 46 68 0 
N 55 23 0 
N 66 16 0 
N 36 52 0 
N 75 13 0 
N 52 93 0 
N 36 51 0 
N 93 43 0 
N 2 99 0 
N 39 76 0 
N 65 26 0 
N 61 95 0 
N 84 96 0 
N 21 86 0 
N 20 86 0 
N 11 99 0 
N 28 48 0 
N 98 64 0 
N 47 44 0 
N 57 67 0 
N 41 74 0 
N 68 53 0 
N 23 20 0 
N 70 91 0 
N 40 22 0 
N 90 23 0 
N 45 76 0 
N 44 43 0 
N 83 41 0 
N 75 91 0 
N 16 43 0 
N 23 22 0 
N 51 26 0 
N 98 50 0 
N 7 61 0 
N 4 88 0 
N 73 21 0 
N 35 51 0 
N 46 53 0 
N 23 34 0 
N 4 68 0 
N 82 40 0 
N 5 48 0 
N 25 60 0 
N 18 85 0 
N 26 61 0 
N 14 77 0 
N 68 52 0 
N 64 24 0 
N 14 51 0 
N 67 76 0 
N 81 92 0 
N 54 94 0 
N 21 59 0 
N 78 60 0 
N 2 41 0 
N 10 66 0 
N 24 69 0 
N 52 14 0 
N 38 31 0 
N 53 3 0 
N 19 59 0 
N 96 9 0 
N 23 40 0 
N 47 65 0 
N 89 93 0 
N 18 53 0 
N 78 61 0 
N 47 45 0 
N 95 94 0 
N 97 75 0 
N 73 14 0 
N 2 62 0 
N 87 25 0 
N 72 87 0 
N 58 66 0 
N 92 45 0 
N 4 42 0 
N 98 76 0 
N 64 2 0 
N 46 88 0 
N 61 40 0 
N 19 56 0 
N 93 83 0 
N 37 58 0 
N 95 84 0 
N 55 40 0 
N 76 15 0 
N 12 33 0 
N 67 39 0 
N 83 42 0 
N 45 67 0 
N 38 40 0 
N 47 69 0 
N 37 53 0 
N 68 75 0 
N 66 54 0 
N 38 76 0 
N 45 8 0 
N 73 79 0 
N 73 0 0 
N 15 55 0 
N 89 7 0 
N 63 30 0 
N 1 3 0 
N 55 44 0 
N 14 4 0 
N 90 93 0 
N 26 35 0 
N 44 42 0 
N 11 24 0 
N 69 42 0 
N 34 35 0 
N 93 31 0 
N 20 28 0 
N 19 83 0 
N 27 19 0 
N 88 57 0 
N 27 1 0 
N 28 20 0 
N 42 92 0 
N 77 59 0 
N 86 24 0 
N 4 27 0 
N 44 76 0 
N 9 15 0 
N 37 39 0 
N 99 10 0 
N 58 64 0 
N 5 85 0 
N 70 43 0 
N 46 45 0 
N 24 15 0 
N 61 5 0 
N 72 1 0 
N 25 1 0 
N 41 87 0 
N 59 52 0 
N 91 82 0 
N 25 35 0 
N 29 18 0 
N 9 6 0 
N 33 95 0 
N 89 95 0 
N 66 18 0 
N 2 47 0 
N 85 2 0 
N 58 0 0 
N 90 24 0 
N 8 52 0 
N 8 39 0 
N 80 29 0 
N 44 75 0 
N 5 80 0 
N 93 81 0 
N 65 25 0 
N 58 37 0 
N 56 93 0 
N 64 30 0 
N 41 92 0 
N 20 84 0 
N 25 61 0 
N 85 3 0 
N 2 63 0 
N 57 0 0 
N 76 10 0 
N 33 20 0 
N 4 70 0 
N 95 49 0 
N 42 15 0 
N 74 51 0 
N 28 46 0 
N 4 66 0 
N 54 4 0 
N 73 13 0 
N 77 98 0 
N 51 2 0 
N 38 51 0 
N 74 59 0 
N 6 80 0 
N 65 38 0 
N 71 43 0 
N 16 39 0 
N 57 94 0 
N 97 83 0 
N 87 36 0 
N 31 85 0 
N 99 52 0 
N 37 11 0 
N 22 24 0 
N 77 4 0 
N 67 53 0 
N 56 92 0 
N 15 3 0 
N 15 74 0 
N 77 88 0 
N 71 4 0 
N 77 6 0 
N 56 23 0 
N 95 3 0 
N 23 35 0 
N 43 44 0 
N 64 15 0 
N 68 70 0 
N 23 85 0 
N 88 62 0 
N 87 92 0 
N 73 71 0 
N 4 14 0 
N 47 43 0 
N 22 96 0 
N 92 47 0 
C 0 0 0 
C 20 0 0 
C 40 0 0 
C 60 0 0 
C 80 0 0 
C 100 0 0 
C 0 20 0 
C 20 20 0 
C 40 20 0 
C 60 20 0 
C 80 20 0 
C 100 20 0 
C 0 40 0 
C 20 40 0 
C 40 40 0 
C 60 40 0 
C 80 40 0 
C 100 40 0 
C 0 60 0 
C 20 60 0 
C 40 60 0 
C 60 60 0 
C 80 60 0 
C 100 60 0 
C 0 80 0 
C 20 80 0 
C 40 80 0 
C 60 80 0 
C 80 80 0 
C 100 80 0 
C 0 100 0 
C 20 100 0 
C 40 100 0 
C 60 100 0 
C 80 100 0 
C 100 100 0 
O 45 88 0 
O 17 86 0 
O 99 75 0 
O 45 89 0 
O 5 61 0 
O 0 27 0 
O 9 99 0 
O 28 7 0 
O 99 25 0 
O 13 9 0 
O 0 21 0 
O 19 62 0 
O 24 65 0 
O 87 90 0 
O 6 5 0 
O 59 39 0 
O 99 49 0 
O 9 67 0 
O 6 12 0 
O 77 2 0 
O 48 68 0 
O 5 7 0 
O 59 31 0 
O 12 39 0 
O 78 70 0 
O 94 85 0 
O 38 94 0 
O 48 99 0 
O 85 61 0 
O 59 27 0 
O 1 39 0 
O 16 59 0 
O 43 74 0 
O 51 64 0 
O 16 76 0 
O 99 68 0 
O 85 73 0 
O 31 97 0 
O 96 46 0 
O 11 82 0 
O 91 3 0 
O 1 28 0 
O 87 37 0 
O 8 1 0 
O 7 51 0 
O 11 4 0 
O 25 99 0 
O 27 47 0 
O 31 1 0 
O 4 79 0 
O 84 84 0 
O 66 24 0 
O 40 15 0 
O 14 79 0 
O 23 61 0 
O 3 65 0 
O 0 26 0 
O 21 64 0 
O 23 68 0 
O 24 9 0 
O 86 4 0 
O 6 4 0 
O 1 64 0 
O 13 61 0 
O 83 87 0 
O 54 0 0 
O 3 21 0 
O 88 73 0 
O 11 81 0 
O 74 77 0 
O 81 65 0 
O 63 1 0 
O 13 60 0 
O 71 42 0 
O 22 0 0 
O 88 92 0 
O 29 3 0 
O 58 28 0 
O 59 42 0 
O 72 8 0 
O 43 57 0 
O 99 71 0 
O 99 76 0 
O 45 99 0 
O 28 16 0 
O 83 35 0 
O 59 22 0 
O 94 30 0 
O 74 12 0 
O 26 0 0 
O 0 66 0 
O 98 0 0 
O 9 38 0 
O 88 63 0 
O 14 8 0 
O 89 34 0 
O 38 13 0 
O 13 63 0 
O 5 8 0 
O 41 99 0 
O 91 26 0 
O 0 42 0 
O 6 64 0 
O 83 69 0 
O 68 63 0 
O 0 48 0 
O 99 3 0 
O 40 93 0 
O 0 59 0 
O 32 1 0 
O 77 62 0 
O 37 22 0 
O 99 1 0 
O 44 44 0 
O 15 76 0 
O 41 13 0 
O 32 16 0 
O 33 86 0 
O 12 42 0 
O 24 67 0 
O 43 53 0 
O 92 6 0 
O 58 67 0 
O 53 1 0 
O 48 98 0 
O 84 65 0 
O 66 50 0 
O 36 53 0 
O 27 0 0 
O 55 0 0 
O 82 84 0 
O 62 47 0 
O 22 15 0 
O 7 15 0 
651
Atoms. Timestep: 10
N 19 59 0 
N 83 91 0 
N 27 37 0 
N 46 77 0 
N 22 94 0 
N 25 96 0 
N 54 95 0 
N 53 94 0 
N 91 7 0 
N 36 43 0 
N 75 82 0 
N 99 48 0 
N 83 43 0 
N 58 68 0 
N 73 50 0 
N 35 74 0 
N 99 64 0 
N 45 5 0 
N 17 59 0 
N 2 0 0 
N 11 16 0 
N 70 87 0 
N 72 12 0 
N 4 13 0 
N 97 19 0 
N 41 9 0 
N 39 42 0 
N 83 38 0 
N 73 77 0 
N 91 10 0 
N 6 80 0 
N 53 8 0 
N 58 72 0 
N 7 51 0 
N 50 97 0 
N 53 74 0 
N 51 68 0 
N 43 54 0 
N 5 77 0 
N 43 77 0 
N 98 3 0 
N 53 53 0 
N 73 78 0 
N 79 26 0 
N 24 64 0 
N 93 83 0 
N 58 19 0 
N 41 5 0 
N 82 26 0 
N 19 82 0 
N 65 26 0 
N 29 34 0 
N 94 22 0 
N 8 51 0 
N 52 29 0 
N 23 26 0 
N 82 93 0 
N 88 73 0 
N 31 94 0 
N 88 36 0 
N 43 81 0 
N 77 93 0 
N 70 95 0 
N 33 16 0 
N 30 72 0 
N 10 20 0 
N 2 50 0 
N 63 1 0 
N 66 51 0 
N 96 3 0 
N 19 91 0 
N 88 72 0 
N 79 89 0 
N 6 13 0 
N 64 87 0 
N 89 34 0 
N 21 37 0 
N 17 93 0 
N 25 97 0 
N 18 31 0 
N 89 46 0 
N 13 11 0 
N 72 90 0 
N 31 95 0 
N 48 87 0 
N 34 74 0 
N 93 29 0 
N 46 87 0 
N 37 11 0 
N 27 3 0 
N 79 63 0 
N 63 76 0 
N 4 21 0 
N 44 83 0 
N 83 36 0 
N 20 26 0 
N 18 91 0 
N 40 93 0 
N 42 42 0 
N 10 88 0 
N 18 85 0 
N 94 35 0 
N 56 28 0 
N 25 35 0 
N 74 98 0 
N 1 89 0 
N 93 37 0 
N 81 31 0 
N 93 46 0 
N 14 59 0 
N 85 73 0 
N 98 25 0 
N 55 42 0 
N 89 63 0 
N 15 9 0 
N 1 97 0 
N 44 87 0 
N 56 17 0 
N 57 91 0 
N 79 61 0 
N 94 63 0 
N 90 46 0 
N 94 29 0 
N 32 17 0 
N 86 62 0 
N 82 85 0 
N 82 29 0 
N 13 96 0 
N 87 89 0 
N 28 68 0 
N 15 99 0 
N 66 28 0 
N 73 12 0 
N 99 5 0 
N 62 39 0 
N 33 85 0 
N 43 86 0 
N 39 23 0 
N 73 94 0 
N 7 16 0 
N 2 90 0 
N 57 28 0 
N 59 15 0 
N 68 24 0 
N 41 10 0 
N 47 37 0 
N 19 70 0 
N 52 94 0 
N 88 94 0 
N 75 18 0 
N 87 93 0 
N 87 94 0 
N 24 41 0 
N 69 50 0 
N 2 75 0 
N 39 55 0 
N 74 77 0 
N 22 97 0 
N 41 6 0 
N 32 64 0 
N 92 64 0 
N 78 91 0 
N 86 24 0 
N 64 72 0 
N 60 47 0 
N 32 38 0 
N 4 82 0 
N 41 2 0 
N 54 90 0 
N 74 70 0 
N 40 95 0 
N 59 29 0 
N 23 39 0 
N 79 32 0 
N 76 94 0 
N 37 53 0 
N 59 16 0 
N 67 39 0 
N 20 32 0 
N 77 62 0 
N 80 39 0 
N 47 69 0 
N 46 74 0 
N 13 76 0 
N 13 15 0 
N 54 39 0 
N 71 79 0 
N 54 42 0 
N 70 66 0 
N 87 34 0 
N 15 59 0 
N 90 23 0 
N 26 47 0 
N 86 26 0 
N 67 91 0 
N 6 88 0 
N 38 11 0 
N 73 52 0 
N 97 60 0 
N 28 48 0 
N 68 81 0 
N 82 32 0 
N 16 39 0 
N 11 21 0 
N 74 97 0 
N 37 7 0 
N 75 61 0 
N 59 26 0 
N 2 41 0 
N 54 94 0 
N 47 67 0 
N 24 10 0 
N 53 5 0 
N 56 94 0 
N 88 84 0 
N 19 3 0 
N 29 47 0 
N 88 34 0 
N 39 74 0 
N 7 14 0 
N 31 96 0 
N 91 4 0 
N 72 9 0 
N 89 36 0 
N 1 27 0 
N 12 38 0 
N 11 68 0 
N 88 26 0 
N 1 39 0 
N 59 71 0 
N 24 28 0 
N 41 19 0 
N 36 74 0 
N 23 30 0 
N 11 39 0 
N 24 37 0 
N 63 7 0 
N 62 46 0 
N 31 36 0 
N 5 15 0 
N 8 2 0 
N 59 30 0 
N 65 90 0 
N 32 97 0 
N 40 8 0 
N 75 17 0 
N 19 71 0 
N 88 74 0 
N 65 18 0 
N 23 25 0 
N 57 17 0 
N 35 71 0 
N 33 32 0 
N 43 18 0 
N 37 23 0 
N 85 58 0 
N 71 74 0 
N 82 24 0 
N 47 47 0 
N 84 5 0 
N 41 3 0 
N 21 36 0 
N 42 41 0 
N 61 51 0 
N 45 76 0 
N 49 75 0 
N 7 61 0 
N 10 72 0 
N 37 74 0 
N 58 64 0 
N 40 29 0 
N 64 5 0 
N 57 68 0 
N 68 57 0 
N 68 70 0 
N 77 59 0 
N 59 49 0 
N 51 63 0 
N 13 39 0 
N 56 18 0 
N 62 40 0 
N 2 42 0 
N 55 97 0 
N 78 58 0 
N 78 37 0 
N 96 20 0 
N 43 39 0 
N 1 95 0 
N 47 68 0 
N 55 22 0 
N 66 17 0 
N 36 52 0 
N 75 12 0 
N 53 93 0 
N 37 51 0 
N 93 44 0 
N 2 98 0 
N 40 76 0 
N 66 26 0 
N 62 95 0 
N 84 95 0 
N 20 86 0 
N 19 86 0 
N 10 99 0 
N 27 48 0 
N 98 63 0 
N 46 44 0 
N 57 66 0 
N 42 74 0 
N 67 53 0 
N 23 19 0 
N 71 91 0 
N 39 22 0 
N 91 23 0 
N 45 75 0 
N 43 43 0 
N 84 41 0 
N 75 90 0 
N 15 43 0 
N 23 21 0 
N 52 26 0 
N 98 49 0 
N 6 61 0 
N 4 87 0 
N 72 21 0 
N 35 52 0 
N 45 53 0 
N 23 35 0 
N 3 68 0 
N 82 39 0 
N 5 49 0 
N 24 60 0 
N 17 85 0 
N 25 61 0 
N 14 78 0 
N 68 51 0 
N 65 24 0 
N 13 51 0 
N 67 77 0 
N 82 92 0 
N 54 93 0 
N 22 59 0 
N 78 61 0 
N 1 41 0 
N 10 67 0 
N 23 69 0 
N 52 13 0 
N 37 31 0 
N 52 3 0 
N 19 60 0 
N 96 8 0 
N 24 40 0 
N 48 65 0 
N 89 92 0 
N 17 53 0 
N 78 62 0 
N 46 45 0 
N 96 94 0 
N 98 75 0 
N 73 13 0 
N 1 62 0 
N 87 26 0 
N 73 87 0 
N 58 67 0 
N 93 45 0 
N 4 42 0 
N 99 76 0 
N 64 1 0 
N 45 88 0 
N 61 39 0 
N 19 57 0 
N 94 83 0 
N 38 58 0 
N 94 84 0 
N 56 40 0 
N 76 14 0 
N 13 33 0 
N 66 39 0 
N 83 42 0 
N 45 68 0 
N 38 41 0 
N 48 69 0 
N 36 53 0 
N 69 75 0 
N 66 54 0 
N 38 75 0 
N 45 9 0 
N 74 79 0 
N 74 0 0 
N 16 55 0 
N 89 6 0 
N 62 30 0 
N 2 3 0 
N 56 44 0 
N 13 4 0 
N 90 92 0 
N 27 35 0 
N 43 42 0 
N 11 23 0 
N 68 42 0 
N 34 34 0 
N 93 30 0 
N 21 28 0 
N 19 84 0 
N 27 18 0 
N 87 57 0 
N 27 0 0 
N 28 19 0 
N 42 93 0 
N 77 60 0 
N 86 25 0 
N 3 27 0 
N 44 75 0 
N 8 15 0 
N 37 40 0 
N 99 9 0 
N 58 65 0 
N 5 84 0 
N 69 43 0 
N 46 46 0 
N 23 15 0 
N 62 5 0 
N 72 2 0 
N 25 2 0 
N 41 88 0 
N 60 52 0 
N 92 82 0 
N 25 36 0 
N 28 18 0 
N 8 6 0 
N 33 96 0 
N 89 94 0 
N 66 19 0 
N 1 47 0 
N 86 2 0 
N 57 0 0 
N 91 24 0 
N 7 52 0 
N 8 38 0 
N 80 30 0 
N 43 75 0 
N 5 79 0 
N 92 81 0 
N 66 25 0 
N 58 38 0 
N 56 92 0 
N 64 31 0 
N 41 93 0 
N 20 85 0 
N 24 61 0 
N 85 4 0 
N 1 63 0 
N 56 0 0 
N 75 10 0 
N 33 19 0 
N 3 70 0 
N 96 49 0 
N 41 15 0 
N 73 51 0 
N 28 47 0 
N 4 65 0 
N 54 3 0 
N 74 13 0 
N 77 97 0 
N 52 2 0 
N 38 52 0 
N 75 59 0 
N 6 79 0 
N 65 39 0 
N 71 42 0 
N 15 39 0 
N 57 93 0 
N 97 84 0 
N 87 37 0 
N 31 86 0 
N 99 51 0 
N 37 12 0 
N 22 23 0 
N 77 3 0 
N 66 53 0 
N 56 91 0 
N 15 4 0 
N 15 75 0 
N 78 88 0 
N 71 5 0 
N 77 5 0 
N 56 22 0 
N 94 3 0 
N 22 35 0 
N 44 44 0 
N 65 15 0 
N 68 69 0 
N 23 86 0 
N 88 63 0 
N 88 92 0 
N 73 72 0 
N 5 14 0 
N 46 43 0 
N 22 96 0 
N 93 47 0 
C 0 0 0 
C 20 0 0 
C 40 0 0 
C 60 0 0 
C 80 0 0 
C 100 0 0 
C 0 20 0 
C 20 20 0 
C 40 20 0 
C 60 20 0 
C 80 20 0 
C 100 20 0 
C 0 40 0 
C 20 40 0 
C 40 40 0 
C 60 40 0 
C 80 40 0 
C 100 40 0 
C 0 60 0 
C 20 60 0 
C 40 60 0 
C 60 60 0 
C 80 60 0 
C 100 60 0 
C 0 80 0 
C 20 80 0 
C 40 80 0 
C 60 80 0 
C 80 80 0 
C 100 80 0 
C 0 100 0 
C 20 100 0 
C 40 100 0 
C 60 100 0 
C 80 100 0 
C 100 100 0 
O 17 87 0 
O 0 75 0 
O 45 90 0 
O 4 61 0 
O 0 26 0 
O 8 99 0 
O 27 7 0 
O 99 24 0 
O 12 9 0 
O 99 21 0 
O 18 62 0 
O 23 65 0 
O 88 90 0 
O 5 5 0 
O 59 38 0 
O 99 49 0 
O 8 67 0 
O 5 12 0 
O 78 2 0 
O 49 68 0 
O 4 7 0 
O 59 32 0 
O 12 40 0 
O 77 70 0 
O 94 86 0 
O 38 95 0 
O 49 99 0 
O 86 61 0 
O 58 27 0 
O 16 60 0 
O 44 74 0 
O 51 65 0 
O 16 77 0 
O 0 68 0 
O 31 98 0 
O 96 45 0 
O 11 83 0 
O 92 3 0 
O 0 28 0 
O 7 1 0 
O 11 5 0 
O 25 0 0 
O 27 46 0 
O 31 0 0 
O 3 79 0 
O 84 85 0 
O 67 24 0 
O 40 16 0 
O 13 79 0 
O 23 60 0 
O 2 65 0 
O 0 25 0 
O 20 64 0 
O 24 68 0 
O 23 9 0 
O 87 4 0 
O 6 3 0 
O 0 64 0 
O 12 61 0 
O 82 87 0 
O 54 99 0 
O 2 21 0 
O 10 81 0 
O 82 65 0 
O 12 60 0 
O 22 99 0 
O 30 3 0 
O 58 29 0 
O 59 41 0 
O 71 8 0 
O 44 57 0 
O 99 70 0 
O 45 0 0 
O 28 17 0 
O 83 34 0 
O 59 21 0 
O 95 30 0 
O 74 11 0 
O 26 99 0 
O 99 66 0 
O 98 99 0 
O 9 39 0 
O 14 7 0 
O 38 12 0 
O 12 63 0 
O 4 8 0 
O 40 99 0 
O 91 25 0 
O 99 42 0 
O 6 65 0 
O 84 69 0 
O 69 63 0 
O 0 49 0 
O 0 3 0 
O 99 59 0 
O 32 0 0 
O 38 22 0 
O 99 0 0 
O 15 77 0 
O 41 12 0 
O 32 15 0 
O 32 86 0 
O 12 43 0 
O 25 67 0 
O 43 52 0 
O 93 6 0 
O 52 1 0 
O 47 98 0 
O 84 66 0 
O 66 49 0 
O 55 99 0 
O 81 84 0 
O 63 47 0 
O 22 14 0 
O 6 15 0 
637
Atoms. Timestep: 11
N 18 59 0 
N 83 90 0 
N 27 38 0 
N 47 77 0 
N 22 95 0 
N 25 95 0 
N 54 96 0 
N 53 95 0 
N 91 6 0 
N 36 44 0 
N 75 83 0 
N 0 48 0 
N 83 42 0 
N 57 68 0 
N 73 49 0 
N 35 73 0 
N 98 64 0 
N 45 4 0 
N 16 59 0 
N 3 0 0 
N 11 15 0 
N 71 87 0 
N 73 12 0 
N 4 12 0 
N 97 20 0 
N 41 10 0 
N 40 42 0 
N 83 37 0 
N 73 76 0 
N 92 10 0 
N 5 80 0 
N 54 8 0 
N 57 72 0 
N 7 50 0 
N 49 97 0 
N 52 74 0 
N 50 68 0 
N 43 53 0 
N 5 78 0 
N 43 78 0 
N 97 3 0 
N 52 53 0 
N 74 78 0 
N 80 26 0 
N 24 65 0 
N 93 84 0 
N 59 19 0 
N 40 5 0 
N 82 27 0 
N 18 82 0 
N 65 27 0 
N 29 35 0 
N 95 22 0 
N 8 50 0 
N 52 28 0 
N 22 26 0 
N 82 92 0 
N 87 73 0 
N 31 94 0 
N 88 36 0 
N 44 81 0 
N 77 92 0 
N 71 95 0 
N 33 15 0 
N 30 71 0 
N 9 20 0 
N 2 49 0 
N 63 2 0 
N 66 50 0 
N 95 3 0 
N 19 90 0 
N 87 72 0 
N 80 89 0 
N 6 12 0 
N 65 87 0 
N 88 34 0 
N 21 38 0 
N 17 92 0 
N 25 97 0 
N 18 32 0 
N 89 45 0 
N 13 12 0 
N 72 89 0 
N 31 95 0 
N 47 87 0 
N 33 74 0 
N 94 29 0 
N 45 87 0 
N 37 12 0 
N 28 3 0 
N 80 63 0 
N 63 75 0 
N 3 21 0 
N 44 84 0 
N 83 35 0 
N 21 26 0 
N 18 90 0 
N 40 94 0 
N 42 43 0 
N 10 87 0 
N 17 85 0 
N 94 34 0 
N 57 28 0 
N 26 35 0 
N 75 98 0 
N 1 88 0 
N 94 37 0 
N 81 32 0 
N 94 46 0 
N 15 59 0 
N 85 72 0 
N 99 25 0 
N 55 41 0 
N 89 64 0 
N 14 9 0 
N 2 97 0 
N 44 88 0 
N 57 17 0 
N 56 91 0 
N 80 61 0 
N 94 64 0 
N 90 45 0 
N 95 29 0 
N 32 16 0 
N 86 61 0 
N 83 85 0 
N 83 29 0 
N 13 97 0 
N 88 89 0 
N 27 68 0 
N 14 99 0 
N 66 29 0 
N 73 11 0 
N 98 5 0 
N 61 39 0 
N 34 85 0 
N 44 86 0 
N 40 23 0 
N 74 94 0 
N 6 16 0 
N 3 90 0 
N 57 27 0 
N 59 16 0 
N 67 24 0 
N 41 11 0 
N 48 37 0 
N 20 70 0 
N 52 95 0 
N 88 94 0 
N 74 18 0 
N 88 93 0 
N 87 94 0 
N 24 42 0 
N 68 50 0 
N 1 75 0 
N 39 56 0 
N 74 76 0 
N 22 98 0 
N 41 7 0 
N 31 64 0 
N 91 64 0 
N 79 91 0 
N 87 24 0 
N 64 71 0 
N 61 47 0 
N 32 39 0 
N 4 81 0 
N 41 3 0 
N 53 90 0 
N 75 70 0 
N 39 95 0 
N 58 29 0 
N 24 39 0 
N 79 33 0 
N 76 93 0 
N 38 53 0 
N 59 17 0 
N 67 40 0 
N 20 33 0 
N 77 63 0 
N 81 39 0 
N 47 68 0 
N 46 73 0 
N 13 77 0 
N 13 14 0 
N 55 39 0 
N 71 78 0 
N 54 41 0 
N 69 66 0 
N 86 34 0 
N 15 60 0 
N 90 24 0 
N 26 46 0 
N 86 27 0 
N 68 91 0 
N 7 88 0 
N 39 11 0 
N 73 51 0 
N 97 59 0 
N 28 48 0 
N 68 82 0 
N 83 32 0 
N 15 39 0 
N 10 21 0 
N 75 97 0 
N 37 8 0 
N 75 62 0 
N 58 26 0 
N 2 42 0 
N 54 94 0 
N 48 67 0 
N 23 10 0 
N 54 5 0 
N 55 94 0 
N 88 85 0 
N 20 3 0 
N 28 47 0 
N 88 35 0 
N 40 74 0 
N 7 13 0 
N 31 96 0 
N 91 3 0 
N 71 9 0 
N 89 35 0 
N 0 27 0 
N 12 39 0 
N 10 68 0 
N 88 27 0 
N 1 40 0 
N 59 70 0 
N 24 27 0 
N 41 18 0 
N 36 73 0 
N 22 30 0 
N 11 40 0 
N 24 38 0 
N 64 7 0 
N 63 46 0 
N 31 37 0 
N 6 15 0 
N 7 2 0 
N 59 31 0 
N 64 90 0 
N 31 97 0 
N 41 8 0 
N 75 16 0 
N 20 71 0 
N 87 74 0 
N 65 17 0 
N 23 24 0 
N 58 17 0 
N 35 70 0 
N 33 31 0 
N 42 18 0 
N 38 23 0 
N 86 58 0 
N 72 74 0 
N 82 25 0 
N 47 48 0 
N 85 5 0 
N 41 4 0 
N 20 36 0 
N 43 41 0 
N 62 51 0 
N 45 75 0 
N 49 74 0 
N 6 61 0 
N 9 72 0 
N 37 73 0 
N 58 65 0 
N 40 28 0 
N 65 5 0 
N 56 68 0 
N 69 57 0 
N 69 70 0 
N 77 60 0 
N 60 49 0 
N 51 64 0 
N 14 39 0 
N 56 19 0 
N 62 41 0 
N 3 42 0 
N 55 98 0 
N 79 58 0 
N 78 36 0 
N 96 21 0 
N 43 40 0 
N 1 96 0 
N 48 68 0 
N 55 21 0 
N 66 18 0 
N 36 52 0 
N 75 12 0 
N 53 93 0 
N 37 52 0 
N 94 44 0 
N 3 98 0 
N 40 75 0 
N 66 25 0 
N 62 96 0 
N 84 94 0 
N 19 86 0 
N 18 86 0 
N 10 0 0 
N 27 48 0 
N 99 63 0 
N 45 44 0 
N 56 66 0 
N 42 73 0 
N 67 52 0 
N 22 19 0 
N 71 90 0 
N 38 22 0 
N 91 24 0 
N 46 75 0 
N 43 44 0 
N 84 40 0 
N 75 89 0 
N 14 43 0 
N 22 21 0 
N 52 27 0 
N 99 49 0 
N 5 61 0 
N 4 86 0 
N 71 21 0 
N 35 52 0 
N 44 53 0 
N 24 35 0 
N 2 68 0 
N 83 39 0 
N 4 49 0 
N 23 60 0 
N 17 86 0 
N 24 61 0 
N 14 79 0 
N 67 51 0 
N 65 24 0 
N 13 50 0 
N 68 77 0 
N 82 91 0 
N 54 93 0 
N 23 59 0 
N 78 61 0 
N 1 42 0 
N 9 67 0 
N 24 69 0 
N 52 12 0 
N 38 31 0 
N 52 4 0 
N 18 60 0 
N 96 7 0 
N 25 40 0 
N 49 65 0 
N 88 92 0 
N 17 52 0 
N 78 63 0 
N 45 45 0 
N 97 94 0 
N 97 75 0 
N 74 13 0 
N 1 63 0 
N 87 27 0 
N 74 87 0 
N 57 67 0 
N 94 45 0 
N 5 42 0 
N 98 76 0 
N 64 2 0 
N 45 89 0 
N 61 40 0 
N 18 57 0 
N 94 84 0 
N 38 57 0 
N 94 85 0 
N 56 41 0 
N 75 14 0 
N 12 33 0 
N 65 39 0 
N 83 41 0 
N 46 68 0 
N 38 42 0 
N 49 69 0 
N 36 53 0 
N 69 74 0 
N 66 53 0 
N 39 75 0 
N 44 9 0 
N 75 79 0 
N 75 0 0 
N 16 56 0 
N 88 6 0 
N 62 31 0 
N 1 3 0 
N 57 44 0 
N 12 4 0 
N 90 91 0 
N 27 36 0 
N 43 42 0 
N 10 23 0 
N 67 42 0 
N 35 34 0 
N 94 30 0 
N 21 27 0 
N 18 84 0 
N 28 18 0 
N 86 57 0 
N 26 0 0 
N 29 19 0 
N 43 93 0 
N 77 61 0 
N 85 25 0 
N 3 26 0 
N 44 74 0 
N 7 15 0 
N 37 41 0 
N 98 9 0 
N 57 65 0 
N 5 83 0 
N 68 43 0 
N 45 46 0 
N 23 14 0 
N 62 6 0 
N 72 3 0 
N 25 1 0 
N 42 88 0 
N 60 51 0 
N 93 82 0 
N 25 37 0 
N 28 17 0 
N 7 6 0 
N 33 97 0 
N 89 93 0 
N 67 19 0 
N 0 47 0 
N 86 3 0 
N 56 0 0 
N 91 25 0 
N 6 52 0 
N 9 38 0 
N 81 30 0 
N 43 74 0 
N 4 79 0 
N 93 81 0 
N 66 24 0 
N 59 38 0 
N 55 92 0 
N 64 32 0 
N 41 94 0 
N 19 85 0 
N 23 61 0 
N 86 4 0 
N 0 63 0 
N 55 0 0 
N 75 11 0 
N 32 19 0 
N 4 70 0 
N 97 49 0 
N 40 15 0 
N 72 51 0 
N 27 47 0 
N 3 65 0 
N 54 4 0 
N 74 12 0 
N 78 97 0 
N 52 1 0 
N 39 52 0 
N 74 59 0 
N 6 79 0 
N 65 38 0 
N 71 43 0 
N 15 40 0 
N 57 94 0 
N 96 84 0 
N 87 36 0 
N 32 86 0 
N 99 50 0 
N 38 12 0 
N 22 22 0 
N 77 2 0 
N 66 52 0 
N 55 91 0 
N 14 4 0 
N 15 76 0 
N 79 88 0 
N 71 6 0 
N 77 4 0 
N 56 21 0 
N 93 3 0 
N 22 36 0 
N 44 45 0 
N 66 15 0 
N 68 68 0 
N 22 86 0 
N 87 63 0 
N 88 91 0 
N 73 71 0 
N 5 13 0 
N 45 43 0 
N 22 96 0 
N 94 47 0 
C 0 0 0 
C 20 0 0 
C 40 0 0 
C 60 0 0 
C 80 0 0 
C 100 0 0 
C 0 20 0 
C 20 20 0 
C 40 20 0 
C 60 20 0 
C 80 20 0 
C 100 20 0 
C 0 40 0 
C 20 40 0 
C 40 40 0 
C 60 40 0 
C 80 40 0 
C 100 40 0 
C 0 60 0 
C 20 60 0 
C 40 60 0 
C 60 60 0 
C 80 60 0 
C 100 60 0 
C 0 80 0 
C 20 80 0 
C 40 80 0 
C 60 80 0 
C 80 80 0 
C 100 80 0 
C 0 100 0 
C 20 100 0 
C 40 100 0 
C 60 100 0 
C 80 100 0 
C 100 100 0 
O 16 87 0 
O 99 75 0 
O 46 90 0 
O 4 60 0 
O 0 25 0 
O 8 0 0 
O 27 6 0 
O 99 23 0 
O 11 9 0 
O 99 20 0 
O 17 62 0 
O 23 66 0 
O 89 90 0 
O 5 4 0 
O 7 67 0 
O 5 11 0 
O 78 1 0 
O 49 68 0 
O 3 7 0 
O 60 32 0 
O 12 41 0 
O 77 69 0 
O 94 87 0 
O 38 96 0 
O 49 0 0 
O 59 27 0 
O 16 61 0 
O 51 66 0 
O 16 78 0 
O 99 68 0 
O 30 98 0 
O 96 46 0 
O 10 83 0 
O 92 2 0 
O 99 28 0 
O 7 0 0 
O 11 4 0 
O 25 99 0 
O 28 46 0 
O 30 0 0 
O 3 80 0 
O 84 84 0 
O 40 17 0 
O 12 79 0 
O 2 66 0 
O 0 24 0 
O 19 64 0 
O 23 68 0 
O 23 8 0 
O 87 3 0 
O 6 2 0 
O 0 65 0 
O 11 61 0 
O 83 87 0 
O 54 0 0 
O 1 21 0 
O 9 81 0 
O 82 64 0 
O 12 59 0 
O 22 0 0 
O 29 3 0 
O 59 40 0 
O 72 8 0 
O 44 58 0 
O 0 70 0 
O 46 0 0 
O 84 34 0 
O 58 21 0 
O 96 30 0 
O 74 11 0 
O 27 99 0 
O 0 66 0 
O 98 0 0 
O 9 40 0 
O 14 6 0 
O 12 64 0 
O 3 8 0 
O 41 99 0 
O 0 42 0 
O 6 66 0 
O 83 69 0 
O 70 63 0 
O 0 49 0 
O 99 3 0 
O 99 58 0 
O 32 99 0 
O 99 99 0 
O 14 77 0 
O 41 13 0 
O 32 15 0 
O 11 43 0 
O 25 66 0 
O 44 52 0 
O 93 5 0 
O 47 99 0 
O 84 67 0 
O 66 48 0 
O 56 99 0 
O 81 85 0 
O 64 47 0 
O 22 15 0 
624
Atoms. Timestep: 12
N 17 59 0 
N 83 89 0 
N 27 39 0 
N 47 78 0 
N 22 94 0 
N 25 96 0 
N 54 97 0 
N 54 95 0 
N 92 6 0 
N 35 44 0 
N 75 84 0 
N 0 49 0 
N 84 42 0 
N 57 67 0 
N 72 49 0 
N 34 73 0 
N 98 65 0 
N 46 4 0 
N 16 59 0 
N 4 0 0 
N 11 14 0 
N 72 87 0 
N 73 11 0 
N 4 11 0 
N 98 20 0 
N 41 11 0 
N 41 42 0 
N 84 37 0 
N 73 75 0 
N 92 9 0 
N 5 80 0 
N 54 9 0 
N 56 72 0 
N 7 49 0 
N 49 96 0 
N 51 74 0 
N 50 67 0 
N 42 53 0 
N 4 78 0 
N 44 78 0 
N 98 3 0 
N 51 53 0 
N 74 77 0 
N 80 27 0 
N 24 66 0 
N 94 84 0 
N 58 19 0 
N 40 6 0 
N 82 28 0 
N 18 83 0 
N 64 27 0 
N 30 35 0 
N 96 22 0 
N 8 49 0 
N 53 28 0 
N 22 25 0 
N 83 92 0 
N 86 73 0 
N 31 95 0 
N 88 35 0 
N 45 81 0 
N 78 92 0 
N 72 95 0 
N 33 16 0 
N 30 70 0 
N 8 20 0 
N 1 49 0 
N 63 3 0 
N 66 49 0 
N 95 2 0 
N 19 89 0 
N 86 72 0 
N 80 88 0 
N 6 11 0 
N 66 87 0 
N 87 34 0 
N 20 38 0 
N 16 92 0 
N 25 98 0 
N 18 33 0 
N 88 45 0 
N 12 12 0 
N 73 89 0 
N 31 96 0 
N 47 88 0 
N 32 74 0 
N 95 29 0 
N 44 87 0 
N 37 13 0 
N 29 3 0 
N 81 63 0 
N 63 74 0 
N 2 21 0 
N 44 85 0 
N 83 34 0 
N 21 25 0 
N 18 89 0 
N 40 95 0 
N 42 44 0 
N 10 86 0 
N 16 85 0 
N 94 33 0 
N 57 27 0 
N 25 35 0 
N 75 97 0 
N 1 87 0 
N 94 36 0 
N 82 32 0 
N 95 46 0 
N 15 60 0 
N 85 71 0 
N 98 25 0 
N 56 41 0 
N 88 64 0 
N 13 9 0 
N 2 98 0 
N 45 88 0 
N 58 17 0 
N 56 92 0 
N 81 61 0 
N 94 65 0 
N 90 46 0 
N 96 29 0 
N 32 15 0 
N 86 62 0 
N 84 85 0 
N 83 30 0 
N 12 97 0 
N 89 89 0 
N 26 68 0 
N 14 98 0 
N 65 29 0 
N 72 11 0 
N 99 5 0 
N 60 39 0 
N 34 86 0 
N 45 86 0 
N 40 22 0 
N 74 93 0 
N 6 15 0 
N 3 89 0 
N 58 27 0 
N 58 16 0 
N 67 25 0 
N 41 12 0 
N 49 37 0 
N 21 70 0 
N 52 94 0 
N 89 94 0 
N 74 17 0 
N 89 93 0 
N 87 93 0 
N 23 42 0 
N 68 49 0 
N 2 75 0 
N 40 56 0 
N 75 76 0 
N 22 97 0 
N 40 7 0 
N 30 64 0 
N 90 64 0 
N 80 91 0 
N 88 24 0 
N 65 71 0 
N 62 47 0 
N 32 40 0 
N 3 81 0 
N 41 4 0 
N 52 90 0 
N 76 70 0 
N 39 96 0 
N 58 28 0 
N 23 39 0 
N 79 34 0 
N 77 93 0 
N 39 53 0 
N 59 18 0 
N 66 40 0 
N 19 33 0 
N 77 64 0 
N 82 39 0 
N 47 67 0 
N 47 73 0 
N 14 77 0 
N 13 13 0 
N 56 39 0 
N 72 78 0 
N 54 40 0 
N 70 66 0 
N 85 34 0 
N 16 60 0 
N 90 23 0 
N 25 46 0 
N 86 26 0 
N 68 90 0 
N 7 87 0 
N 40 11 0 
N 73 50 0 
N 97 58 0 
N 28 47 0 
N 68 83 0 
N 84 32 0 
N 14 39 0 
N 9 21 0 
N 76 97 0 
N 38 8 0 
N 74 62 0 
N 59 26 0 
N 2 41 0 
N 55 94 0 
N 49 67 0 
N 23 9 0 
N 55 5 0 
N 56 94 0 
N 88 84 0 
N 21 3 0 
N 28 46 0 
N 87 35 0 
N 40 73 0 
N 6 13 0 
N 30 96 0 
N 92 3 0 
N 72 9 0 
N 89 34 0 
N 0 26 0 
N 12 40 0 
N 10 67 0 
N 87 27 0 
N 2 40 0 
N 58 70 0 
N 23 27 0 
N 40 18 0 
N 36 72 0 
N 22 29 0 
N 11 41 0 
N 24 38 0 
N 65 7 0 
N 64 46 0 
N 31 38 0 
N 6 14 0 
N 6 2 0 
N 60 31 0 
N 64 91 0 
N 30 97 0 
N 41 9 0 
N 75 15 0 
N 21 71 0 
N 86 74 0 
N 65 18 0 
N 23 23 0 
N 58 18 0 
N 34 70 0 
N 33 30 0 
N 42 17 0 
N 39 23 0 
N 85 58 0 
N 73 74 0 
N 83 25 0 
N 47 49 0 
N 86 5 0 
N 41 5 0 
N 20 37 0 
N 43 40 0 
N 62 52 0 
N 46 75 0 
N 49 73 0 
N 5 61 0 
N 9 71 0 
N 37 72 0 
N 57 65 0 
N 40 27 0 
N 65 6 0 
N 55 68 0 
N 69 58 0 
N 69 69 0 
N 77 61 0 
N 61 49 0 
N 51 65 0 
N 13 39 0 
N 57 19 0 
N 61 41 0 
N 3 41 0 
N 55 99 0 
N 80 58 0 
N 79 36 0 
N 97 21 0 
N 44 40 0 
N 1 97 0 
N 48 68 0 
N 56 21 0 
N 66 19 0 
N 35 52 0 
N 75 11 0 
N 53 94 0 
N 38 52 0 
N 94 45 0 
N 4 98 0 
N 41 75 0 
N 66 26 0 
N 62 97 0 
N 84 93 0 
N 19 87 0 
N 17 86 0 
N 9 0 0 
N 27 47 0 
N 98 63 0 
N 45 45 0 
N 55 66 0 
N 42 72 0 
N 67 51 0 
N 22 18 0 
N 72 90 0 
N 38 21 0 
N 92 24 0 
N 47 75 0 
N 43 45 0 
N 84 40 0 
N 76 89 0 
N 13 43 0 
N 22 20 0 
N 53 27 0 
N 98 49 0 
N 4 61 0 
N 3 86 0 
N 70 21 0 
N 35 51 0 
N 44 52 0 
N 24 36 0 
N 2 67 0 
N 84 39 0 
N 3 49 0 
N 23 61 0 
N 16 86 0 
N 24 62 0 
N 13 79 0 
N 67 50 0 
N 65 25 0 
N 12 50 0 
N 69 77 0 
N 82 90 0 
N 54 93 0 
N 23 59 0 
N 79 61 0 
N 0 42 0 
N 8 67 0 
N 23 69 0 
N 51 12 0 
N 38 30 0 
N 52 3 0 
N 17 60 0 
N 95 7 0 
N 26 40 0 
N 49 66 0 
N 88 91 0 
N 17 53 0 
N 78 64 0 
N 44 45 0 
N 98 94 0 
N 98 75 0 
N 74 12 0 
N 1 64 0 
N 87 28 0 
N 75 87 0 
N 56 67 0 
N 95 45 0 
N 4 42 0 
N 99 76 0 
N 64 3 0 
N 45 90 0 
N 61 40 0 
N 17 57 0 
N 94 85 0 
N 39 57 0 
N 94 86 0 
N 57 41 0 
N 75 13 0 
N 12 34 0 
N 64 39 0 
N 84 41 0 
N 46 67 0 
N 37 42 0 
N 49 68 0 
N 37 53 0 
N 70 74 0 
N 66 52 0 
N 39 74 0 
N 44 10 0 
N 76 79 0 
N 76 0 0 
N 16 57 0 
N 89 6 0 
N 62 32 0 
N 2 3 0 
N 58 44 0 
N 11 4 0 
N 90 90 0 
N 28 36 0 
N 44 42 0 
N 11 23 0 
N 66 42 0 
N 34 34 0 
N 95 30 0 
N 22 27 0 
N 17 84 0 
N 28 17 0 
N 85 57 0 
N 26 1 0 
N 29 18 0 
N 43 92 0 
N 77 62 0 
N 84 25 0 
N 2 26 0 
N 45 74 0 
N 7 14 0 
N 36 41 0 
N 98 8 0 
N 56 65 0 
N 6 83 0 
N 67 43 0 
N 44 46 0 
N 23 15 0 
N 62 7 0 
N 72 4 0 
N 25 2 0 
N 42 89 0 
N 60 50 0 
N 94 82 0 
N 25 38 0 
N 29 17 0 
N 7 5 0 
N 32 97 0 
N 89 92 0 
N 67 20 0 
N 0 47 0 
N 87 3 0 
N 56 1 0 
N 90 25 0 
N 5 52 0 
N 9 39 0 
N 82 30 0 
N 43 73 0 
N 4 80 0 
N 94 81 0 
N 66 24 0 
N 59 39 0 
N 55 93 0 
N 63 32 0 
N 42 94 0 
N 18 85 0 
N 23 62 0 
N 87 4 0 
N 0 64 0 
N 54 0 0 
N 75 10 0 
N 32 18 0 
N 3 70 0 
N 96 49 0 
N 40 16 0 
N 71 51 0 
N 27 46 0 
N 2 65 0 
N 54 3 0 
N 74 11 0 
N 78 96 0 
N 52 0 0 
N 40 52 0 
N 73 59 0 
N 6 80 0 
N 64 38 0 
N 71 44 0 
N 14 40 0 
N 57 95 0 
N 95 84 0 
N 86 36 0 
N 32 87 0 
N 98 50 0 
N 38 13 0 
N 22 22 0 
N 77 1 0 
N 66 51 0 
N 55 91 0 
N 14 5 0 
N 14 76 0 
N 79 87 0 
N 71 7 0 
N 78 4 0 
N 57 21 0 
N 93 2 0 
N 21 36 0 
N 44 44 0 
N 67 15 0 
N 68 67 0 
N 21 86 0 
N 86 63 0 
N 88 90 0 
N 74 71 0 
N 5 12 0 
N 44 43 0 
N 22 96 0 
N 95 47 0 
C 0 0 0 
C 20 0 0 
C 40 0 0 
C 60 0 0 
C 80 0 0 
C 100 0 0 
C 0 20 0 
C 20 20 0 
C 40 20 0 
C 60 20 0 
C 80 20 0 
C 100 20 0 
C 0 40 0 
C 20 40 0 
C 40 40 0 
C 60 40 0 
C 80 40 0 
C 100 40 0 
C 0 60 0 
C 20 60 0 
C 40 60 0 
C 60 60 0 
C 80 60 0 
C 100 60 0 
C 0 80 0 
C 20 80 0 
C 40 80 0 
C 60 80 0 
C 80 80 0 
C 100 80 0 
C 0 100 0 
C 20 100 0 
C 40 100 0 
C 60 100 0 
C 80 100 0 
C 100 100 0 
O 15 87 0 
O 99 74 0 
O 47 90 0 
O 3 60 0 
O 99 25 0 
O 8 99 0 
O 27 5 0 
O 99 22 0 
O 11 10 0 
O 99 19 0 
O 17 61 0 
O 23 67 0 
O 89 91 0 
O 4 4 0 
O 6 67 0 
O 5 10 0 
O 78 0 0 
O 3 8 0 
O 61 32 0 
O 13 41 0 
O 78 69 0 
O 95 87 0 
O 38 97 0 
O 49 99 0 
O 59 28 0 
O 15 61 0 
O 52 66 0 
O 16 79 0 
O 99 67 0 
O 29 98 0 
O 96 45 0 
O 9 83 0 
O 92 1 0 
O 99 27 0 
O 7 99 0 
O 25 0 0 
O 30 99 0 
O 2 80 0 
O 84 83 0 
O 39 17 0 
O 11 79 0 
O 1 66 0 
O 99 24 0 
O 19 65 0 
O 22 68 0 
O 22 8 0 
O 99 65 0 
O 11 62 0 
O 83 88 0 
O 1 20 0 
O 8 81 0 
O 83 64 0 
O 11 59 0 
O 23 0 0 
O 59 41 0 
O 72 7 0 
O 44 57 0 
O 0 69 0 
O 47 0 0 
O 84 33 0 
O 59 21 0 
O 97 30 0 
O 26 99 0 
O 0 67 0 
O 98 99 0 
O 10 40 0 
O 13 6 0 
O 11 64 0 
O 2 8 0 
O 41 0 0 
O 5 66 0 
O 83 68 0 
O 70 62 0 
O 0 3 0 
O 99 57 0 
O 32 0 0 
O 99 0 0 
O 42 13 0 
O 11 42 0 
O 26 66 0 
O 94 5 0 
O 48 99 0 
O 85 67 0 
O 66 47 0 
O 56 0 0 
O 81 86 0 
O 64 48 0 
O 22 14 0 
611
Atoms. Timestep: 13
N 16 59 0 
N 83 88 0 
N 26 39 0 
N 47 79 0 
N 23 94 0 
N 25 95 0 
N 53 97 0 
N 54 96 0 
N 93 6 0 
N 36 44 0 
N 75 85 0 
N 0 50 0 
N 85 42 0 
N 56 67 0 
N 72 48 0 
N 33 73 0 
N 99 65 0 
N 47 4 0 
N 15 59 0 
N 4 1 0 
N 11 13 0 
N 73 87 0 
N 73 10 0 
N 4 10 0 
N 98 19 0 
N 42 11 0 
N 41 43 0 
N 84 36 0 
N 73 74 0 
N 93 9 0 
N 4 80 0 
N 53 9 0 
N 56 71 0 
N 8 49 0 
N 49 97 0 
N 52 74 0 
N 51 67 0 
N 43 53 0 
N 3 78 0 
N 44 79 0 
N 97 3 0 
N 51 54 0 
N 74 76 0 
N 81 27 0 
N 23 66 0 
N 94 85 0 
N 58 20 0 
N 41 6 0 
N 82 29 0 
N 18 82 0 
N 63 27 0 
N 30 34 0 
N 96 22 0 
N 9 49 0 
N 53 27 0 
N 22 24 0 
N 83 91 0 
N 86 72 0 
N 31 96 0 
N 89 35 0 
N 46 81 0 
N 78 91 0 
N 72 94 0 
N 33 17 0 
N 29 70 0 
N 7 20 0 
N 1 50 0 
N 63 2 0 
N 66 48 0 
N 94 2 0 
N 19 88 0 
N 85 72 0 
N 81 88 0 
N 6 10 0 
N 66 86 0 
N 87 33 0 
N 19 38 0 
N 15 92 0 
N 25 97 0 
N 18 34 0 
N 89 45 0 
N 11 12 0 
N 74 89 0 
N 30 96 0 
N 48 88 0 
N 32 73 0 
N 95 30 0 
N 44 88 0 
N 38 13 0 
N 29 4 0 
N 82 63 0 
N 63 73 0 
N 2 20 0 
N 44 86 0 
N 83 33 0 
N 21 24 0 
N 17 89 0 
N 40 96 0 
N 42 45 0 
N 10 85 0 
N 15 85 0 
N 94 32 0 
N 57 26 0 
N 25 36 0 
N 76 97 0 
N 2 87 0 
N 95 36 0 
N 83 32 0 
N 96 46 0 
N 15 61 0 
N 85 70 0 
N 99 25 0 
N 57 41 0 
N 87 64 0 
N 12 9 0 
N 2 99 0 
N 46 88 0 
N 59 17 0 
N 56 91 0 
N 82 61 0 
N 95 65 0 
N 90 47 0 
N 97 29 0 
N 33 15 0 
N 85 62 0 
N 84 84 0 
N 84 30 0 
N 13 97 0 
N 88 89 0 
N 26 67 0 
N 14 99 0 
N 64 29 0 
N 72 10 0 
N 98 5 0 
N 59 39 0 
N 35 86 0 
N 45 87 0 
N 40 21 0 
N 74 92 0 
N 5 15 0 
N 3 88 0 
N 58 26 0 
N 59 16 0 
N 66 25 0 
N 42 12 0 
N 50 37 0 
N 22 70 0 
N 51 94 0 
N 90 94 0 
N 74 18 0 
N 90 93 0 
N 86 93 0 
N 22 42 0 
N 68 48 0 
N 2 74 0 
N 41 56 0 
N 76 76 0 
N 22 96 0 
N 41 7 0 
N 29 64 0 
N 90 63 0 
N 81 91 0 
N 89 24 0 
N 65 70 0 
N 63 47 0 
N 31 40 0 
N 2 81 0 
N 41 3 0 
N 51 90 0 
N 76 69 0 
N 39 97 0 
N 59 28 0 
N 23 40 0 
N 79 33 0 
N 78 93 0 
N 39 54 0 
N 59 19 0 
N 66 41 0 
N 19 34 0 
N 78 64 0 
N 83 39 0 
N 47 66 0 
N 47 72 0 
N 15 77 0 
N 12 13 0 
N 56 40 0 
N 72 79 0 
N 54 41 0 
N 70 65 0 
N 86 34 0 
N 16 61 0 
N 91 23 0 
N 24 46 0 
N 86 25 0 
N 69 90 0 
N 8 87 0 
N 40 12 0 
N 73 49 0 
N 97 57 0 
N 28 48 0 
N 69 83 0 
N 84 33 0 
N 13 39 0 
N 8 21 0 
N 77 97 0 
N 38 9 0 
N 73 62 0 
N 59 27 0 
N 3 41 0 
N 55 95 0 
N 49 66 0 
N 22 9 0 
N 54 5 0 
N 56 94 0 
N 87 84 0 
N 22 3 0 
N 27 46 0 
N 87 35 0 
N 40 72 0 
N 6 12 0 
N 30 97 0 
N 92 2 0 
N 73 9 0 
N 88 34 0 
N 0 25 0 
N 12 41 0 
N 11 67 0 
N 87 28 0 
N 2 40 0 
N 58 69 0 
N 22 27 0 
N 39 18 0 
N 35 72 0 
N 22 28 0 
N 11 42 0 
N 24 39 0 
N 66 7 0 
N 64 47 0 
N 31 39 0 
N 5 14 0 
N 5 2 0 
N 60 30 0 
N 63 91 0 
N 29 97 0 
N 41 10 0 
N 76 15 0 
N 22 71 0 
N 85 74 0 
N 65 19 0 
N 22 23 0 
N 58 18 0 
N 35 70 0 
N 34 30 0 
N 41 17 0 
N 39 22 0 
N 85 59 0 
N 74 74 0 
N 83 26 0 
N 47 50 0 
N 87 5 0 
N 41 5 0 
N 19 37 0 
N 43 41 0 
N 62 51 0 
N 46 74 0 
N 49 72 0 
N 5 60 0 
N 8 71 0 
N 37 71 0 
N 57 66 0 
N 40 26 0 
N 65 5 0 
N 54 68 0 
N 70 58 0 
N 70 69 0 
N 76 61 0 
N 61 48 0 
N 52 65 0 
N 13 40 0 
N 57 20 0 
N 60 41 0 
N 3 40 0 
N 54 99 0 
N 80 59 0 
N 79 35 0 
N 97 22 0 
N 45 40 0 
N 2 97 0 
N 48 67 0 
N 57 21 0 
N 66 20 0 
N 36 52 0 
N 75 10 0 
N 53 95 0 
N 38 53 0 
N 94 46 0 
N 5 98 0 
N 41 74 0 
N 66 27 0 
N 61 97 0 
N 83 93 0 
N 18 87 0 
N 17 87 0 
N 9 1 0 
N 26 47 0 
N 98 64 0 
N 45 46 0 
N 54 66 0 
N 42 71 0 
N 67 50 0 
N 23 18 0 
N 72 89 0 
N 38 20 0 
N 93 24 0 
N 48 75 0 
N 43 46 0 
N 84 39 0 
N 76 88 0 
N 13 42 0 
N 22 19 0 
N 54 27 0 
N 99 49 0 
N 4 60 0 
N 3 85 0 
N 69 21 0 
N 36 51 0 
N 44 53 0 
N 24 37 0 
N 1 67 0 
N 84 38 0 
N 3 50 0 
N 23 61 0 
N 16 87 0 
N 23 62 0 
N 12 79 0 
N 67 49 0 
N 65 26 0 
N 11 50 0 
N 70 77 0 
N 82 89 0 
N 54 92 0 
N 23 60 0 
N 78 61 0 
N 1 42 0 
N 7 67 0 
N 23 68 0 
N 50 12 0 
N 39 30 0 
N 52 4 0 
N 17 61 0 
N 94 7 0 
N 26 41 0 
N 50 66 0 
N 87 91 0 
N 17 54 0 
N 78 65 0 
N 44 46 0 
N 98 95 0 
N 98 74 0 
N 74 11 0 
N 1 65 0 
N 87 29 0 
N 76 87 0 
N 56 66 0 
N 96 45 0 
N 5 42 0 
N 99 75 0 
N 64 2 0 
N 46 90 0 
N 61 40 0 
N 17 58 0 
N 94 86 0 
N 40 57 0 
N 95 86 0 
N 58 41 0 
N 75 12 0 
N 12 35 0 
N 64 40 0 
N 84 41 0 
N 46 66 0 
N 36 42 0 
N 50 68 0 
N 37 54 0 
N 70 73 0 
N 66 51 0 
N 39 75 0 
N 44 11 0 
N 76 78 0 
N 76 1 0 
N 16 58 0 
N 89 5 0 
N 61 32 0 
N 1 3 0 
N 58 43 0 
N 12 4 0 
N 91 90 0 
N 28 37 0 
N 43 42 0 
N 11 22 0 
N 66 42 0 
N 34 33 0 
N 96 30 0 
N 22 26 0 
N 17 85 0 
N 27 17 0 
N 84 57 0 
N 26 0 0 
N 29 17 0 
N 43 91 0 
N 76 62 0 
N 84 26 0 
N 2 25 0 
N 45 73 0 
N 7 13 0 
N 37 41 0 
N 97 8 0 
N 55 65 0 
N 7 83 0 
N 66 43 0 
N 44 47 0 
N 23 14 0 
N 61 7 0 
N 73 4 0 
N 25 1 0 
N 42 90 0 
N 60 49 0 
N 94 83 0 
N 25 39 0 
N 30 17 0 
N 6 5 0 
N 32 96 0 
N 89 91 0 
N 67 21 0 
N 0 46 0 
N 87 2 0 
N 56 0 0 
N 91 25 0 
N 5 53 0 
N 10 39 0 
N 82 31 0 
N 43 72 0 
N 3 80 0 
N 95 81 0 
N 66 23 0 
N 59 40 0 
N 56 93 0 
N 63 32 0 
N 42 95 0 
N 18 86 0 
N 23 63 0 
N 88 4 0 
N 0 65 0 
N 55 0 0 
N 75 9 0 
N 32 17 0 
N 2 70 0 
N 96 48 0 
N 40 17 0 
N 71 50 0 
N 27 45 0 
N 2 66 0 
N 54 2 0 
N 74 10 0 
N 78 95 0 
N 52 1 0 
N 40 53 0 
N 72 59 0 
N 7 80 0 
N 63 38 0 
N 70 44 0 
N 14 41 0 
N 56 95 0 
N 95 85 0 
N 86 35 0 
N 32 86 0 
N 97 50 0 
N 39 13 0 
N 22 21 0 
N 77 0 0 
N 66 50 0 
N 54 91 0 
N 14 6 0 
N 15 76 0 
N 79 86 0 
N 72 7 0 
N 78 3 0 
N 58 21 0 
N 93 1 0 
N 21 37 0 
N 44 44 0 
N 68 15 0 
N 69 67 0 
N 21 87 0 
N 85 63 0 
N 89 90 0 
N 75 71 0 
N 5 11 0 
N 44 43 0 
N 23 96 0 
N 96 47 0 
C 0 0 0 
C 20 0 0 
C 40 0 0 
C 60 0 0 
C 80 0 0 
C 100 0 0 
C 0 20 0 
C 20 20 0 
C 40 20 0 
C 60 20 0 
C 80 20 0 
C 100 20 0 
C 0 40 0 
C 20 40 0 
C 40 40 0 
C 60 40 0 
C 80 40 0 
C 100 40 0 
C 0 60 0 
C 20 60 0 
C 40 60 0 
C 60 60 0 
C 80 60 0 
C 100 60 0 
C 0 80 0 
C 20 80 0 
C 40 80 0 
C 60 80 0 
C 80 80 0 
C 100 80 0 
C 0 100 0 
C 20 100 0 
C 40 100 0 
C 60 100 0 
C 80 100 0 
C 100 100 0 
O 14 87 0 
O 0 74 0 
O 48 90 0 
O 3 59 0 
O 7 99 0 
O 27 4 0 
O 99 21 0 
O 11 9 0 
O 99 20 0 
O 22 67 0 
O 3 4 0 
O 6 68 0 
O 5 9 0 
O 78 99 0 
O 3 7 0 
O 13 41 0 
O 78 70 0 
O 96 87 0 
O 38 98 0 
O 50 99 0 
O 53 66 0 
O 16 78 0 
O 99 68 0 
O 30 98 0 
O 8 83 0 
O 92 0 0 
O 0 27 0 
O 7 0 0 
O 24 0 0 
O 29 99 0 
O 1 80 0 
O 85 83 0 
O 38 17 0 
O 11 80 0 
O 0 66 0 
O 0 24 0 
O 19 64 0 
O 22 69 0 
O 22 7 0 
O 11 61 0 
O 1 21 0 
O 8 82 0 
O 83 65 0 
O 11 60 0 
O 22 0 0 
O 59 41 0 
O 43 57 0 
O 0 70 0 
O 47 99 0 
O 59 20 0 
O 98 30 0 
O 25 99 0 
O 0 68 0 
O 98 0 0 
O 9 40 0 
O 13 5 0 
O 11 63 0 
O 2 7 0 
O 42 0 0 
O 4 66 0 
O 84 68 0 
O 69 62 0 
O 99 3 0 
O 0 57 0 
O 33 0 0 
O 99 99 0 
O 43 13 0 
O 25 66 0 
O 95 5 0 
O 48 0 0 
O 86 67 0 
O 66 46 0 
O 81 85 0 
O 64 49 0 
O 21 14 0 
601
Atoms. Timestep: 14
N 16 60 0 
N 83 87 0 
N 26 40 0 
N 46 79 0 
N 24 94 0 
N 25 96 0 
N 52 97 0 
N 54 97 0 
N 93 5 0 
N 37 44 0 
N 76 85 0 
N 0 51 0 
N 85 43 0 
N 57 67 0 
N 72 47 0 
N 33 72 0 
N 99 66 0 
N 47 5 0 
N 14 59 0 
N 3 1 0 
N 11 12 0 
N 73 86 0 
N 73 11 0 
N 4 9 0 
N 98 20 0 
N 42 12 0 
N 42 43 0 
N 85 36 0 
N 74 74 0 
N 94 9 0 
N 3 80 0 
N 53 10 0 
N 56 70 0 
N 8 48 0 
N 49 98 0 
N 51 74 0 
N 51 67 0 
N 43 54 0 
N 2 78 0 
N 44 80 0 
N 98 3 0 
N 50 54 0 
N 75 76 0 
N 80 27 0 
N 22 66 0 
N 94 86 0 
N 58 19 0 
N 41 5 0 
N 83 29 0 
N 18 81 0 
N 64 27 0 
N 31 34 0 
N 96 21 0 
N 9 48 0 
N 54 27 0 
N 22 23 0 
N 83 90 0 
N 86 71 0 
N 31 97 0 
N 90 35 0 
N 46 82 0 
N 78 92 0 
N 73 94 0 
N 34 17 0 
N 29 69 0 
N 6 20 0 
N 1 51 0 
N 63 3 0 
N 66 47 0 
N 94 1 0 
N 19 87 0 
N 84 72 0 
N 81 87 0 
N 6 9 0 
N 66 85 0 
N 87 32 0 
N 19 39 0 
N 15 91 0 
N 25 98 0 
N 18 35 0 
N 89 46 0 
N 11 11 0 
N 75 89 0 
N 30 97 0 
N 48 89 0 
N 31 73 0 
N 96 30 0 
N 44 89 0 
N 38 14 0 
N 28 4 0 
N 82 64 0 
N 64 73 0 
N 2 21 0 
N 44 87 0 
N 83 32 0 
N 21 23 0 
N 16 89 0 
N 39 96 0 
N 43 45 0 
N 9 85 0 
N 15 86 0 
N 94 31 0 
N 57 25 0 
N 24 36 0 
N 77 97 0 
N 3 87 0 
N 95 35 0 
N 83 31 0 
N 96 47 0 
N 14 61 0 
N 85 69 0 
N 99 26 0 
N 58 41 0 
N 86 64 0 
N 11 9 0 
N 3 99 0 
N 47 88 0 
N 59 16 0 
N 56 90 0 
N 82 62 0 
N 95 66 0 
N 90 48 0 
N 98 29 0 
N 33 16 0 
N 84 62 0 
N 85 84 0 
N 85 30 0 
N 13 98 0 
N 87 89 0 
N 26 66 0 
N 13 99 0 
N 65 29 0 
N 72 11 0 
N 99 5 0 
N 60 39 0 
N 36 86 0 
N 46 87 0 
N 40 21 0 
N 75 92 0 
N 5 14 0 
N 4 88 0 
N 58 27 0 
N 59 15 0 
N 67 25 0 
N 43 12 0 
N 51 37 0 
N 22 69 0 
N 50 94 0 
N 90 93 0 
N 73 18 0 
N 91 93 0 
N 85 93 0 
N 22 41 0 
N 68 47 0 
N 1 74 0 
N 42 56 0 
N 77 76 0 
N 22 95 0 
N 42 7 0 
N 29 65 0 
N 89 63 0 
N 81 90 0 
N 89 23 0 
N 66 70 0 
N 63 48 0 
N 32 40 0 
N 1 81 0 
N 42 3 0 
N 50 90 0 
N 77 69 0 
N 38 97 0 
N 59 27 0 
N 22 40 0 
N 79 34 0 
N 78 94 0 
N 39 55 0 
N 59 20 0 
N 66 42 0 
N 19 35 0 
N 78 65 0 
N 83 40 0 
N 47 65 0 
N 48 72 0 
N 16 77 0 
N 12 12 0 
N 57 40 0 
N 73 79 0 
N 54 42 0 
N 69 65 0 
N 87 34 0 
N 16 61 0 
N 91 22 0 
N 24 45 0 
N 85 25 0 
N 69 89 0 
N 8 86 0 
N 41 12 0 
N 72 49 0 
N 98 57 0 
N 27 48 0 
N 69 84 0 
N 84 32 0 
N 12 39 0 
N 7 21 0 
N 77 98 0 
N 38 10 0 
N 72 62 0 
N 59 26 0 
N 4 41 0 
N 55 96 0 
N 49 65 0 
N 22 8 0 
N 54 6 0 
N 56 95 0 
N 87 83 0 
N 22 2 0 
N 26 46 0 
N 88 35 0 
N 41 72 0 
N 5 12 0 
N 30 98 0 
N 92 1 0 
N 74 9 0 
N 88 33 0 
N 0 24 0 
N 12 41 0 
N 11 66 0 
N 87 29 0 
N 3 40 0 
N 59 69 0 
N 21 27 0 
N 38 18 0 
N 34 72 0 
N 21 28 0 
N 11 41 0 
N 24 40 0 
N 67 7 0 
N 64 48 0 
N 30 39 0 
N 5 13 0 
N 5 3 0 
N 60 29 0 
N 63 90 0 
N 29 98 0 
N 41 11 0 
N 77 15 0 
N 22 71 0 
N 85 73 0 
N 64 19 0 
N 22 22 0 
N 59 18 0 
N 34 70 0 
N 34 29 0 
N 40 17 0 
N 39 21 0 
N 84 59 0 
N 74 73 0 
N 83 27 0 
N 46 50 0 
N 88 5 0 
N 42 5 0 
N 18 37 0 
N 43 41 0 
N 62 50 0 
N 46 75 0 
N 49 73 0 
N 5 59 0 
N 7 71 0 
N 36 71 0 
N 58 66 0 
N 39 26 0 
N 66 5 0 
N 54 69 0 
N 69 58 0 
N 70 68 0 
N 76 62 0 
N 62 48 0 
N 51 65 0 
N 12 40 0 
N 57 20 0 
N 60 42 0 
N 4 40 0 
N 53 99 0 
N 81 59 0 
N 78 35 0 
N 98 22 0 
N 45 41 0 
N 2 98 0 
N 48 66 0 
N 58 21 0 
N 65 20 0 
N 37 52 0 
N 76 10 0 
N 53 96 0 
N 39 53 0 
N 95 46 0 
N 5 99 0 
N 41 73 0 
N 66 26 0 
N 61 98 0 
N 82 93 0 
N 17 87 0 
N 16 87 0 
N 8 1 0 
N 25 47 0 
N 98 65 0 
N 44 46 0 
N 53 66 0 
N 42 70 0 
N 67 49 0 
N 22 18 0 
N 73 89 0 
N 38 19 0 
N 92 24 0 
N 48 74 0 
N 43 46 0 
N 84 38 0 
N 76 87 0 
N 12 42 0 
N 21 19 0 
N 55 27 0 
N 99 50 0 
N 3 60 0 
N 2 85 0 
N 68 21 0 
N 37 51 0 
N 44 54 0 
N 24 38 0 
N 1 68 0 
N 85 38 0 
N 3 51 0 
N 22 61 0 
N 15 87 0 
N 23 63 0 
N 12 80 0 
N 66 49 0 
N 65 25 0 
N 11 51 0 
N 70 76 0 
N 81 89 0 
N 53 92 0 
N 22 60 0 
N 78 62 0 
N 2 42 0 
N 7 68 0 
N 23 69 0 
N 50 13 0 
N 38 30 0 
N 51 4 0 
N 18 61 0 
N 94 6 0 
N 25 41 0 
N 51 66 0 
N 86 91 0 
N 18 54 0 
N 78 66 0 
N 44 47 0 
N 98 94 0 
N 97 74 0 
N 75 11 0 
N 0 65 0 
N 88 29 0 
N 77 87 0 
N 55 66 0 
N 95 45 0 
N 5 41 0 
N 98 75 0 
N 64 3 0 
N 47 90 0 
N 62 40 0 
N 18 58 0 
N 95 86 0 
N 41 57 0 
N 95 87 0 
N 58 42 0 
N 75 13 0 
N 11 35 0 
N 64 41 0 
N 84 42 0 
N 46 66 0 
N 36 41 0 
N 50 67 0 
N 38 54 0 
N 71 73 0 
N 65 51 0 
N 40 75 0 
N 43 11 0 
N 77 78 0 
N 76 0 0 
N 15 58 0 
N 90 5 0 
N 60 32 0 
N 0 3 0 
N 58 44 0 
N 12 5 0 
N 92 90 0 
N 28 38 0 
N 43 42 0 
N 10 22 0 
N 66 43 0 
N 34 32 0 
N 97 30 0 
N 22 25 0 
N 16 85 0 
N 27 18 0 
N 83 57 0 
N 26 0 0 
N 30 17 0 
N 44 91 0 
N 75 62 0 
N 84 27 0 
N 2 24 0 
N 45 72 0 
N 6 13 0 
N 37 42 0 
N 96 8 0 
N 54 65 0 
N 8 83 0 
N 66 44 0 
N 43 47 0 
N 22 14 0 
N 61 8 0 
N 74 4 0 
N 25 0 0 
N 43 90 0 
N 61 49 0 
N 94 84 0 
N 25 38 0 
N 31 17 0 
N 6 4 0 
N 32 97 0 
N 89 90 0 
N 67 20 0 
N 0 47 0 
N 87 1 0 
N 56 1 0 
N 90 25 0 
N 4 53 0 
N 10 40 0 
N 82 30 0 
N 43 71 0 
N 2 80 0 
N 95 82 0 
N 66 22 0 
N 59 41 0 
N 56 92 0 
N 62 32 0 
N 42 94 0 
N 17 86 0 
N 23 64 0 
N 89 4 0 
N 0 66 0 
N 55 1 0 
N 76 9 0 
N 32 17 0 
N 1 70 0 
N 96 49 0 
N 39 17 0 
N 71 49 0 
N 27 44 0 
N 1 66 0 
N 54 3 0 
N 74 10 0 
N 78 96 0 
N 52 2 0 
N 40 54 0 
N 72 60 0 
N 8 80 0 
N 63 39 0 
N 69 44 0 
N 13 41 0 
N 56 96 0 
N 96 85 0 
N 86 35 0 
N 32 87 0 
N 97 51 0 
N 40 13 0 
N 22 20 0 
N 78 0 0 
N 65 50 0 
N 54 90 0 
N 14 5 0 
N 16 76 0 
N 80 86 0 
N 73 7 0 
N 78 4 0 
N 59 21 0 
N 93 0 0 
N 21 36 0 
N 43 44 0 
N 67 15 0 
N 69 66 0 
N 20 87 0 
N 85 64 0 
N 89 89 0 
N 76 71 0 
N 5 10 0 
N 43 43 0 
N 23 95 0 
N 95 47 0 
C 0 0 0 
C 20 0 0 
C 40 0 0 
C 60 0 0 
C 80 0 0 
C 100 0 0 
C 0 20 0 
C 20 20 0 
C 40 20 0 
C 60 20 0 
C 80 20 0 
C 100 20 0 
C 0 40 0 
C 20 40 0 
C 40 40 0 
C 60 40 0 
C 80 40 0 
C 100 40 0 
C 0 60 0 
C 20 60 0 
C 40 60 0 
C 60 60 0 
C 80 60 0 
C 100 60 0 
C 0 80 0 
C 20 80 0 
C 40 80 0 
C 60 80 0 
C 80 80 0 
C 100 80 0 
C 0 100 0 
C 20 100 0 
C 40 100 0 
C 60 100 0 
C 80 100 0 
C 100 100 0 
O 13 87 0 
O 0 73 0 
O 48 91 0 
O 3 58 0 
O 6 99 0 
O 26 4 0 
O 0 21 0 
O 99 19 0 
O 21 67 0 
O 4 4 0 
O 5 68 0 
O 5 8 0 
O 77 99 0 
O 2 7 0 
O 78 71 0 
O 97 87 0 
O 38 99 0 
O 50 0 0 
O 16 79 0 
O 0 68 0 
O 92 99 0 
O 0 26 0 
O 6 0 0 
O 24 0 0 
O 28 99 0 
O 1 80 0 
O 86 83 0 
O 37 17 0 
O 10 80 0 
O 19 65 0 
O 22 6 0 
O 10 61 0 
O 1 20 0 
O 9 82 0 
O 83 64 0 
O 11 59 0 
O 22 99 0 
O 44 57 0 
O 0 69 0 
O 47 0 0 
O 99 30 0 
O 24 99 0 
O 0 67 0 
O 98 99 0 
O 9 39 0 
O 13 4 0 
O 11 64 0 
O 1 7 0 
O 42 99 0 
O 3 66 0 
O 84 69 0 
O 70 62 0 
O 99 2 0 
O 0 58 0 
O 33 99 0 
O 99 0 0 
O 42 13 0 
O 25 65 0 
O 96 5 0 
O 48 99 0 
O 86 66 0 
O 66 45 0 
O 82 85 0 
O 65 49 0 
O 21 13 0 
590
Atoms. Timestep: 15
N 15 60 0 
N 84 87 0 
N 26 39 0 
N 47 79 0 
N 24 95 0 
N 24 96 0 
N 51 97 0 
N 53 97 0 
N 93 5 0 
N 37 45 0 
N 77 85 0 
N 0 52 0 
N 86 43 0 
N 57 66 0 
N 73 47 0 
N 33 71 0 
N 98 66 0 
N 47 4 0 
N 13 59 0 
N 3 2 0 
N 10 12 0 
N 73 85 0 
N 73 12 0 
N 4 8 0 
N 98 19 0 
N 42 13 0 
N 43 43 0 
N 85 35 0 
N 74 73 0 
N 94 8 0 
N 4 80 0 
N 52 10 0 
N 56 69 0 
N 8 47 0 
N 49 99 0 
N 50 74 0 
N 51 66 0 
N 43 55 0 
N 2 77 0 
N 45 80 0 
N 98 2 0 
N 50 55 0 
N 76 76 0 
N 81 27 0 
N 21 66 0 
N 94 87 0 
N 58 18 0 
N 41 6 0 
N 84 29 0 
N 18 80 0 
N 63 27 0 
N 31 33 0 
N 95 21 0 
N 9 47 0 
N 53 27 0 
N 21 23 0 
N 83 89 0 
N 86 70 0 
N 31 98 0 
N 90 34 0 
N 47 82 0 
N 78 93 0 
N 73 95 0 
N 35 17 0 
N 28 69 0 
N 6 19 0 
N 1 52 0 
N 63 2 0 
N 66 48 0 
N 94 2 0 
N 18 87 0 
N 83 72 0 
N 82 87 0 
N 6 8 0 
N 67 85 0 
N 87 31 0 
N 18 39 0 
N 15 90 0 
N 24 98 0 
N 17 35 0 
N 89 47 0 
N 11 10 0 
N 75 88 0 
N 30 98 0 
N 48 90 0 
N 30 73 0 
N 97 30 0 
N 45 89 0 
N 37 14 0 
N 27 4 0 
N 83 64 0 
N 64 72 0 
N 1 21 0 
N 45 87 0 
N 84 32 0 
N 21 22 0 
N 15 89 0 
N 38 96 0 
N 43 46 0 
N 9 84 0 
N 15 87 0 
N 95 31 0 
N 58 25 0 
N 23 36 0 
N 77 98 0 
N 4 87 0 
N 95 34 0 
N 84 31 0 
N 96 48 0 
N 13 61 0 
N 84 69 0 
N 98 26 0 
N 58 40 0 
N 86 65 0 
N 11 8 0 
N 4 99 0 
N 48 88 0 
N 59 15 0 
N 55 90 0 
N 82 63 0 
N 95 67 0 
N 89 48 0 
N 98 30 0 
N 34 16 0 
N 83 62 0 
N 85 85 0 
N 86 30 0 
N 13 97 0 
N 86 89 0 
N 26 65 0 
N 13 99 0 
N 66 29 0 
N 72 12 0 
N 99 4 0 
N 60 38 0 
N 37 86 0 
N 47 87 0 
N 39 21 0 
N 76 92 0 
N 5 14 0 
N 4 89 0 
N 57 27 0 
N 58 15 0 
N 68 25 0 
N 43 13 0 
N 51 36 0 
N 22 68 0 
N 49 94 0 
N 90 94 0 
N 73 19 0 
N 92 93 0 
N 85 92 0 
N 22 40 0 
N 69 47 0 
N 1 73 0 
N 43 56 0 
N 77 75 0 
N 22 96 0 
N 42 8 0 
N 28 65 0 
N 89 64 0 
N 82 90 0 
N 89 22 0 
N 67 70 0 
N 63 49 0 
N 31 40 0 
N 1 80 0 
N 42 4 0 
N 50 91 0 
N 78 69 0 
N 38 98 0 
N 60 27 0 
N 21 40 0 
N 78 34 0 
N 77 94 0 
N 39 56 0 
N 59 19 0 
N 66 41 0 
N 19 36 0 
N 78 66 0 
N 83 39 0 
N 46 65 0 
N 48 72 0 
N 16 78 0 
N 12 11 0 
N 56 40 0 
N 74 79 0 
N 53 42 0 
N 69 64 0 
N 88 34 0 
N 15 61 0 
N 91 21 0 
N 25 45 0 
N 85 26 0 
N 69 88 0 
N 8 85 0 
N 41 12 0 
N 72 50 0 
N 98 58 0 
N 26 48 0 
N 69 85 0 
N 85 32 0 
N 11 39 0 
N 6 21 0 
N 76 98 0 
N 39 10 0 
N 71 62 0 
N 58 26 0 
N 5 41 0 
N 54 96 0 
N 48 65 0 
N 22 9 0 
N 53 6 0 
N 55 95 0 
N 86 83 0 
N 22 3 0 
N 26 47 0 
N 89 35 0 
N 42 72 0 
N 5 11 0 
N 29 98 0 
N 92 2 0 
N 75 9 0 
N 89 33 0 
N 0 25 0 
N 11 41 0 
N 10 66 0 
N 88 29 0 
N 4 40 0 
N 59 68 0 
N 21 26 0 
N 37 18 0 
N 34 71 0 
N 21 28 0 
N 10 41 0 
N 23 40 0 
N 68 7 0 
N 64 49 0 
N 30 40 0 
N 5 13 0 
N 4 3 0 
N 60 30 0 
N 63 91 0 
N 29 99 0 
N 41 11 0 
N 77 16 0 
N 21 71 0 
N 84 73 0 
N 64 20 0 
N 22 21 0 
N 60 18 0 
N 34 69 0 
N 34 28 0 
N 39 17 0 
N 39 20 0 
N 83 59 0 
N 75 73 0 
N 83 26 0 
N 46 51 0 
N 89 5 0 
N 42 6 0 
N 17 37 0 
N 44 41 0 
N 63 50 0 
N 47 75 0 
N 48 73 0 
N 5 58 0 
N 7 70 0 
N 35 71 0 
N 58 65 0 
N 39 25 0 
N 67 5 0 
N 54 70 0 
N 69 59 0 
N 70 67 0 
N 75 62 0 
N 62 49 0 
N 50 65 0 
N 11 40 0 
N 56 20 0 
N 60 41 0 
N 4 39 0 
N 53 98 0 
N 82 59 0 
N 78 36 0 
N 97 22 0 
N 45 42 0 
N 3 98 0 
N 47 66 0 
N 57 21 0 
N 65 19 0 
N 38 52 0 
N 77 10 0 
N 52 96 0 
N 40 53 0 
N 95 47 0 
N 6 99 0 
N 42 73 0 
N 66 25 0 
N 61 97 0 
N 82 92 0 
N 16 87 0 
N 16 88 0 
N 7 1 0 
N 25 48 0 
N 97 65 0 
N 44 47 0 
N 53 65 0 
N 43 70 0 
N 67 50 0 
N 22 17 0 
N 74 89 0 
N 37 19 0 
N 92 25 0 
N 48 75 0 
N 43 47 0 
N 84 39 0 
N 77 87 0 
N 11 42 0 
N 21 18 0 
N 56 27 0 
N 99 51 0 
N 3 59 0 
N 1 85 0 
N 67 21 0 
N 38 51 0 
N 44 55 0 
N 24 39 0 
N 0 68 0 
N 85 39 0 
N 3 52 0 
N 21 61 0 
N 14 87 0 
N 24 63 0 
N 11 80 0 
N 66 50 0 
N 64 25 0 
N 11 52 0 
N 70 75 0 
N 82 89 0 
N 52 92 0 
N 21 60 0 
N 78 63 0 
N 3 42 0 
N 6 68 0 
N 23 68 0 
N 49 13 0 
N 38 29 0 
N 50 4 0 
N 19 61 0 
N 94 5 0 
N 24 41 0 
N 52 66 0 
N 86 90 0 
N 19 54 0 
N 78 67 0 
N 44 48 0 
N 98 95 0 
N 97 73 0 
N 74 11 0 
N 0 66 0 
N 89 29 0 
N 78 87 0 
N 56 66 0 
N 94 45 0 
N 6 41 0 
N 97 75 0 
N 64 4 0 
N 47 91 0 
N 63 40 0 
N 19 58 0 
N 95 87 0 
N 42 57 0 
N 96 87 0 
N 57 42 0 
N 76 13 0 
N 11 36 0 
N 64 42 0 
N 83 42 0 
N 45 66 0 
N 36 42 0 
N 49 67 0 
N 39 54 0 
N 71 72 0 
N 66 51 0 
N 40 74 0 
N 42 11 0 
N 77 77 0 
N 76 1 0 
N 14 58 0 
N 91 5 0 
N 61 32 0 
N 1 3 0 
N 57 44 0 
N 12 4 0 
N 93 90 0 
N 27 38 0 
N 44 42 0 
N 9 22 0 
N 67 43 0 
N 34 31 0 
N 97 29 0 
N 21 25 0 
N 15 85 0 
N 28 18 0 
N 83 58 0 
N 26 1 0 
N 31 17 0 
N 45 91 0 
N 74 62 0 
N 85 27 0 
N 1 24 0 
N 44 72 0 
N 6 12 0 
N 38 42 0 
N 95 8 0 
N 54 66 0 
N 9 83 0 
N 66 45 0 
N 43 48 0 
N 22 13 0 
N 60 8 0 
N 74 5 0 
N 24 0 0 
N 44 90 0 
N 61 48 0 
N 95 84 0 
N 25 39 0 
N 32 17 0 
N 5 4 0 
N 33 97 0 
N 89 89 0 
N 68 20 0 
N 0 48 0 
N 88 1 0 
N 56 0 0 
N 90 26 0 
N 4 54 0 
N 9 40 0 
N 83 30 0 
N 42 71 0 
N 2 81 0 
N 95 83 0 
N 66 21 0 
N 59 42 0 
N 56 91 0 
N 63 32 0 
N 42 95 0 
N 16 86 0 
N 24 64 0 
N 90 4 0 
N 0 67 0 
N 54 1 0 
N 77 9 0 
N 33 17 0 
N 1 69 0 
N 95 49 0 
N 38 17 0 
N 71 48 0 
N 28 44 0 
N 1 67 0 
N 53 3 0 
N 75 10 0 
N 77 96 0 
N 52 1 0 
N 40 55 0 
N 72 61 0 
N 9 80 0 
N 64 39 0 
N 69 45 0 
N 13 40 0 
N 56 96 0 
N 96 86 0 
N 87 35 0 
N 32 88 0 
N 96 51 0 
N 41 13 0 
N 21 20 0 
N 78 1 0 
N 65 49 0 
N 54 91 0 
N 13 5 0 
N 16 76 0 
N 80 85 0 
N 73 8 0 
N 78 5 0 
N 59 22 0 
N 93 1 0 
N 21 37 0 
N 44 44 0 
N 67 14 0 
N 70 66 0 
N 20 87 0 
N 84 64 0 
N 89 88 0 
N 77 71 0 
N 5 9 0 
N 44 43 0 
N 23 94 0 
N 94 47 0 
C 0 0 0 
C 20 0 0 
C 40 0 0 
C 60 0 0 
C 80 0 0 
C 100 0 0 
C 0 20 0 
C 20 20 0 
C 40 20 0 
C 60 20 0 
C 80 20 0 
C 100 20 0 
C 0 40 0 
C 20 40 0 
C 40 40 0 
C 60 40 0 
C 80 40 0 
C 100 40 0 
C 0 60 0 
C 20 60 0 
C 40 60 0 
C 60 60 0 
C 80 60 0 
C 100 60 0 
C 0 80 0 
C 20 80 0 
C 40 80 0 
C 60 80 0 
C 80 80 0 
C 100 80 0 
C 0 100 0 
C 20 100 0 
C 40 100 0 
C 60 100 0 
C 80 100 0 
C 100 100 0 
O 12 87 0 
O 0 72 0 
O 48 92 0 
O 3 57 0 
O 26 3 0 
O 99 21 0 
O 99 18 0 
O 20 67 0 
O 3 4 0 
O 4 68 0 
O 5 7 0 
O 78 99 0 
O 2 6 0 
O 79 71 0 
O 98 87 0 
O 38 0 0 
O 49 0 0 
O 15 79 0 
O 92 0 0 
O 99 26 0 
O 5 0 0 
O 28 0 0 
O 36 17 0 
O 10 81 0 
O 18 65 0 
O 22 5 0 
O 9 61 0 
O 1 19 0 
O 8 82 0 
O 11 60 0 
O 22 0 0 
O 43 57 0 
O 99 69 0 
O 47 99 0 
O 99 29 0 
O 23 99 0 
O 98 0 0 
O 9 38 0 
O 14 4 0 
O 11 63 0 
O 0 7 0 
O 41 99 0 
O 3 65 0 
O 69 62 0 
O 99 1 0 
O 99 58 0 
O 33 0 0 
O 99 99 0 
O 25 66 0 
O 96 4 0 
O 48 0 0 
O 85 66 0 
O 82 86 0 
O 21 12 0 
585
Atoms. Timestep: 16
N 14 60 0 
N 85 87 0 
N 25 39 0 
N 47 80 0 
N 24 96 0 
N 23 96 0 
N 50 97 0 
N 52 97 0 
N 93 4 0 
N 38 45 0 
N 78 85 0 
N 0 53 0 
N 87 43 0 
N 57 65 0 
N 73 48 0 
N 33 70 0 
N 99 66 0 
N 47 5 0 
N 13 60 0 
N 3 2 0 
N 10 11 0 
N 73 86 0 
N 73 13 0 
N 4 7 0 
N 99 19 0 
N 42 14 0 
N 42 43 0 
N 85 34 0 
N 75 73 0 
N 94 7 0 
N 4 81 0 
N 51 10 0 
N 56 70 0 
N 8 46 0 
N 49 98 0 
N 49 74 0 
N 50 66 0 
N 43 54 0 
N 2 76 0 
N 45 81 0 
N 98 1 0 
N 51 55 0 
N 76 75 0 
N 81 28 0 
N 21 67 0 
N 94 88 0 
N 57 18 0 
N 41 7 0 
N 85 29 0 
N 18 79 0 
N 64 27 0 
N 32 33 0 
N 96 21 0 
N 9 46 0 
N 53 26 0 
N 21 22 0 
N 83 90 0 
N 86 69 0 
N 31 97 0 
N 91 34 0 
N 48 82 0 
N 78 94 0 
N 74 95 0 
N 36 17 0 
N 28 68 0 
N 5 19 0 
N 1 53 0 
N 63 1 0 
N 67 48 0 
N 94 1 0 
N 17 87 0 
N 82 72 0 
N 82 86 0 
N 6 7 0 
N 67 86 0 
N 86 31 0 
N 17 39 0 
N 15 89 0 
N 24 99 0 
N 16 35 0 
N 89 46 0 
N 10 10 0 
N 75 87 0 
N 29 98 0 
N 48 91 0 
N 30 72 0 
N 98 30 0 
N 46 89 0 
N 36 14 0 
N 27 3 0 
N 84 64 0 
N 65 72 0 
N 2 21 0 
N 45 88 0 
N 85 32 0 
N 21 21 0 
N 14 89 0 
N 38 95 0 
N 43 45 0 
N 9 83 0 
N 14 87 0 
N 95 30 0 
N 58 26 0 
N 23 37 0 
N 77 99 0 
N 5 87 0 
N 96 34 0 
N 84 31 0 
N 95 48 0 
N 12 61 0 
N 85 69 0 
N 99 26 0 
N 57 40 0 
N 85 65 0 
N 10 8 0 
N 3 99 0 
N 48 89 0 
N 59 16 0 
N 55 91 0 
N 82 64 0 
N 95 68 0 
N 88 48 0 
N 99 30 0 
N 35 16 0 
N 83 63 0 
N 84 85 0 
N 86 29 0 
N 14 97 0 
N 86 88 0 
N 26 66 0 
N 14 99 0 
N 66 30 0 
N 72 13 0 
N 99 3 0 
N 60 37 0 
N 37 85 0 
N 48 87 0 
N 39 20 0 
N 76 93 0 
N 5 13 0 
N 5 89 0 
N 57 26 0 
N 58 14 0 
N 68 24 0 
N 43 14 0 
N 50 36 0 
N 22 67 0 
N 49 93 0 
N 90 93 0 
N 73 20 0 
N 92 92 0 
N 84 92 0 
N 22 39 0 
N 69 48 0 
N 1 72 0 
N 44 56 0 
N 77 74 0 
N 22 95 0 
N 42 9 0 
N 27 65 0 
N 88 64 0 
N 82 89 0 
N 89 21 0 
N 67 69 0 
N 64 49 0 
N 31 39 0 
N 1 79 0 
N 41 4 0 
N 50 92 0 
N 79 69 0 
N 38 97 0 
N 59 27 0 
N 21 39 0 
N 77 34 0 
N 77 95 0 
N 40 56 0 
N 58 19 0 
N 65 41 0 
N 19 37 0 
N 79 66 0 
N 82 39 0 
N 47 65 0 
N 48 73 0 
N 15 78 0 
N 13 11 0 
N 56 41 0 
N 74 78 0 
N 53 43 0 
N 70 64 0 
N 88 33 0 
N 14 61 0 
N 92 21 0 
N 25 46 0 
N 86 26 0 
N 69 87 0 
N 8 84 0 
N 41 13 0 
N 71 50 0 
N 99 58 0 
N 26 49 0 
N 69 86 0 
N 85 31 0 
N 10 39 0 
N 7 21 0 
N 76 99 0 
N 38 10 0 
N 70 62 0 
N 58 27 0 
N 6 41 0 
N 53 96 0 
N 49 65 0 
N 22 8 0 
N 52 6 0 
N 55 94 0 
N 86 84 0 
N 22 4 0 
N 25 47 0 
N 90 35 0 
N 42 71 0 
N 5 10 0 
N 28 98 0 
N 92 1 0 
N 76 9 0 
N 90 33 0 
N 0 26 0 
N 11 40 0 
N 10 65 0 
N 89 29 0 
N 4 39 0 
N 59 67 0 
N 21 25 0 
N 36 18 0 
N 34 70 0 
N 21 27 0 
N 9 41 0 
N 23 39 0 
N 68 8 0 
N 65 49 0 
N 30 39 0 
N 6 13 0 
N 3 3 0 
N 60 29 0 
N 63 92 0 
N 28 99 0 
N 40 11 0 
N 77 17 0 
N 20 71 0 
N 84 72 0 
N 63 20 0 
N 22 20 0 
N 61 18 0 
N 34 68 0 
N 34 27 0 
N 38 17 0 
N 38 20 0 
N 83 60 0 
N 76 73 0 
N 84 26 0 
N 45 51 0 
N 90 5 0 
N 42 7 0 
N 16 37 0 
N 44 40 0 
N 63 51 0 
N 48 75 0 
N 48 74 0 
N 4 58 0 
N 6 70 0 
N 35 70 0 
N 59 65 0 
N 39 24 0 
N 68 5 0 
N 54 69 0 
N 70 59 0 
N 69 67 0 
N 74 62 0 
N 62 50 0 
N 51 65 0 
N 10 40 0 
N 55 20 0 
N 60 42 0 
N 5 39 0 
N 52 98 0 
N 82 60 0 
N 78 37 0 
N 97 21 0 
N 45 43 0 
N 4 98 0 
N 46 66 0 
N 56 21 0 
N 64 19 0 
N 37 52 0 
N 78 10 0 
N 51 96 0 
N 40 52 0 
N 96 47 0 
N 6 98 0 
N 43 73 0 
N 66 24 0 
N 60 97 0 
N 82 91 0 
N 16 87 0 
N 15 88 0 
N 6 1 0 
N 25 49 0 
N 97 66 0 
N 45 47 0 
N 54 65 0 
N 44 70 0 
N 68 50 0 
N 22 16 0 
N 74 88 0 
N 36 19 0 
N 92 26 0 
N 48 76 0 
N 43 48 0 
N 84 40 0 
N 77 86 0 
N 10 42 0 
N 21 17 0 
N 56 28 0 
N 99 52 0 
N 3 58 0 
N 1 86 0 
N 67 22 0 
N 37 51 0 
N 45 55 0 
N 24 38 0 
N 0 69 0 
N 85 38 0 
N 3 53 0 
N 20 61 0 
N 13 87 0 
N 24 64 0 
N 11 81 0 
N 65 50 0 
N 64 26 0 
N 11 53 0 
N 71 75 0 
N 82 88 0 
N 51 92 0 
N 21 60 0 
N 79 63 0 
N 4 42 0 
N 5 68 0 
N 23 67 0 
N 49 12 0 
N 39 29 0 
N 50 3 0 
N 19 62 0 
N 94 4 0 
N 23 41 0 
N 52 65 0 
N 85 90 0 
N 19 55 0 
N 79 67 0 
N 44 49 0 
N 98 94 0 
N 96 73 0 
N 74 12 0 
N 1 66 0 
N 90 29 0 
N 79 87 0 
N 56 65 0 
N 94 46 0 
N 6 40 0 
N 97 74 0 
N 64 5 0 
N 47 92 0 
N 64 40 0 
N 19 59 0 
N 96 87 0 
N 43 57 0 
N 97 87 0 
N 56 42 0 
N 76 14 0 
N 10 36 0 
N 65 42 0 
N 83 41 0 
N 44 66 0 
N 36 41 0 
N 49 66 0 
N 39 55 0 
N 71 71 0 
N 67 51 0 
N 41 74 0 
N 42 12 0 
N 78 77 0 
N 76 2 0 
N 13 58 0 
N 92 5 0 
N 60 32 0 
N 2 3 0 
N 58 44 0 
N 12 4 0 
N 94 90 0 
N 26 38 0 
N 43 42 0 
N 9 21 0 
N 67 44 0 
N 34 30 0 
N 98 29 0 
N 21 24 0 
N 14 85 0 
N 29 18 0 
N 84 58 0 
N 26 2 0 
N 32 17 0 
N 46 91 0 
N 73 62 0 
N 86 27 0 
N 1 25 0 
N 43 72 0 
N 6 11 0 
N 39 42 0 
N 96 8 0 
N 55 66 0 
N 8 83 0 
N 66 46 0 
N 43 49 0 
N 21 13 0 
N 59 8 0 
N 75 5 0 
N 23 0 0 
N 44 91 0 
N 60 48 0 
N 96 84 0 
N 25 38 0 
N 33 17 0 
N 4 4 0 
N 33 96 0 
N 88 89 0 
N 68 19 0 
N 0 49 0 
N 89 1 0 
N 55 0 0 
N 91 26 0 
N 4 55 0 
N 9 39 0 
N 84 30 0 
N 43 71 0 
N 3 81 0 
N 96 83 0 
N 66 22 0 
N 59 41 0 
N 56 92 0 
N 64 32 0 
N 42 96 0 
N 15 86 0 
N 25 64 0 
N 90 3 0 
N 1 67 0 
N 54 0 0 
N 78 9 0 
N 34 17 0 
N 2 69 0 
N 96 49 0 
N 37 17 0 
N 70 48 0 
N 27 44 0 
N 1 68 0 
N 52 3 0 
N 75 11 0 
N 77 97 0 
N 52 0 0 
N 41 55 0 
N 72 62 0 
N 10 80 0 
N 64 38 0 
N 69 46 0 
N 12 40 0 
N 56 95 0 
N 97 86 0 
N 87 34 0 
N 32 87 0 
N 96 52 0 
N 41 14 0 
N 21 19 0 
N 78 2 0 
N 66 49 0 
N 53 91 0 
N 13 4 0 
N 16 77 0 
N 80 86 0 
N 73 9 0 
N 78 6 0 
N 59 21 0 
N 93 0 0 
N 20 37 0 
N 43 44 0 
N 66 14 0 
N 70 65 0 
N 19 87 0 
N 84 65 0 
N 88 88 0 
N 78 71 0 
N 5 8 0 
N 44 43 0 
N 23 95 0 
N 94 48 0 
C 0 0 0 
C 20 0 0 
C 40 0 0 
C 60 0 0 
C 80 0 0 
C 100 0 0 
C 0 20 0 
C 20 20 0 
C 40 20 0 
C 60 20 0 
C 80 20 0 
C 100 20 0 
C 0 40 0 
C 20 40 0 
C 40 40 0 
C 60 40 0 
C 80 40 0 
C 100 40 0 
C 0 60 0 
C 20 60 0 
C 40 60 0 
C 60 60 0 
C 80 60 0 
C 100 60 0 
C 0 80 0 
C 20 80 0 
C 40 80 0 
C 60 80 0 
C 80 80 0 
C 100 80 0 
C 0 100 0 
C 20 100 0 
C 40 100 0 
C 60 100 0 
C 80 100 0 
C 100 100 0 
O 11 87 0 
O 99 72 0 
O 49 92 0 
O 3 56 0 
O 26 3 0 
O 0 21 0 
O 0 18 0 
O 19 67 0 
O 3 5 0 
O 4 69 0 
O 5 6 0 
O 78 0 0 
O 2 5 0 
O 80 71 0 
O 99 87 0 
O 38 99 0 
O 48 0 0 
O 15 80 0 
O 92 99 0 
O 6 0 0 
O 29 0 0 
O 9 81 0 
O 18 66 0 
O 23 5 0 
O 9 62 0 
O 0 19 0 
O 7 82 0 
O 10 60 0 
O 21 0 0 
O 99 70 0 
O 48 99 0 
O 0 29 0 
O 22 99 0 
O 98 99 0 
O 9 37 0 
O 14 3 0 
O 11 62 0 
O 99 7 0 
O 42 99 0 
O 3 64 0 
O 68 62 0 
O 99 0 0 
O 32 0 0 
O 0 99 0 
O 25 65 0 
O 96 3 0 
O 47 0 0 
O 85 67 0 
O 21 11 0 
581
Atoms. Timestep: 17
N 13 60 0 
N 85 87 0 
N 24 39 0 
N 46 80 0 
N 23 96 0 
N 23 97 0 
N 49 97 0 
N 51 97 0 
N 94 4 0 
N 38 46 0 
N 78 84 0 
N 1 53 0 
N 86 43 0 
N 58 65 0 
N 72 48 0 
N 33 69 0 
N 99 67 0 
N 47 4 0 
N 12 60 0 
N 3 2 0 
N 9 11 0 
N 73 87 0 
N 74 13 0 
N 4 6 0 
N 98 19 0 
N 42 15 0 
N 41 43 0 
N 85 33 0 
N 76 73 0 
N 95 7 0 
N 4 82 0 
N 50 10 0 
N 56 69 0 
N 9 46 0 
N 49 99 0 
N 49 75 0 
N 49 66 0 
N 42 54 0 
N 2 75 0 
N 45 82 0 
N 98 2 0 
N 50 55 0 
N 77 75 0 
N 80 28 0 
N 20 67 0 
N 95 88 0 
N 56 18 0 
N 41 6 0 
N 85 29 0 
N 17 79 0 
N 64 28 0 
N 32 32 0 
N 95 21 0 
N 9 45 0 
N 53 25 0 
N 21 21 0 
N 82 90 0 
N 86 68 0 
N 32 97 0 
N 91 33 0 
N 48 83 0 
N 78 93 0 
N 74 94 0 
N 36 18 0 
N 27 68 0 
N 4 19 0 
N 1 54 0 
N 64 1 0 
N 67 49 0 
N 94 2 0 
N 17 86 0 
N 81 72 0 
N 81 86 0 
N 6 6 0 
N 66 86 0 
N 86 30 0 
N 16 39 0 
N 15 88 0 
N 23 99 0 
N 15 35 0 
N 89 47 0 
N 10 9 0 
N 76 87 0 
N 29 97 0 
N 48 91 0 
N 30 71 0 
N 98 29 0 
N 47 89 0 
N 37 14 0 
N 28 3 0 
N 85 64 0 
N 65 71 0 
N 1 21 0 
N 46 88 0 
N 85 31 0 
N 21 20 0 
N 13 89 0 
N 38 96 0 
N 43 44 0 
N 9 82 0 
N 13 87 0 
N 95 29 0 
N 58 25 0 
N 22 37 0 
N 78 99 0 
N 6 87 0 
N 96 33 0 
N 83 31 0 
N 94 48 0 
N 12 62 0 
N 85 68 0 
N 99 27 0 
N 58 40 0 
N 85 66 0 
N 9 8 0 
N 2 99 0 
N 48 90 0 
N 60 16 0 
N 54 91 0 
N 82 65 0 
N 95 69 0 
N 87 48 0 
N 99 29 0 
N 35 15 0 
N 84 63 0 
N 85 85 0 
N 86 29 0 
N 14 96 0 
N 86 87 0 
N 25 66 0 
N 14 98 0 
N 66 31 0 
N 72 12 0 
N 99 2 0 
N 60 36 0 
N 37 86 0 
N 48 88 0 
N 38 20 0 
N 76 92 0 
N 5 12 0 
N 6 89 0 
N 57 25 0 
N 58 15 0 
N 68 23 0 
N 43 15 0 
N 51 36 0 
N 22 67 0 
N 49 94 0 
N 90 94 0 
N 72 20 0 
N 92 93 0 
N 83 92 0 
N 21 39 0 
N 70 48 0 
N 2 72 0 
N 43 56 0 
N 77 73 0 
N 22 96 0 
N 42 10 0 
N 27 66 0 
N 87 64 0 
N 82 88 0 
N 88 21 0 
N 68 69 0 
N 65 49 0 
N 32 39 0 
N 1 78 0 
N 41 5 0 
N 49 92 0 
N 79 70 0 
N 38 98 0 
N 58 27 0 
N 20 39 0 
N 76 34 0 
N 78 95 0 
N 40 57 0 
N 58 18 0 
N 65 40 0 
N 18 37 0 
N 79 67 0 
N 82 40 0 
N 47 66 0 
N 49 73 0 
N 15 79 0 
N 14 11 0 
N 55 41 0 
N 74 77 0 
N 53 42 0 
N 70 63 0 
N 88 32 0 
N 13 61 0 
N 91 21 0 
N 26 46 0 
N 86 27 0 
N 70 87 0 
N 7 84 0 
N 41 14 0 
N 71 51 0 
N 98 58 0 
N 26 50 0 
N 69 85 0 
N 85 30 0 
N 10 38 0 
N 7 20 0 
N 76 98 0 
N 38 11 0 
N 69 62 0 
N 58 28 0 
N 7 41 0 
N 53 95 0 
N 49 64 0 
N 23 8 0 
N 51 6 0 
N 55 93 0 
N 86 85 0 
N 22 5 0 
N 26 47 0 
N 90 34 0 
N 42 70 0 
N 5 9 0 
N 28 97 0 
N 92 2 0 
N 77 9 0 
N 89 33 0 
N 0 27 0 
N 11 39 0 
N 9 65 0 
N 88 29 0 
N 4 38 0 
N 60 67 0 
N 21 24 0 
N 36 19 0 
N 34 69 0 
N 21 26 0 
N 9 41 0 
N 23 39 0 
N 69 8 0 
N 66 49 0 
N 30 40 0 
N 6 12 0 
N 3 3 0 
N 60 30 0 
N 62 92 0 
N 29 99 0 
N 40 12 0 
N 78 17 0 
N 20 70 0 
N 83 72 0 
N 63 19 0 
N 22 19 0 
N 61 19 0 
N 34 67 0 
N 34 28 0 
N 38 18 0 
N 38 21 0 
N 84 60 0 
N 76 72 0 
N 83 26 0 
N 45 50 0 
N 90 6 0 
N 42 8 0 
N 15 37 0 
N 44 41 0 
N 64 51 0 
N 48 76 0 
N 48 74 0 
N 3 58 0 
N 5 70 0 
N 35 69 0 
N 59 64 0 
N 40 24 0 
N 68 4 0 
N 53 69 0 
N 69 59 0 
N 68 67 0 
N 73 62 0 
N 63 50 0 
N 51 64 0 
N 9 40 0 
N 55 19 0 
N 59 42 0 
N 5 38 0 
N 52 99 0 
N 82 61 0 
N 78 36 0 
N 97 21 0 
N 45 44 0 
N 4 99 0 
N 46 65 0 
N 55 21 0 
N 64 20 0 
N 36 52 0 
N 78 9 0 
N 51 95 0 
N 41 52 0 
N 96 48 0 
N 5 98 0 
N 42 73 0 
N 66 25 0 
N 60 98 0 
N 81 91 0 
N 16 87 0 
N 14 88 0 
N 6 0 0 
N 25 48 0 
N 97 67 0 
N 45 48 0 
N 54 64 0 
N 44 71 0 
N 68 51 0 
N 22 15 0 
N 75 88 0 
N 36 20 0 
N 92 27 0 
N 48 77 0 
N 43 47 0 
N 85 40 0 
N 78 86 0 
N 9 42 0 
N 21 16 0 
N 56 29 0 
N 98 52 0 
N 3 57 0 
N 2 86 0 
N 68 22 0 
N 36 51 0 
N 45 56 0 
N 23 38 0 
N 0 70 0 
N 84 38 0 
N 3 54 0 
N 20 62 0 
N 12 87 0 
N 24 65 0 
N 11 81 0 
N 65 51 0 
N 63 26 0 
N 10 53 0 
N 71 74 0 
N 82 87 0 
N 51 92 0 
N 21 61 0 
N 79 64 0 
N 4 41 0 
N 5 67 0 
N 23 67 0 
N 48 12 0 
N 39 28 0 
N 49 3 0 
N 19 63 0 
N 94 3 0 
N 22 41 0 
N 53 65 0 
N 86 90 0 
N 19 56 0 
N 80 67 0 
N 45 49 0 
N 98 95 0 
N 96 72 0 
N 74 11 0 
N 1 65 0 
N 90 29 0 
N 78 87 0 
N 56 64 0 
N 93 46 0 
N 6 39 0 
N 98 74 0 
N 64 4 0 
N 48 92 0 
N 64 39 0 
N 19 60 0 
N 97 87 0 
N 42 57 0 
N 98 87 0 
N 55 42 0 
N 76 13 0 
N 10 37 0 
N 66 42 0 
N 84 41 0 
N 44 67 0 
N 36 40 0 
N 48 66 0 
N 39 56 0 
N 72 71 0 
N 67 52 0 
N 41 75 0 
N 42 13 0 
N 78 76 0 
N 76 1 0 
N 13 59 0 
N 92 6 0 
N 59 32 0 
N 2 4 0 
N 59 44 0 
N 12 3 0 
N 94 89 0 
N 25 38 0 
N 42 42 0 
N 8 21 0 
N 67 45 0 
N 35 30 0 
N 97 29 0 
N 21 23 0 
N 14 86 0 
N 28 18 0 
N 84 59 0 
N 26 3 0 
N 32 16 0 
N 46 92 0 
N 72 62 0 
N 85 27 0 
N 1 24 0 
N 44 72 0 
N 6 10 0 
N 39 43 0 
N 96 7 0 
N 55 65 0 
N 7 83 0 
N 67 46 0 
N 42 49 0 
N 21 12 0 
N 58 8 0 
N 76 5 0 
N 22 0 0 
N 45 91 0 
N 61 48 0 
N 97 84 0 
N 25 37 0 
N 33 16 0 
N 3 4 0 
N 33 95 0 
N 88 88 0 
N 67 19 0 
N 0 50 0 
N 90 1 0 
N 54 0 0 
N 90 26 0 
N 4 56 0 
N 9 38 0 
N 84 29 0 
N 43 70 0 
N 3 82 0 
N 97 83 0 
N 66 21 0 
N 60 41 0 
N 55 92 0 
N 63 32 0 
N 42 97 0 
N 15 87 0 
N 25 65 0 
N 90 4 0 
N 1 68 0 
N 53 0 0 
N 78 8 0 
N 34 16 0 
N 3 69 0 
N 96 50 0 
N 37 18 0 
N 70 49 0 
N 28 44 0 
N 1 69 0 
N 51 3 0 
N 76 11 0 
N 77 96 0 
N 51 0 0 
N 41 54 0 
N 71 62 0 
N 10 81 0 
N 64 37 0 
N 68 46 0 
N 12 39 0 
N 56 94 0 
N 98 86 0 
N 88 34 0 
N 32 86 0 
N 95 52 0 
N 41 15 0 
N 21 18 0 
N 78 1 0 
N 66 50 0 
N 52 91 0 
N 13 3 0 
N 16 78 0 
N 80 85 0 
N 73 8 0 
N 78 5 0 
N 59 22 0 
N 93 1 0 
N 20 37 0 
N 42 44 0 
N 66 15 0 
N 69 65 0 
N 18 87 0 
N 84 66 0 
N 89 88 0 
N 79 71 0 
N 5 7 0 
N 44 44 0 
N 23 95 0 
N 94 49 0 
C 0 0 0 
C 20 0 0 
C 40 0 0 
C 60 0 0 
C 80 0 0 
C 100 0 0 
C 0 20 0 
C 20 20 0 
C 40 20 0 
C 60 20 0 
C 80 20 0 
C 100 20 0 
C 0 40 0 
C 20 40 0 
C 40 40 0 
C 60 40 0 
C 80 40 0 
C 100 40 0 
C 0 60 0 
C 20 60 0 
C 40 60 0 
C 60 60 0 
C 80 60 0 
C 100 60 0 
C 0 80 0 
C 20 80 0 
C 40 80 0 
C 60 80 0 
C 80 80 0 
C 100 80 0 
C 0 100 0 
C 20 100 0 
C 40 100 0 
C 60 100 0 
C 80 100 0 
C 100 100 0 
O 10 87 0 
O 0 72 0 
O 2 56 0 
O 99 21 0 
O 99 18 0 
O 19 66 0 
O 2 5 0 
O 4 68 0 
O 5 5 0 
O 79 0 0 
O 1 5 0 
O 81 71 0 
O 0 87 0 
O 37 99 0 
O 48 99 0 
O 14 80 0 
O 92 0 0 
O 28 0 0 
O 8 81 0 
O 18 67 0 
O 24 5 0 
O 9 61 0 
O 99 19 0 
O 8 82 0 
O 9 60 0 
O 21 0 0 
O 99 71 0 
O 47 99 0 
O 0 28 0 
O 21 99 0 
O 98 0 0 
O 8 37 0 
O 14 2 0 
O 11 63 0 
O 0 7 0 
O 41 99 0 
O 3 63 0 
O 68 63 0 
O 99 0 0 
O 32 99 0 
O 99 99 0 
O 96 2 0 
O 46 0 0 
O 86 67 0 
O 22 11 0 
573
Atoms. Timestep: 18
N 12 60 0 
N 84 87 0 
N 23 39 0 
N 46 81 0 
N 23 97 0 
N 22 97 0 
N 49 98 0 
N 50 97 0 
N 95 4 0 
N 37 46 0 
N 78 83 0 
N 2 53 0 
N 87 43 0 
N 59 65 0 
N 71 48 0 
N 32 69 0 
N 99 68 0 
N 47 5 0 
N 11 60 0 
N 3 3 0 
N 8 11 0 
N 74 87 0 
N 74 12 0 
N 4 5 0 
N 99 19 0 
N 42 16 0 
N 41 42 0 
N 85 34 0 
N 76 72 0 
N 94 7 0 
N 5 82 0 
N 49 10 0 
N 57 69 0 
N 8 46 0 
N 48 99 0 
N 49 76 0 
N 49 65 0 
N 42 53 0 
N 2 74 0 
N 46 82 0 
N 98 1 0 
N 50 56 0 
N 76 75 0 
N 79 28 0 
N 19 67 0 
N 95 87 0 
N 57 18 0 
N 41 7 0 
N 85 30 0 
N 17 80 0 
N 64 29 0 
N 32 31 0 
N 96 21 0 
N 9 44 0 
N 53 26 0 
N 21 20 0 
N 82 89 0 
N 86 67 0 
N 32 98 0 
N 92 33 0 
N 48 84 0 
N 79 93 0 
N 75 94 0 
N 36 19 0 
N 26 68 0 
N 5 19 0 
N 1 55 0 
N 64 0 0 
N 67 50 0 
N 95 2 0 
N 17 86 0 
N 81 71 0 
N 81 86 0 
N 6 7 0 
N 65 86 0 
N 86 29 0 
N 15 39 0 
N 15 87 0 
N 22 99 0 
N 14 35 0 
N 88 47 0 
N 10 8 0 
N 77 87 0 
N 28 97 0 
N 48 91 0 
N 30 70 0 
N 98 28 0 
N 47 90 0 
N 37 15 0 
N 28 2 0 
N 85 65 0 
N 66 71 0 
N 2 21 0 
N 47 88 0 
N 85 32 0 
N 21 19 0 
N 12 89 0 
N 38 97 0 
N 43 43 0 
N 8 82 0 
N 12 87 0 
N 95 28 0 
N 58 24 0 
N 21 37 0 
N 78 98 0 
N 7 87 0 
N 96 32 0 
N 82 31 0 
N 94 49 0 
N 11 62 0 
N 85 67 0 
N 99 26 0 
N 58 41 0 
N 86 66 0 
N 9 7 0 
N 3 99 0 
N 48 90 0 
N 60 17 0 
N 53 91 0 
N 83 65 0 
N 95 70 0 
N 87 49 0 
N 99 28 0 
N 35 14 0 
N 85 63 0 
N 84 85 0 
N 86 28 0 
N 14 95 0 
N 86 87 0 
N 25 66 0 
N 14 97 0 
N 66 30 0 
N 73 12 0 
N 99 1 0 
N 60 37 0 
N 37 87 0 
N 48 89 0 
N 38 19 0 
N 77 92 0 
N 5 11 0 
N 6 88 0 
N 57 26 0 
N 58 16 0 
N 69 23 0 
N 43 16 0 
N 52 36 0 
N 21 67 0 
N 48 94 0 
N 91 94 0 
N 73 20 0 
N 92 92 0 
N 83 91 0 
N 20 39 0 
N 69 48 0 
N 1 72 0 
N 42 56 0 
N 78 73 0 
N 21 96 0 
N 41 10 0 
N 26 66 0 
N 86 64 0 
N 83 88 0 
N 89 21 0 
N 68 68 0 
N 66 49 0 
N 32 40 0 
N 0 78 0 
N 41 5 0 
N 48 92 0 
N 79 71 0 
N 37 98 0 
N 58 28 0 
N 20 38 0 
N 76 33 0 
N 78 96 0 
N 39 57 0 
N 59 18 0 
N 65 39 0 
N 17 37 0 
N 80 67 0 
N 81 40 0 
N 47 67 0 
N 48 73 0 
N 14 79 0 
N 15 11 0 
N 54 41 0 
N 75 77 0 
N 54 42 0 
N 69 63 0 
N 89 32 0 
N 12 61 0 
N 92 21 0 
N 26 47 0 
N 86 26 0 
N 70 86 0 
N 7 83 0 
N 41 15 0 
N 71 52 0 
N 98 57 0 
N 27 50 0 
N 70 85 0 
N 84 30 0 
N 10 37 0 
N 7 21 0 
N 77 98 0 
N 38 12 0 
N 68 62 0 
N 58 29 0 
N 7 40 0 
N 53 96 0 
N 49 63 0 
N 24 8 0 
N 50 6 0 
N 54 93 0 
N 86 86 0 
N 23 5 0 
N 27 47 0 
N 89 34 0 
N 42 69 0 
N 5 8 0 
N 28 96 0 
N 92 2 0 
N 77 8 0 
N 88 33 0 
N 0 28 0 
N 11 38 0 
N 9 64 0 
N 87 29 0 
N 4 37 0 
N 60 66 0 
N 22 24 0 
N 35 19 0 
N 34 68 0 
N 22 26 0 
N 8 41 0 
N 22 39 0 
N 69 7 0 
N 66 50 0 
N 29 40 0 
N 6 11 0 
N 4 3 0 
N 60 29 0 
N 62 91 0 
N 28 99 0 
N 40 13 0 
N 79 17 0 
N 20 69 0 
N 83 71 0 
N 62 19 0 
N 22 19 0 
N 61 18 0 
N 33 67 0 
N 33 28 0 
N 37 18 0 
N 39 21 0 
N 84 61 0 
N 77 72 0 
N 82 26 0 
N 44 50 0 
N 91 6 0 
N 42 9 0 
N 14 37 0 
N 43 41 0 
N 64 52 0 
N 48 77 0 
N 49 74 0 
N 3 57 0 
N 5 69 0 
N 35 68 0 
N 59 63 0 
N 39 24 0 
N 69 4 0 
N 53 70 0 
N 68 59 0 
N 68 66 0 
N 72 62 0 
N 63 51 0 
N 51 63 0 
N 9 39 0 
N 56 19 0 
N 58 42 0 
N 5 37 0 
N 51 99 0 
N 83 61 0 
N 77 36 0 
N 98 21 0 
N 44 44 0 
N 5 99 0 
N 45 65 0 
N 55 22 0 
N 64 19 0 
N 36 53 0 
N 78 8 0 
N 50 95 0 
N 40 52 0 
N 96 49 0 
N 5 97 0 
N 43 73 0 
N 65 25 0 
N 60 99 0 
N 80 91 0 
N 16 86 0 
N 13 88 0 
N 5 0 0 
N 24 48 0 
N 97 68 0 
N 45 47 0 
N 54 63 0 
N 45 71 0 
N 68 51 0 
N 22 14 0 
N 75 87 0 
N 35 20 0 
N 92 28 0 
N 47 77 0 
N 43 46 0 
N 85 39 0 
N 79 86 0 
N 8 42 0 
N 22 16 0 
N 55 29 0 
N 97 52 0 
N 2 57 0 
N 2 87 0 
N 67 22 0 
N 37 51 0 
N 45 55 0 
N 24 38 0 
N 0 71 0 
N 83 38 0 
N 2 54 0 
N 20 63 0 
N 11 87 0 
N 24 66 0 
N 10 81 0 
N 65 52 0 
N 64 26 0 
N 10 54 0 
N 71 73 0 
N 81 87 0 
N 50 92 0 
N 21 62 0 
N 79 65 0 
N 4 40 0 
N 4 67 0 
N 23 66 0 
N 48 13 0 
N 38 28 0 
N 49 4 0 
N 19 64 0 
N 95 3 0 
N 22 40 0 
N 54 65 0 
N 87 90 0 
N 19 57 0 
N 80 68 0 
N 46 49 0 
N 98 94 0 
N 95 72 0 
N 74 10 0 
N 1 64 0 
N 89 29 0 
N 79 87 0 
N 56 63 0 
N 92 46 0 
N 7 39 0 
N 97 74 0 
N 65 4 0 
N 48 93 0 
N 64 40 0 
N 19 61 0 
N 96 87 0 
N 42 58 0 
N 98 87 0 
N 55 43 0 
N 77 13 0 
N 9 37 0 
N 67 42 0 
N 84 40 0 
N 43 67 0 
N 35 40 0 
N 48 67 0 
N 39 55 0 
N 73 71 0 
N 68 52 0 
N 41 76 0 
N 41 13 0 
N 79 76 0 
N 76 0 0 
N 12 59 0 
N 92 5 0 
N 60 32 0 
N 2 5 0 
N 59 43 0 
N 13 3 0 
N 94 88 0 
N 25 37 0 
N 43 42 0 
N 9 21 0 
N 67 46 0 
N 35 29 0 
N 96 29 0 
N 22 23 0 
N 13 86 0 
N 27 18 0 
N 85 59 0 
N 26 4 0 
N 32 15 0 
N 46 93 0 
N 72 63 0 
N 84 27 0 
N 2 24 0 
N 45 72 0 
N 5 10 0 
N 40 43 0 
N 96 7 0 
N 55 64 0 
N 7 82 0 
N 67 47 0 
N 42 50 0 
N 22 12 0 
N 57 8 0 
N 76 4 0 
N 21 0 0 
N 46 91 0 
N 61 49 0 
N 96 84 0 
N 24 37 0 
N 33 15 0 
N 3 5 0 
N 32 95 0 
N 87 88 0 
N 66 19 0 
N 0 51 0 
N 90 0 0 
N 54 1 0 
N 90 27 0 
N 3 56 0 
N 8 38 0 
N 83 29 0 
N 43 71 0 
N 3 82 0 
N 96 83 0 
N 67 21 0 
N 60 42 0 
N 54 92 0 
N 62 32 0 
N 41 97 0 
N 14 87 0 
N 25 65 0 
N 91 4 0 
N 2 68 0 
N 53 1 0 
N 78 7 0 
N 34 15 0 
N 3 68 0 
N 96 51 0 
N 37 19 0 
N 69 49 0 
N 28 43 0 
N 1 70 0 
N 51 4 0 
N 77 11 0 
N 77 95 0 
N 50 0 0 
N 41 55 0 
N 70 62 0 
N 9 81 0 
N 64 38 0 
N 68 47 0 
N 12 38 0 
N 55 94 0 
N 97 86 0 
N 87 34 0 
N 32 87 0 
N 94 52 0 
N 41 16 0 
N 22 18 0 
N 78 0 0 
N 66 51 0 
N 51 91 0 
N 14 3 0 
N 16 79 0 
N 81 85 0 
N 73 7 0 
N 79 5 0 
N 60 22 0 
N 92 1 0 
N 19 37 0 
N 41 44 0 
N 66 14 0 
N 69 64 0 
N 17 87 0 
N 84 67 0 
N 89 87 0 
N 80 71 0 
N 5 6 0 
N 44 43 0 
N 22 95 0 
N 93 49 0 
C 0 0 0 
C 20 0 0 
C 40 0 0 
C 60 0 0 
C 80 0 0 
C 100 0 0 
C 0 20 0 
C 20 20 0 
C 40 20 0 
C 60 20 0 
C 80 20 0 
C 100 20 0 
C 0 40 0 
C 20 40 0 
C 40 40 0 
C 60 40 0 
C 80 40 0 
C 100 40 0 
C 0 60 0 
C 20 60 0 
C 40 60 0 
C 60 60 0 
C 80 60 0 
C 100 60 0 
C 0 80 0 
C 20 80 0 
C 40 80 0 
C 60 80 0 
C 80 80 0 
C 100 80 0 
C 0 100 0 
C 20 100 0 
C 40 100 0 
C 60 100 0 
C 80 100 0 
C 100 100 0 
O 10 88 0 
O 0 72 0 
O 1 56 0 
O 99 20 0 
O 0 18 0 
O 19 65 0 
O 4 68 0 
O 5 4 0 
O 79 1 0 
O 0 5 0 
O 0 88 0 
O 37 0 0 
O 14 81 0 
O 93 0 0 
O 27 0 0 
O 7 81 0 
O 18 66 0 
O 24 6 0 
O 8 61 0 
O 10 60 0 
O 99 72 0 
O 47 0 0 
O 20 99 0 
O 98 99 0 
O 7 37 0 
O 14 1 0 
O 11 64 0 
O 0 6 0 
O 40 99 0 
O 3 64 0 
O 68 63 0 
O 99 99 0 
O 32 0 0 
O 0 99 0 
O 97 2 0 
O 46 99 0 
O 21 11 0 
565
Atoms. Timestep: 19
N 11 60 0 
N 84 88 0 
N 22 39 0 
N 46 82 0 
N 22 97 0 
N 21 97 0 
N 49 97 0 
N 50 96 0 
N 95 3 0 
N 37 45 0 
N 79 83 0 
N 2 54 0 
N 87 44 0 
N 58 65 0 
N 70 48 0 
N 32 68 0 
N 99 69 0 
N 47 4 0 
N 10 60 0 
N 4 3 0 
N 7 11 0 
N 75 87 0 
N 74 11 0 
N 4 4 0 
N 99 20 0 
N 42 17 0 
N 41 41 0 
N 86 34 0 
N 76 73 0 
N 94 6 0 
N 5 81 0 
N 48 10 0 
N 58 69 0 
N 9 46 0 
N 48 98 0 
N 50 76 0 
N 48 65 0 
N 41 53 0 
N 3 74 0 
N 46 83 0 
N 98 2 0 
N 49 56 0 
N 76 76 0 
N 79 29 0 
N 19 66 0 
N 94 87 0 
N 57 19 0 
N 40 7 0 
N 85 29 0 
N 17 81 0 
N 64 30 0 
N 31 31 0 
N 96 20 0 
N 8 44 0 
N 54 26 0 
N 21 20 0 
N 81 89 0 
N 87 67 0 
N 32 97 0 
N 92 34 0 
N 48 83 0 
N 79 92 0 
N 75 93 0 
N 36 18 0 
N 25 68 0 
N 5 18 0 
N 1 56 0 
N 64 1 0 
N 68 50 0 
N 96 2 0 
N 16 86 0 
N 81 72 0 
N 81 85 0 
N 6 6 0 
N 65 87 0 
N 86 30 0 
N 15 38 0 
N 15 88 0 
N 21 99 0 
N 15 35 0 
N 88 46 0 
N 9 8 0 
N 77 86 0 
N 28 96 0 
N 47 91 0 
N 30 69 0 
N 98 27 0 
N 47 89 0 
N 37 16 0 
N 27 2 0 
N 85 65 0 
N 66 72 0 
N 2 20 0 
N 47 87 0 
N 84 32 0 
N 21 19 0 
N 11 89 0 
N 38 96 0 
N 43 42 0 
N 9 82 0 
N 11 87 0 
N 96 28 0 
N 57 24 0 
N 21 37 0 
N 79 98 0 
N 6 87 0 
N 96 31 0 
N 81 31 0 
N 93 49 0 
N 11 63 0 
N 85 68 0 
N 99 25 0 
N 57 41 0 
N 87 66 0 
N 8 7 0 
N 2 99 0 
N 48 89 0 
N 59 17 0 
N 53 90 0 
N 84 65 0 
N 96 70 0 
N 86 49 0 
N 99 27 0 
N 35 13 0 
N 84 63 0 
N 83 85 0 
N 85 28 0 
N 14 94 0 
N 85 87 0 
N 24 66 0 
N 13 97 0 
N 65 30 0 
N 73 11 0 
N 99 2 0 
N 60 36 0 
N 37 86 0 
N 48 88 0 
N 38 18 0 
N 78 92 0 
N 5 10 0 
N 7 88 0 
N 56 26 0 
N 57 16 0 
N 68 23 0 
N 43 15 0 
N 52 37 0 
N 21 66 0 
N 47 94 0 
N 92 94 0 
N 72 20 0 
N 92 91 0 
N 82 91 0 
N 20 38 0 
N 69 47 0 
N 2 72 0 
N 41 56 0 
N 78 74 0 
N 20 96 0 
N 40 10 0 
N 26 66 0 
N 85 64 0 
N 82 88 0 
N 90 21 0 
N 69 68 0 
N 66 50 0 
N 32 41 0 
N 1 78 0 
N 41 6 0 
N 47 92 0 
N 78 71 0 
N 37 97 0 
N 57 28 0 
N 20 37 0 
N 76 32 0 
N 78 95 0 
N 39 58 0 
N 59 19 0 
N 65 40 0 
N 16 37 0 
N 81 67 0 
N 81 41 0 
N 48 67 0 
N 48 72 0 
N 14 80 0 
N 16 11 0 
N 55 41 0 
N 76 77 0 
N 55 42 0 
N 69 62 0 
N 88 32 0 
N 11 61 0 
N 92 20 0 
N 27 47 0 
N 87 26 0 
N 71 86 0 
N 7 84 0 
N 41 16 0 
N 71 53 0 
N 98 56 0 
N 27 51 0 
N 70 84 0 
N 84 29 0 
N 10 37 0 
N 7 20 0 
N 77 97 0 
N 38 11 0 
N 68 63 0 
N 59 29 0 
N 7 39 0 
N 52 96 0 
N 50 63 0 
N 24 7 0 
N 49 6 0 
N 54 92 0 
N 85 86 0 
N 23 6 0 
N 27 46 0 
N 90 34 0 
N 43 69 0 
N 5 7 0 
N 28 95 0 
N 93 2 0 
N 77 7 0 
N 88 34 0 
N 0 27 0 
N 10 38 0 
N 10 64 0 
N 87 30 0 
N 5 37 0 
N 60 65 0 
N 22 23 0 
N 35 20 0 
N 34 67 0 
N 21 26 0 
N 8 40 0 
N 22 38 0 
N 70 7 0 
N 66 51 0 
N 29 39 0 
N 6 10 0 
N 5 3 0 
N 60 28 0 
N 62 90 0 
N 27 99 0 
N 40 14 0 
N 79 16 0 
N 20 68 0 
N 84 71 0 
N 61 19 0 
N 22 18 0 
N 61 17 0 
N 32 67 0 
N 33 29 0 
N 37 17 0 
N 39 22 0 
N 83 61 0 
N 77 71 0 
N 81 26 0 
N 43 50 0 
N 92 6 0 
N 41 9 0 
N 13 37 0 
N 42 41 0 
N 64 53 0 
N 47 77 0 
N 49 73 0 
N 3 56 0 
N 5 68 0 
N 35 67 0 
N 60 63 0 
N 40 24 0 
N 70 4 0 
N 54 70 0 
N 68 60 0 
N 68 65 0 
N 71 62 0 
N 63 52 0 
N 52 63 0 
N 9 38 0 
N 56 20 0 
N 59 42 0 
N 6 37 0 
N 51 98 0 
N 82 61 0 
N 77 37 0 
N 98 20 0 
N 44 45 0 
N 5 98 0 
N 45 64 0 
N 54 22 0 
N 64 20 0 
N 35 53 0 
N 78 7 0 
N 50 94 0 
N 40 53 0 
N 96 50 0 
N 5 96 0 
N 43 72 0 
N 65 26 0 
N 60 98 0 
N 80 90 0 
N 16 85 0 
N 12 88 0 
N 5 1 0 
N 24 47 0 
N 97 69 0 
N 45 46 0 
N 54 63 0 
N 45 72 0 
N 68 52 0 
N 21 14 0 
N 76 87 0 
N 35 21 0 
N 92 27 0 
N 47 78 0 
N 42 46 0 
N 85 38 0 
N 79 85 0 
N 7 42 0 
N 21 16 0 
N 54 29 0 
N 97 53 0 
N 1 57 0 
N 1 87 0 
N 67 23 0 
N 36 51 0 
N 44 55 0 
N 23 38 0 
N 0 72 0 
N 84 38 0 
N 1 54 0 
N 20 64 0 
N 11 88 0 
N 23 66 0 
N 11 81 0 
N 65 53 0 
N 63 26 0 
N 10 55 0 
N 70 73 0 
N 80 87 0 
N 49 92 0 
N 21 63 0 
N 79 64 0 
N 4 39 0 
N 4 66 0 
N 22 66 0 
N 48 12 0 
N 37 28 0 
N 48 4 0 
N 19 65 0 
N 96 3 0 
N 21 40 0 
N 54 64 0 
N 87 89 0 
N 19 58 0 
N 79 68 0 
N 46 48 0 
N 98 95 0 
N 96 72 0 
N 75 10 0 
N 2 64 0 
N 90 29 0 
N 79 87 0 
N 56 64 0 
N 91 46 0 
N 7 38 0 
N 98 74 0 
N 66 4 0 
N 47 93 0 
N 63 40 0 
N 19 62 0 
N 96 88 0 
N 42 57 0 
N 97 87 0 
N 56 43 0 
N 77 12 0 
N 9 37 0 
N 67 43 0 
N 85 40 0 
N 42 67 0 
N 35 39 0 
N 48 66 0 
N 38 55 0 
N 72 71 0 
N 68 53 0 
N 42 76 0 
N 41 14 0 
N 78 76 0 
N 76 1 0 
N 11 59 0 
N 93 5 0 
N 59 32 0 
N 1 5 0 
N 59 44 0 
N 14 3 0 
N 93 88 0 
N 24 37 0 
N 44 42 0 
N 10 21 0 
N 68 46 0 
N 35 30 0 
N 97 29 0 
N 21 23 0 
N 13 87 0 
N 27 17 0 
N 84 59 0 
N 25 4 0 
N 32 14 0 
N 46 94 0 
N 71 63 0 
N 85 27 0 
N 3 24 0 
N 46 72 0 
N 5 9 0 
N 39 43 0 
N 95 7 0 
N 55 63 0 
N 7 81 0 
N 67 48 0 
N 41 50 0 
N 22 11 0 
N 57 7 0 
N 77 4 0 
N 21 1 0 
N 46 92 0 
N 60 49 0 
N 96 85 0 
N 23 37 0 
N 33 14 0 
N 3 4 0 
N 32 94 0 
N 86 88 0 
N 66 20 0 
N 0 52 0 
N 91 0 0 
N 53 1 0 
N 90 26 0 
N 2 56 0 
N 8 37 0 
N 83 30 0 
N 43 70 0 
N 4 82 0 
N 96 82 0 
N 67 20 0 
N 61 42 0 
N 54 91 0 
N 63 32 0 
N 42 97 0 
N 14 88 0 
N 24 65 0 
N 92 4 0 
N 3 68 0 
N 52 1 0 
N 79 7 0 
N 34 14 0 
N 4 68 0 
N 96 52 0 
N 37 19 0 
N 69 50 0 
N 28 42 0 
N 0 70 0 
N 51 3 0 
N 78 11 0 
N 77 94 0 
N 49 0 0 
N 42 55 0 
N 70 63 0 
N 8 81 0 
N 64 37 0 
N 68 48 0 
N 12 37 0 
N 55 93 0 
N 96 86 0 
N 87 33 0 
N 32 86 0 
N 93 52 0 
N 41 17 0 
N 21 18 0 
N 79 0 0 
N 66 52 0 
N 50 91 0 
N 14 4 0 
N 16 80 0 
N 80 85 0 
N 74 7 0 
N 79 4 0 
N 59 22 0 
N 92 0 0 
N 18 37 0 
N 41 45 0 
N 67 14 0 
N 68 64 0 
N 16 87 0 
N 84 68 0 
N 88 87 0 
N 80 72 0 
N 5 5 0 
N 45 43 0 
N 22 96 0 
N 92 49 0 
C 0 0 0 
C 20 0 0 
C 40 0 0 
C 60 0 0 
C 80 0 0 
C 100 0 0 
C 0 20 0 
C 20 20 0 
C 40 20 0 
C 60 20 0 
C 80 20 0 
C 100 20 0 
C 0 40 0 
C 20 40 0 
C 40 40 0 
C 60 40 0 
C 80 40 0 
C 100 40 0 
C 0 60 0 
C 20 60 0 
C 40 60 0 
C 60 60 0 
C 80 60 0 
C 100 60 0 
C 0 80 0 
C 20 80 0 
C 40 80 0 
C 60 80 0 
C 80 80 0 
C 100 80 0 
C 0 100 0 
C 20 100 0 
C 40 100 0 
C 60 100 0 
C 80 100 0 
C 100 100 0 
O 10 89 0 
O 99 18 0 
O 5 4 0 
O 80 1 0 
O 99 5 0 
O 0 87 0 
O 37 99 0 
O 13 81 0 
O 93 99 0 
O 26 0 0 
O 18 65 0 
O 24 5 0 
O 7 61 0 
O 99 73 0 
O 47 99 0 
O 19 99 0 
O 97 99 0 
O 7 37 0 
O 15 1 0 
O 12 64 0 
O 99 6 0 
O 39 99 0 
O 3 65 0 
O 99 0 0 
O 31 0 0 
O 0 99 0 
O 97 1 0 
O 46 0 0 
O 21 10 0 
560
Atoms. Timestep: 20
N 11 61 0 
N 83 88 0 
N 23 39 0 
N 46 83 0 
N 21 97 0 
N 20 97 0 
N 49 98 0 
N 49 96 0 
N 96 3 0 
N 36 45 0 
N 80 83 0 
N 3 54 0 
N 87 45 0 
N 58 66 0 
N 71 48 0 
N 32 67 0 
N 99 70 0 
N 47 5 0 
N 9 60 0 
N 5 3 0 
N 8 11 0 
N 76 87 0 
N 75 11 0 
N 4 5 0 
N 99 19 0 
N 41 17 0 
N 40 41 0 
N 86 35 0 
N 76 74 0 
N 95 6 0 
N 6 81 0 
N 48 11 0 
N 58 68 0 
N 9 47 0 
N 48 99 0 
N 49 76 0 
N 48 64 0 
N 40 53 0 
N 3 73 0 
N 47 83 0 
N 98 1 0 
N 48 56 0 
N 76 75 0 
N 79 28 0 
N 18 66 0 
N 93 87 0 
N 57 18 0 
N 40 8 0 
N 86 29 0 
N 16 81 0 
N 64 29 0 
N 30 31 0 
N 96 19 0 
N 7 44 0 
N 54 25 0 
N 21 20 0 
N 82 89 0 
N 87 68 0 
N 31 97 0 
N 92 33 0 
N 48 84 0 
N 80 92 0 
N 76 93 0 
N 36 19 0 
N 25 67 0 
N 6 18 0 
N 2 56 0 
N 65 1 0 
N 69 50 0 
N 97 2 0 
N 16 85 0 
N 81 73 0 
N 80 85 0 
N 7 6 0 
N 64 87 0 
N 85 30 0 
N 15 39 0 
N 15 87 0 
N 20 99 0 
N 15 36 0 
N 89 46 0 
N 10 8 0 
N 77 85 0 
N 27 96 0 
N 47 91 0 
N 31 69 0 
N 98 26 0 
N 47 90 0 
N 37 17 0 
N 27 1 0 
N 84 65 0 
N 66 71 0 
N 3 20 0 
N 47 87 0 
N 85 32 0 
N 21 19 0 
N 10 89 0 
N 38 97 0 
N 44 42 0 
N 10 82 0 
N 10 87 0 
N 96 27 0 
N 56 24 0 
N 21 36 0 
N 79 97 0 
N 7 87 0 
N 96 30 0 
N 81 32 0 
N 93 48 0 
N 12 63 0 
N 86 68 0 
N 99 24 0 
N 58 41 0 
N 86 66 0 
N 9 7 0 
N 1 99 0 
N 48 90 0 
N 59 16 0 
N 52 90 0 
N 83 65 0 
N 97 70 0 
N 86 48 0 
N 99 26 0 
N 35 14 0 
N 84 62 0 
N 82 85 0 
N 85 27 0 
N 15 94 0 
N 84 87 0 
N 23 66 0 
N 13 96 0 
N 65 29 0 
N 73 10 0 
N 99 1 0 
N 59 36 0 
N 37 87 0 
N 47 88 0 
N 38 19 0 
N 78 91 0 
N 6 10 0 
N 8 88 0 
N 56 27 0 
N 57 17 0 
N 69 23 0 
N 44 15 0 
N 52 38 0 
N 20 66 0 
N 47 95 0 
N 93 94 0 
N 73 20 0 
N 93 91 0 
N 81 91 0 
N 20 37 0 
N 69 46 0 
N 3 72 0 
N 40 56 0 
N 78 73 0 
N 19 96 0 
N 39 10 0 
N 25 66 0 
N 84 64 0 
N 82 87 0 
N 91 21 0 
N 69 67 0 
N 67 50 0 
N 33 41 0 
N 1 77 0 
N 42 6 0 
N 47 92 0 
N 78 72 0 
N 37 98 0 
N 57 29 0 
N 20 36 0 
N 75 32 0 
N 79 95 0 
N 39 57 0 
N 58 19 0 
N 65 39 0 
N 15 37 0 
N 82 67 0 
N 80 41 0 
N 49 67 0 
N 48 73 0 
N 14 81 0 
N 17 11 0 
N 56 41 0 
N 77 77 0 
N 56 42 0 
N 69 61 0 
N 88 31 0 
N 10 61 0 
N 92 19 0 
N 27 48 0 
N 87 25 0 
N 71 85 0 
N 8 84 0 
N 40 16 0 
N 71 54 0 
N 98 57 0 
N 26 51 0 
N 69 84 0 
N 84 30 0 
N 9 37 0 
N 8 20 0 
N 77 96 0 
N 37 11 0 
N 68 64 0 
N 58 29 0 
N 8 39 0 
N 52 97 0 
N 50 64 0 
N 24 7 0 
N 48 6 0 
N 53 92 0 
N 84 86 0 
N 24 6 0 
N 28 46 0 
N 89 34 0 
N 42 69 0 
N 5 6 0 
N 28 94 0 
N 93 3 0 
N 77 6 0 
N 87 34 0 
N 1 27 0 
N 10 39 0 
N 11 64 0 
N 87 29 0 
N 5 38 0 
N 61 65 0 
N 21 23 0 
N 35 21 0 
N 35 67 0 
N 21 25 0 
N 8 41 0 
N 23 38 0 
N 70 6 0 
N 65 51 0 
N 30 39 0 
N 7 10 0 
N 6 3 0 
N 59 28 0 
N 62 89 0 
N 27 98 0 
N 40 15 0 
N 79 15 0 
N 19 68 0 
N 84 72 0 
N 62 19 0 
N 21 18 0 
N 60 17 0 
N 31 67 0 
N 33 30 0 
N 37 18 0 
N 39 23 0 
N 83 62 0 
N 77 70 0 
N 82 26 0 
N 42 50 0 
N 93 6 0 
N 40 9 0 
N 12 37 0 
N 42 42 0 
N 65 53 0 
N 46 77 0 
N 49 74 0 
N 4 56 0 
N 4 68 0 
N 36 67 0 
N 60 62 0 
N 40 25 0 
N 71 4 0 
N 53 70 0 
N 69 60 0 
N 67 65 0 
N 71 63 0 
N 64 52 0 
N 51 63 0 
N 8 38 0 
N 57 20 0 
N 59 41 0 
N 6 36 0 
N 50 98 0 
N 82 62 0 
N 77 38 0 
N 98 19 0 
N 44 44 0 
N 5 99 0 
N 44 64 0 
N 54 21 0 
N 64 21 0 
N 35 54 0 
N 79 7 0 
N 49 94 0 
N 40 54 0 
N 96 51 0 
N 5 97 0 
N 43 71 0 
N 65 27 0 
N 60 99 0 
N 80 89 0 
N 15 85 0 
N 11 88 0 
N 6 1 0 
N 24 48 0 
N 98 69 0 
N 44 46 0 
N 55 63 0 
N 44 72 0 
N 68 51 0 
N 21 13 0 
N 77 87 0 
N 35 22 0 
N 93 27 0 
N 47 79 0 
N 42 47 0 
N 85 39 0 
N 79 84 0 
N 7 43 0 
N 21 15 0 
N 54 30 0 
N 96 53 0 
N 1 58 0 
N 0 87 0 
N 67 22 0 
N 35 51 0 
N 44 56 0 
N 23 37 0 
N 0 73 0 
N 84 37 0 
N 1 55 0 
N 19 64 0 
N 10 88 0 
N 22 66 0 
N 12 81 0 
N 66 53 0 
N 64 26 0 
N 10 56 0 
N 70 74 0 
N 80 86 0 
N 49 93 0 
N 20 63 0 
N 79 63 0 
N 4 40 0 
N 3 66 0 
N 22 65 0 
N 47 12 0 
N 37 27 0 
N 48 5 0 
N 18 65 0 
N 97 3 0 
N 21 41 0 
N 55 64 0 
N 87 88 0 
N 18 58 0 
N 78 68 0 
N 45 48 0 
N 98 96 0 
N 97 72 0 
N 75 9 0 
N 3 64 0 
N 91 29 0 
N 78 87 0 
N 56 63 0 
N 92 46 0 
N 6 38 0 
N 99 74 0 
N 66 3 0 
N 47 93 0 
N 63 41 0 
N 18 62 0 
N 96 89 0 
N 41 57 0 
N 96 87 0 
N 55 43 0 
N 78 12 0 
N 9 36 0 
N 66 43 0 
N 84 40 0 
N 43 67 0 
N 35 38 0 
N 47 66 0 
N 39 55 0 
N 71 71 0 
N 67 53 0 
N 41 76 0 
N 41 15 0 
N 77 76 0 
N 77 1 0 
N 10 59 0 
N 94 5 0 
N 59 33 0 
N 2 5 0 
N 59 45 0 
N 15 3 0 
N 92 88 0 
N 24 38 0 
N 44 41 0 
N 10 20 0 
N 68 47 0 
N 34 30 0 
N 97 28 0 
N 21 22 0 
N 12 87 0 
N 27 16 0 
N 84 60 0 
N 24 4 0 
N 31 14 0 
N 46 95 0 
N 72 63 0 
N 86 27 0 
N 3 23 0 
N 46 71 0 
N 5 8 0 
N 39 44 0 
N 96 7 0 
N 55 62 0 
N 8 81 0 
N 67 47 0 
N 41 51 0 
N 22 10 0 
N 56 7 0 
N 77 3 0 
N 21 2 0 
N 46 93 0 
N 61 49 0 
N 96 86 0 
N 22 37 0 
N 33 13 0 
N 3 5 0 
N 31 94 0 
N 85 88 0 
N 66 19 0 
N 1 52 0 
N 92 0 0 
N 52 1 0 
N 89 26 0 
N 2 57 0 
N 7 37 0 
N 83 31 0 
N 42 70 0 
N 3 82 0 
N 95 82 0 
N 67 19 0 
N 60 42 0 
N 53 91 0 
N 64 32 0 
N 41 97 0 
N 14 89 0 
N 23 65 0 
N 93 4 0 
N 3 67 0 
N 52 2 0 
N 80 7 0 
N 34 13 0 
N 4 67 0 
N 95 52 0 
N 37 20 0 
N 69 49 0 
N 28 43 0 
N 0 71 0 
N 51 4 0 
N 78 10 0 
N 78 94 0 
N 48 0 0 
N 43 55 0 
N 70 62 0 
N 9 81 0 
N 64 36 0 
N 69 48 0 
N 11 37 0 
N 54 93 0 
N 95 86 0 
N 87 32 0 
N 32 85 0 
N 92 52 0 
N 40 17 0 
N 21 17 0 
N 79 1 0 
N 67 52 0 
N 49 91 0 
N 15 4 0 
N 15 80 0 
N 80 84 0 
N 74 6 0 
N 79 3 0 
N 59 21 0 
N 93 0 0 
N 17 37 0 
N 41 44 0 
N 66 14 0 
N 69 64 0 
N 16 88 0 
N 84 69 0 
N 87 87 0 
N 80 73 0 
N 5 4 0 
N 44 43 0 
N 21 96 0 
N 92 50 0 
C 0 0 0 
C 20 0 0 
C 40 0 0 
C 60 0 0 
C 80 0 0 
C 100 0 0 
C 0 20 0 
C 20 20 0 
C 40 20 0 
C 60 20 0 
C 80 20 0 
C 100 20 0 
C 0 40 0 
C 20 40 0 
C 40 40 0 
C 60 40 0 
C 80 40 0 
C 100 40 0 
C 0 60 0 
C 20 60 0 
C 40 60 0 
C 60 60 0 
C 80 60 0 
C 100 60 0 
C 0 80 0 
C 20 80 0 
C 40 80 0 
C 60 80 0 
C 80 80 0 
C 100 80 0 
C 0 100 0 
C 20 100 0 
C 40 100 0 
C 60 100 0 
C 80 100 0 
C 100 100 0 
O 99 17 0 
O 80 1 0 
O 99 4 0 
O 36 99 0 
O 13 80 0 
O 94 99 0 
O 25 0 0 
O 23 5 0 
O 7 62 0 
O 98 73 0 
O 46 99 0 
O 19 0 0 
O 98 99 0 
O 14 1 0 
O 12 65 0 
O 0 6 0 
O 38 99 0 
O 2 65 0 
O 99 0 0 
O 32 0 0 
O 99 99 0 
O 97 0 0 
O 45 0 0 
O 21 11 0 
558
Atoms. Timestep: 21
N 11 62 0 
N 83 87 0 
N 24 39 0 
N 46 84 0 
N 21 96 0 
N 19 97 0 
N 49 97 0 
N 48 96 0 
N 96 4 0 
N 36 44 0 
N 79 83 0 
N 3 55 0 
N 86 45 0 
N 59 66 0 
N 71 49 0 
N 32 68 0 
N 99 71 0 
N 47 6 0 
N 8 60 0 
N 4 3 0 
N 8 10 0 
N 76 86 0 
N 74 11 0 
N 3 5 0 
N 99 18 0 
N 40 17 0 
N 40 42 0 
N 85 35 0 
N 76 75 0 
N 94 6 0 
N 6 80 0 
N 48 12 0 
N 58 67 0 
N 8 47 0 
N 47 99 0 
N 49 75 0 
N 49 64 0 
N 40 52 0 
N 4 73 0 
N 47 83 0 
N 98 2 0 
N 49 56 0 
N 77 75 0 
N 78 28 0 
N 18 65 0 
N 94 87 0 
N 56 18 0 
N 39 8 0 
N 87 29 0 
N 15 81 0 
N 63 29 0 
N 31 31 0 
N 96 18 0 
N 7 45 0 
N 53 25 0 
N 21 19 0 
N 82 88 0 
N 87 69 0 
N 31 96 0 
N 92 34 0 
N 47 84 0 
N 80 93 0 
N 75 93 0 
N 36 20 0 
N 25 66 0 
N 7 18 0 
N 2 57 0 
N 66 1 0 
N 69 51 0 
N 97 1 0 
N 15 85 0 
N 82 73 0 
N 80 86 0 
N 6 6 0 
N 64 86 0 
N 85 29 0 
N 15 38 0 
N 14 87 0 
N 20 98 0 
N 15 35 0 
N 89 47 0 
N 10 7 0 
N 77 84 0 
N 27 95 0 
N 46 91 0 
N 31 68 0 
N 98 25 0 
N 46 90 0 
N 37 18 0 
N 26 1 0 
N 83 65 0 
N 67 71 0 
N 4 20 0 
N 46 87 0 
N 85 31 0 
N 21 18 0 
N 11 89 0 
N 38 98 0 
N 45 42 0 
N 11 82 0 
N 11 87 0 
N 96 26 0 
N 57 24 0 
N 21 37 0 
N 79 98 0 
N 7 86 0 
N 96 29 0 
N 81 31 0 
N 94 48 0 
N 12 64 0 
N 86 69 0 
N 99 23 0 
N 57 41 0 
N 86 65 0 
N 9 6 0 
N 2 99 0 
N 48 91 0 
N 59 17 0 
N 51 90 0 
N 82 65 0 
N 97 71 0 
N 85 48 0 
N 99 25 0 
N 36 14 0 
N 84 63 0 
N 81 85 0 
N 85 26 0 
N 14 94 0 
N 84 86 0 
N 22 66 0 
N 12 96 0 
N 66 29 0 
N 72 10 0 
N 99 0 0 
N 59 37 0 
N 37 88 0 
N 46 88 0 
N 38 19 0 
N 79 91 0 
N 5 10 0 
N 8 87 0 
N 57 27 0 
N 58 17 0 
N 68 23 0 
N 44 14 0 
N 52 37 0 
N 19 66 0 
N 47 96 0 
N 93 95 0 
N 73 19 0 
N 93 92 0 
N 80 91 0 
N 20 36 0 
N 68 46 0 
N 4 72 0 
N 41 56 0 
N 79 73 0 
N 19 95 0 
N 38 10 0 
N 25 65 0 
N 83 64 0 
N 82 86 0 
N 91 20 0 
N 69 66 0 
N 67 51 0 
N 33 40 0 
N 1 76 0 
N 42 5 0 
N 47 93 0 
N 79 72 0 
N 37 99 0 
N 57 30 0 
N 20 35 0 
N 75 31 0 
N 79 96 0 
N 39 56 0 
N 58 18 0 
N 66 39 0 
N 14 37 0 
N 82 66 0 
N 80 42 0 
N 48 67 0 
N 48 74 0 
N 13 81 0 
N 18 11 0 
N 56 42 0 
N 77 76 0 
N 55 42 0 
N 69 60 0 
N 89 31 0 
N 9 61 0 
N 93 19 0 
N 27 49 0 
N 88 25 0 
N 72 85 0 
N 9 84 0 
N 39 16 0 
N 72 54 0 
N 98 58 0 
N 26 52 0 
N 69 83 0 
N 83 30 0 
N 10 37 0 
N 8 19 0 
N 77 97 0 
N 36 11 0 
N 68 65 0 
N 59 29 0 
N 9 39 0 
N 52 98 0 
N 50 65 0 
N 23 7 0 
N 48 7 0 
N 53 93 0 
N 85 86 0 
N 23 6 0 
N 28 45 0 
N 88 34 0 
N 41 69 0 
N 4 6 0 
N 28 93 0 
N 94 3 0 
N 77 5 0 
N 87 35 0 
N 2 27 0 
N 11 39 0 
N 11 65 0 
N 87 28 0 
N 5 37 0 
N 62 65 0 
N 21 22 0 
N 35 22 0 
N 35 66 0 
N 21 24 0 
N 8 40 0 
N 22 38 0 
N 71 6 0 
N 65 50 0 
N 30 38 0 
N 7 9 0 
N 7 3 0 
N 59 27 0 
N 62 88 0 
N 26 98 0 
N 41 15 0 
N 80 15 0 
N 18 68 0 
N 85 72 0 
N 62 18 0 
N 21 17 0 
N 60 16 0 
N 31 66 0 
N 34 30 0 
N 37 19 0 
N 40 23 0 
N 83 61 0 
N 77 71 0 
N 82 25 0 
N 42 49 0 
N 92 6 0 
N 39 9 0 
N 12 36 0 
N 41 42 0 
N 66 53 0 
N 46 78 0 
N 49 73 0 
N 4 57 0 
N 3 68 0 
N 36 66 0 
N 59 62 0 
N 39 25 0 
N 72 4 0 
N 52 70 0 
N 69 59 0 
N 67 66 0 
N 72 63 0 
N 63 52 0 
N 51 64 0 
N 9 38 0 
N 57 19 0 
N 59 42 0 
N 6 37 0 
N 50 99 0 
N 82 63 0 
N 77 37 0 
N 98 18 0 
N 43 44 0 
N 6 99 0 
N 44 65 0 
N 53 21 0 
N 64 22 0 
N 35 53 0 
N 78 7 0 
N 48 94 0 
N 40 55 0 
N 95 51 0 
N 6 97 0 
N 42 71 0 
N 66 27 0 
N 59 99 0 
N 80 90 0 
N 14 85 0 
N 12 88 0 
N 7 1 0 
N 25 48 0 
N 98 70 0 
N 44 47 0 
N 54 63 0 
N 44 71 0 
N 68 50 0 
N 21 12 0 
N 77 88 0 
N 36 22 0 
N 94 27 0 
N 48 79 0 
N 43 47 0 
N 85 40 0 
N 78 84 0 
N 7 43 0 
N 21 14 0 
N 54 29 0 
N 96 54 0 
N 1 59 0 
N 1 87 0 
N 66 22 0 
N 35 50 0 
N 44 57 0 
N 24 37 0 
N 1 73 0 
N 83 37 0 
N 1 56 0 
N 19 65 0 
N 10 88 0 
N 21 66 0 
N 12 80 0 
N 67 53 0 
N 64 27 0 
N 10 57 0 
N 71 74 0 
N 79 86 0 
N 48 93 0 
N 19 63 0 
N 79 64 0 
N 4 39 0 
N 2 66 0 
N 21 65 0 
N 47 13 0 
N 38 27 0 
N 48 5 0 
N 17 65 0 
N 97 4 0 
N 20 41 0 
N 55 65 0 
N 87 89 0 
N 18 59 0 
N 78 67 0 
N 45 49 0 
N 98 97 0 
N 98 72 0 
N 76 9 0 
N 3 65 0 
N 92 29 0 
N 78 86 0 
N 57 63 0 
N 91 46 0 
N 7 38 0 
N 98 74 0 
N 66 2 0 
N 47 94 0 
N 63 40 0 
N 17 62 0 
N 95 89 0 
N 40 57 0 
N 96 88 0 
N 56 43 0 
N 79 12 0 
N 10 36 0 
N 65 43 0 
N 84 39 0 
N 44 67 0 
N 35 37 0 
N 46 66 0 
N 39 54 0 
N 70 71 0 
N 67 54 0 
N 41 77 0 
N 41 16 0 
N 78 76 0 
N 78 1 0 
N 9 59 0 
N 95 5 0 
N 58 33 0 
N 2 6 0 
N 60 45 0 
N 15 2 0 
N 93 88 0 
N 25 38 0 
N 43 41 0 
N 11 20 0 
N 68 48 0 
N 34 29 0 
N 97 27 0 
N 21 21 0 
N 12 86 0 
N 27 15 0 
N 84 59 0 
N 24 5 0 
N 30 14 0 
N 46 96 0 
N 72 64 0 
N 86 28 0 
N 3 22 0 
N 47 71 0 
N 5 7 0 
N 40 44 0 
N 95 7 0 
N 55 61 0 
N 9 81 0 
N 67 46 0 
N 41 52 0 
N 22 11 0 
N 56 8 0 
N 78 3 0 
N 20 2 0 
N 46 94 0 
N 61 50 0 
N 95 86 0 
N 22 36 0 
N 33 12 0 
N 3 6 0 
N 31 93 0 
N 86 88 0 
N 66 18 0 
N 1 53 0 
N 92 1 0 
N 52 2 0 
N 89 25 0 
N 2 58 0 
N 8 37 0 
N 82 31 0 
N 41 70 0 
N 4 82 0 
N 96 82 0 
N 67 20 0 
N 61 42 0 
N 52 91 0 
N 64 31 0 
N 41 98 0 
N 13 89 0 
N 23 65 0 
N 94 4 0 
N 2 67 0 
N 51 2 0 
N 81 7 0 
N 34 12 0 
N 4 66 0 
N 95 53 0 
N 38 20 0 
N 68 49 0 
N 29 43 0 
N 0 72 0 
N 51 5 0 
N 78 9 0 
N 77 94 0 
N 47 0 0 
N 43 54 0 
N 69 62 0 
N 9 80 0 
N 65 36 0 
N 70 48 0 
N 11 38 0 
N 54 94 0 
N 95 87 0 
N 87 33 0 
N 32 84 0 
N 91 52 0 
N 39 17 0 
N 21 16 0 
N 80 1 0 
N 66 52 0 
N 49 92 0 
N 14 4 0 
N 14 80 0 
N 80 84 0 
N 74 5 0 
N 79 2 0 
N 59 20 0 
N 94 0 0 
N 17 36 0 
N 42 44 0 
N 65 14 0 
N 70 64 0 
N 16 87 0 
N 85 69 0 
N 88 87 0 
N 80 73 0 
N 6 4 0 
N 45 43 0 
N 20 96 0 
N 92 51 0 
C 0 0 0 
C 20 0 0 
C 40 0 0 
C 60 0 0 
C 80 0 0 
C 100 0 0 
C 0 20 0 
C 20 20 0 
C 40 20 0 
C 60 20 0 
C 80 20 0 
C 100 20 0 
C 0 40 0 
C 20 40 0 
C 40 40 0 
C 60 40 0 
C 80 40 0 
C 100 40 0 
C 0 60 0 
C 20 60 0 
C 40 60 0 
C 60 60 0 
C 80 60 0 
C 100 60 0 
C 0 80 0 
C 20 80 0 
C 40 80 0 
C 60 80 0 
C 80 80 0 
C 100 80 0 
C 0 100 0 
C 20 100 0 
C 40 100 0 
C 60 100 0 
C 80 100 0 
C 100 100 0 
O 0 17 0 
O 99 3 0 
O 36 0 0 
O 13 79 0 
O 95 99 0 
O 26 0 0 
O 22 5 0 
O 6 62 0 
O 99 73 0 
O 46 99 0 
O 18 0 0 
O 98 0 0 
O 14 0 0 
O 12 65 0 
O 99 6 0 
O 38 0 0 
O 1 65 0 
O 31 0 0 
O 0 99 0 
O 97 99 0 
O 46 0 0 
O 21 10 0 
553
Atoms. Timestep: 22
N 10 62 0 
N 83 88 0 
N 23 39 0 
N 46 83 0 
N 20 96 0 
N 18 97 0 
N 48 97 0 
N 47 96 0 
N 97 4 0 
N 36 43 0 
N 79 82 0 
N 4 55 0 
N 86 44 0 
N 59 67 0 
N 72 49 0 
N 32 69 0 
N 99 71 0 
N 47 5 0 
N 7 60 0 
N 5 3 0 
N 9 10 0 
N 77 86 0 
N 73 11 0 
N 3 4 0 
N 99 17 0 
N 39 17 0 
N 40 41 0 
N 84 35 0 
N 75 75 0 
N 94 7 0 
N 7 80 0 
N 48 13 0 
N 58 68 0 
N 7 47 0 
N 46 99 0 
N 50 75 0 
N 48 64 0 
N 40 53 0 
N 5 73 0 
N 47 84 0 
N 99 2 0 
N 50 56 0 
N 78 75 0 
N 77 28 0 
N 17 65 0 
N 94 88 0 
N 56 19 0 
N 38 8 0 
N 88 29 0 
N 14 81 0 
N 64 29 0 
N 31 30 0 
N 95 18 0 
N 7 46 0 
N 52 25 0 
N 21 18 0 
N 82 89 0 
N 88 69 0 
N 31 95 0 
N 93 34 0 
N 47 85 0 
N 79 93 0 
N 74 93 0 
N 36 20 0 
N 26 66 0 
N 6 18 0 
N 3 57 0 
N 66 0 0 
N 68 51 0 
N 97 2 0 
N 15 84 0 
N 83 73 0 
N 79 86 0 
N 7 6 0 
N 64 85 0 
N 85 28 0 
N 15 37 0 
N 14 86 0 
N 19 98 0 
N 15 34 0 
N 89 46 0 
N 11 7 0 
N 78 84 0 
N 27 94 0 
N 46 92 0 
N 31 67 0 
N 97 25 0 
N 46 90 0 
N 37 17 0 
N 26 0 0 
N 82 65 0 
N 67 70 0 
N 3 20 0 
N 46 88 0 
N 86 31 0 
N 21 17 0 
N 11 88 0 
N 38 97 0 
N 44 42 0 
N 11 81 0 
N 11 86 0 
N 96 25 0 
N 56 24 0 
N 20 37 0 
N 79 99 0 
N 7 85 0 
N 96 28 0 
N 82 31 0 
N 93 48 0 
N 12 63 0 
N 86 70 0 
N 99 22 0 
N 57 40 0 
N 85 65 0 
N 10 6 0 
N 1 99 0 
N 47 91 0 
N 58 17 0 
N 50 90 0 
N 81 65 0 
N 97 72 0 
N 84 48 0 
N 99 24 0 
N 36 13 0 
N 84 62 0 
N 80 85 0 
N 85 27 0 
N 14 93 0 
N 84 85 0 
N 21 66 0 
N 13 96 0 
N 66 30 0 
N 71 10 0 
N 98 0 0 
N 58 37 0 
N 36 88 0 
N 46 89 0 
N 38 18 0 
N 79 92 0 
N 6 10 0 
N 8 86 0 
N 57 26 0 
N 58 16 0 
N 69 23 0 
N 45 14 0 
N 52 36 0 
N 18 66 0 
N 46 96 0 
N 93 96 0 
N 73 18 0 
N 94 92 0 
N 80 90 0 
N 19 36 0 
N 69 46 0 
N 5 72 0 
N 41 57 0 
N 80 73 0 
N 19 94 0 
N 38 10 0 
N 26 65 0 
N 82 64 0 
N 83 86 0 
N 90 20 0 
N 68 66 0 
N 66 51 0 
N 33 41 0 
N 2 76 0 
N 41 5 0 
N 47 94 0 
N 78 72 0 
N 37 98 0 
N 56 30 0 
N 19 35 0 
N 74 31 0 
N 79 97 0 
N 40 56 0 
N 59 18 0 
N 66 38 0 
N 13 37 0 
N 81 66 0 
N 79 42 0 
N 48 68 0 
N 48 75 0 
N 13 81 0 
N 18 10 0 
N 55 42 0 
N 77 77 0 
N 54 42 0 
N 69 59 0 
N 89 30 0 
N 8 61 0 
N 92 19 0 
N 26 49 0 
N 87 25 0 
N 72 84 0 
N 10 84 0 
N 38 16 0 
N 72 53 0 
N 98 59 0 
N 26 51 0 
N 70 83 0 
N 84 30 0 
N 11 37 0 
N 7 19 0 
N 77 98 0 
N 36 10 0 
N 69 65 0 
N 58 29 0 
N 9 38 0 
N 52 99 0 
N 50 64 0 
N 23 6 0 
N 47 7 0 
N 52 93 0 
N 86 86 0 
N 22 6 0 
N 29 45 0 
N 88 35 0 
N 40 69 0 
N 5 6 0 
N 28 92 0 
N 95 3 0 
N 77 4 0 
N 87 34 0 
N 2 26 0 
N 10 39 0 
N 12 65 0 
N 86 28 0 
N 5 36 0 
N 63 65 0 
N 21 21 0 
N 34 22 0 
N 35 65 0 
N 21 23 0 
N 7 40 0 
N 22 39 0 
N 71 7 0 
N 65 51 0 
N 30 39 0 
N 8 9 0 
N 8 3 0 
N 59 28 0 
N 62 89 0 
N 26 97 0 
N 41 14 0 
N 80 16 0 
N 18 67 0 
N 85 73 0 
N 62 19 0 
N 21 16 0 
N 59 16 0 
N 30 66 0 
N 33 30 0 
N 36 19 0 
N 41 23 0 
N 83 60 0 
N 76 71 0 
N 83 25 0 
N 42 48 0 
N 93 6 0 
N 38 9 0 
N 12 35 0 
N 42 42 0 
N 66 54 0 
N 46 79 0 
N 48 73 0 
N 4 58 0 
N 2 68 0 
N 37 66 0 
N 59 61 0 
N 38 25 0 
N 73 4 0 
N 53 70 0 
N 68 59 0 
N 67 67 0 
N 72 64 0 
N 62 52 0 
N 51 65 0 
N 9 37 0 
N 57 18 0 
N 60 42 0 
N 6 38 0 
N 49 99 0 
N 82 62 0 
N 78 37 0 
N 97 18 0 
N 44 44 0 
N 5 99 0 
N 45 65 0 
N 53 22 0 
N 64 21 0 
N 35 52 0 
N 77 7 0 
N 48 95 0 
N 39 55 0 
N 94 51 0 
N 6 98 0 
N 42 70 0 
N 66 26 0 
N 58 99 0 
N 81 90 0 
N 13 85 0 
N 12 87 0 
N 8 1 0 
N 25 49 0 
N 98 71 0 
N 45 47 0 
N 54 62 0 
N 43 71 0 
N 67 50 0 
N 21 12 0 
N 76 88 0 
N 37 22 0 
N 93 27 0 
N 47 79 0 
N 43 46 0 
N 85 39 0 
N 78 83 0 
N 7 44 0 
N 21 13 0 
N 54 28 0 
N 95 54 0 
N 1 60 0 
N 1 88 0 
N 66 23 0 
N 35 51 0 
N 43 57 0 
N 24 36 0 
N 2 73 0 
N 83 38 0 
N 1 57 0 
N 19 65 0 
N 10 87 0 
N 21 65 0 
N 12 79 0 
N 67 52 0 
N 64 26 0 
N 10 58 0 
N 70 74 0 
N 79 85 0 
N 48 93 0 
N 19 64 0 
N 79 63 0 
N 4 38 0 
N 1 66 0 
N 20 65 0 
N 46 13 0 
N 37 27 0 
N 48 6 0 
N 16 65 0 
N 98 4 0 
N 20 42 0 
N 56 65 0 
N 87 90 0 
N 18 60 0 
N 78 68 0 
N 44 49 0 
N 98 96 0 
N 99 72 0 
N 75 9 0 
N 2 65 0 
N 91 29 0 
N 78 85 0 
N 56 63 0 
N 91 47 0 
N 7 37 0 
N 98 73 0 
N 66 3 0 
N 46 94 0 
N 62 40 0 
N 17 63 0 
N 94 89 0 
N 39 57 0 
N 96 89 0 
N 56 44 0 
N 78 12 0 
N 11 36 0 
N 65 44 0 
N 84 40 0 
N 45 67 0 
N 35 38 0 
N 45 66 0 
N 38 54 0 
N 69 71 0 
N 68 54 0 
N 41 76 0 
N 40 16 0 
N 78 77 0 
N 79 1 0 
N 9 60 0 
N 96 5 0 
N 58 34 0 
N 2 6 0 
N 60 44 0 
N 15 1 0 
N 93 89 0 
N 25 39 0 
N 42 41 0 
N 10 20 0 
N 67 48 0 
N 34 28 0 
N 97 26 0 
N 22 21 0 
N 13 86 0 
N 27 14 0 
N 83 59 0 
N 23 5 0 
N 30 13 0 
N 46 97 0 
N 72 65 0 
N 86 27 0 
N 3 21 0 
N 47 72 0 
N 6 7 0 
N 40 43 0 
N 96 7 0 
N 54 61 0 
N 9 80 0 
N 67 45 0 
N 41 53 0 
N 21 11 0 
N 56 9 0 
N 78 2 0 
N 20 1 0 
N 46 95 0 
N 60 50 0 
N 95 87 0 
N 22 35 0 
N 33 11 0 
N 3 6 0 
N 31 92 0 
N 86 89 0 
N 66 19 0 
N 1 54 0 
N 93 1 0 
N 51 2 0 
N 89 24 0 
N 3 58 0 
N 8 36 0 
N 82 30 0 
N 41 71 0 
N 5 82 0 
N 96 81 0 
N 67 19 0 
N 62 42 0 
N 52 92 0 
N 64 32 0 
N 40 98 0 
N 13 88 0 
N 22 65 0 
N 95 4 0 
N 1 67 0 
N 51 3 0 
N 82 7 0 
N 34 11 0 
N 4 65 0 
N 94 53 0 
N 37 20 0 
N 69 49 0 
N 30 43 0 
N 0 73 0 
N 50 5 0 
N 78 10 0 
N 76 94 0 
N 46 0 0 
N 42 54 0 
N 69 63 0 
N 10 80 0 
N 65 35 0 
N 70 47 0 
N 10 38 0 
N 54 95 0 
N 95 88 0 
N 87 32 0 
N 32 83 0 
N 91 53 0 
N 38 17 0 
N 21 15 0 
N 81 1 0 
N 65 52 0 
N 49 93 0 
N 14 3 0 
N 13 80 0 
N 80 83 0 
N 74 4 0 
N 80 2 0 
N 59 19 0 
N 95 0 0 
N 16 36 0 
N 41 44 0 
N 65 13 0 
N 71 64 0 
N 16 86 0 
N 85 70 0 
N 89 87 0 
N 81 73 0 
N 6 3 0 
N 44 43 0 
N 20 95 0 
N 92 52 0 
C 0 0 0 
C 20 0 0 
C 40 0 0 
C 60 0 0 
C 80 0 0 
C 100 0 0 
C 0 20 0 
C 20 20 0 
C 40 20 0 
C 60 20 0 
C 80 20 0 
C 100 20 0 
C 0 40 0 
C 20 40 0 
C 40 40 0 
C 60 40 0 
C 80 40 0 
C 100 40 0 
C 0 60 0 
C 20 60 0 
C 40 60 0 
C 60 60 0 
C 80 60 0 
C 100 60 0 
C 0 80 0 
C 20 80 0 
C 40 80 0 
C 60 80 0 
C 80 80 0 
C 100 80 0 
C 0 100 0 
C 20 100 0 
C 40 100 0 
C 60 100 0 
C 80 100 0 
C 100 100 0 
O 0 16 0 
O 0 3 0 
O 36 99 0 
O 13 78 0 
O 96 99 0 
O 22 4 0 
O 6 61 0 
O 99 73 0 
O 18 99 0 
O 13 0 0 
O 99 5 0 
O 38 99 0 
O 0 65 0 
O 30 0 0 
O 99 99 0 
O 97 0 0 
O 20 10 0 
551
Atoms. Timestep: 23
N 9 62 0 
N 83 87 0 
N 23 40 0 
N 46 82 0 
N 19 96 0 
N 18 98 0 
N 48 98 0 
N 47 97 0 
N 98 4 0 
N 36 44 0 
N 80 82 0 
N 5 55 0 
N 87 44 0 
N 59 68 0 
N 72 48 0 
N 32 70 0 
N 99 70 0 
N 46 5 0 
N 6 60 0 
N 4 3 0 
N 10 10 0 
N 76 86 0 
N 73 10 0 
N 3 3 0 
N 99 16 0 
N 39 18 0 
N 40 42 0 
N 84 34 0 
N 74 75 0 
N 95 7 0 
N 7 79 0 
N 48 14 0 
N 58 69 0 
N 6 47 0 
N 45 99 0 
N 50 74 0 
N 49 64 0 
N 39 53 0 
N 5 74 0 
N 47 83 0 
N 99 3 0 
N 49 56 0 
N 78 74 0 
N 77 27 0 
N 17 64 0 
N 94 89 0 
N 56 20 0 
N 38 8 0 
N 87 29 0 
N 14 80 0 
N 63 29 0 
N 31 29 0 
N 95 17 0 
N 6 46 0 
N 51 25 0 
N 20 18 0 
N 82 88 0 
N 87 69 0 
N 31 94 0 
N 93 33 0 
N 48 85 0 
N 79 94 0 
N 73 93 0 
N 36 21 0 
N 25 66 0 
N 5 18 0 
N 4 57 0 
N 66 99 0 
N 67 51 0 
N 96 2 0 
N 15 83 0 
N 83 74 0 
N 78 86 0 
N 8 6 0 
N 64 86 0 
N 84 28 0 
N 16 37 0 
N 14 85 0 
N 19 99 0 
N 16 34 0 
N 89 47 0 
N 11 6 0 
N 77 84 0 
N 28 94 0 
N 45 92 0 
N 30 67 0 
N 97 24 0 
N 45 90 0 
N 36 17 0 
N 27 0 0 
N 81 65 0 
N 66 70 0 
N 2 20 0 
N 45 88 0 
N 85 31 0 
N 21 16 0 
N 11 87 0 
N 38 98 0 
N 45 42 0 
N 11 80 0 
N 11 85 0 
N 95 25 0 
N 56 25 0 
N 20 36 0 
N 80 99 0 
N 7 84 0 
N 95 28 0 
N 83 31 0 
N 93 47 0 
N 12 62 0 
N 86 69 0 
N 99 21 0 
N 57 41 0 
N 84 65 0 
N 10 5 0 
N 2 99 0 
N 47 92 0 
N 58 16 0 
N 50 91 0 
N 80 65 0 
N 97 71 0 
N 85 48 0 
N 98 24 0 
N 36 14 0 
N 83 62 0 
N 80 84 0 
N 86 27 0 
N 13 93 0 
N 85 85 0 
N 20 66 0 
N 13 97 0 
N 66 29 0 
N 72 10 0 
N 97 0 0 
N 59 37 0 
N 36 89 0 
N 45 89 0 
N 38 19 0 
N 79 91 0 
N 5 10 0 
N 8 85 0 
N 57 25 0 
N 59 16 0 
N 69 22 0 
N 44 14 0 
N 52 37 0 
N 18 67 0 
N 46 97 0 
N 93 97 0 
N 72 18 0 
N 95 92 0 
N 81 90 0 
N 19 37 0 
N 69 47 0 
N 5 71 0 
N 41 58 0 
N 80 74 0 
N 18 94 0 
N 38 11 0 
N 26 64 0 
N 81 64 0 
N 83 85 0 
N 90 19 0 
N 67 66 0 
N 66 52 0 
N 33 40 0 
N 3 76 0 
N 40 5 0 
N 47 95 0 
N 78 73 0 
N 37 99 0 
N 56 31 0 
N 18 35 0 
N 75 31 0 
N 80 97 0 
N 41 56 0 
N 59 17 0 
N 67 38 0 
N 13 36 0 
N 80 66 0 
N 78 42 0 
N 48 67 0 
N 49 75 0 
N 13 80 0 
N 19 10 0 
N 55 43 0 
N 76 77 0 
N 54 41 0 
N 70 59 0 
N 88 30 0 
N 7 61 0 
N 92 18 0 
N 26 48 0 
N 86 25 0 
N 71 84 0 
N 10 83 0 
N 38 16 0 
N 71 53 0 
N 97 59 0 
N 26 52 0 
N 70 82 0 
N 85 30 0 
N 12 37 0 
N 6 19 0 
N 76 98 0 
N 36 11 0 
N 68 65 0 
N 58 28 0 
N 9 39 0 
N 51 99 0 
N 50 63 0 
N 22 6 0 
N 46 7 0 
N 52 94 0 
N 86 85 0 
N 21 6 0 
N 29 44 0 
N 87 35 0 
N 41 69 0 
N 5 5 0 
N 29 92 0 
N 94 3 0 
N 76 4 0 
N 88 34 0 
N 1 26 0 
N 11 39 0 
N 11 65 0 
N 86 29 0 
N 6 36 0 
N 62 65 0 
N 20 21 0 
N 35 22 0 
N 35 66 0 
N 21 22 0 
N 8 40 0 
N 21 39 0 
N 71 6 0 
N 64 51 0 
N 31 39 0 
N 8 8 0 
N 7 3 0 
N 59 29 0 
N 62 90 0 
N 26 96 0 
N 41 15 0 
N 79 16 0 
N 18 68 0 
N 84 73 0 
N 62 18 0 
N 20 16 0 
N 60 16 0 
N 31 66 0 
N 34 30 0 
N 36 19 0 
N 42 23 0 
N 83 59 0 
N 77 71 0 
N 83 24 0 
N 42 49 0 
N 94 6 0 
N 38 9 0 
N 12 36 0 
N 42 41 0 
N 66 55 0 
N 47 79 0 
N 48 74 0 
N 5 58 0 
N 2 67 0 
N 36 66 0 
N 59 62 0 
N 38 26 0 
N 73 5 0 
N 53 69 0 
N 67 59 0 
N 67 68 0 
N 72 65 0 
N 61 52 0 
N 51 66 0 
N 10 37 0 
N 58 18 0 
N 59 42 0 
N 6 39 0 
N 48 99 0 
N 81 62 0 
N 77 37 0 
N 96 18 0 
N 43 44 0 
N 5 99 0 
N 45 64 0 
N 54 22 0 
N 64 20 0 
N 35 53 0 
N 77 8 0 
N 48 96 0 
N 40 55 0 
N 94 52 0 
N 6 99 0 
N 43 70 0 
N 66 25 0 
N 57 99 0 
N 81 89 0 
N 13 84 0 
N 12 86 0 
N 8 0 0 
N 24 49 0 
N 98 70 0 
N 46 47 0 
N 54 63 0 
N 42 71 0 
N 68 50 0 
N 21 11 0 
N 75 88 0 
N 37 23 0 
N 93 26 0 
N 48 79 0 
N 43 45 0 
N 86 39 0 
N 78 82 0 
N 7 45 0 
N 20 13 0 
N 54 27 0 
N 94 54 0 
N 1 61 0 
N 2 88 0 
N 67 23 0 
N 35 50 0 
N 43 56 0 
N 23 36 0 
N 2 72 0 
N 84 38 0 
N 1 58 0 
N 18 65 0 
N 10 86 0 
N 21 64 0 
N 12 78 0 
N 67 53 0 
N 63 26 0 
N 9 58 0 
N 70 75 0 
N 79 84 0 
N 47 93 0 
N 19 63 0 
N 79 62 0 
N 4 39 0 
N 0 66 0 
N 20 64 0 
N 46 12 0 
N 36 27 0 
N 47 6 0 
N 16 64 0 
N 98 5 0 
N 20 43 0 
N 55 65 0 
N 87 91 0 
N 17 60 0 
N 77 68 0 
N 44 50 0 
N 99 96 0 
N 99 73 0 
N 74 9 0 
N 1 65 0 
N 91 28 0 
N 77 85 0 
N 56 62 0 
N 92 47 0 
N 8 37 0 
N 97 73 0 
N 66 2 0 
N 46 95 0 
N 61 40 0 
N 16 63 0 
N 94 90 0 
N 38 57 0 
N 96 90 0 
N 55 44 0 
N 77 12 0 
N 11 35 0 
N 65 45 0 
N 84 39 0 
N 45 66 0 
N 35 39 0 
N 44 66 0 
N 38 53 0 
N 69 72 0 
N 69 54 0 
N 42 76 0 
N 39 16 0 
N 78 78 0 
N 80 1 0 
N 9 61 0 
N 97 5 0 
N 57 34 0 
N 3 6 0 
N 60 45 0 
N 15 0 0 
N 93 90 0 
N 25 38 0 
N 42 40 0 
N 10 19 0 
N 67 47 0 
N 34 27 0 
N 96 26 0 
N 22 20 0 
N 13 86 0 
N 27 13 0 
N 83 58 0 
N 23 4 0 
N 30 12 0 
N 45 97 0 
N 72 66 0 
N 86 26 0 
N 2 21 0 
N 47 73 0 
N 6 6 0 
N 40 44 0 
N 96 6 0 
N 54 60 0 
N 10 80 0 
N 67 46 0 
N 41 54 0 
N 21 10 0 
N 56 10 0 
N 78 3 0 
N 20 2 0 
N 45 95 0 
N 60 51 0 
N 96 87 0 
N 21 35 0 
N 33 10 0 
N 4 6 0 
N 31 91 0 
N 86 90 0 
N 65 19 0 
N 2 54 0 
N 94 1 0 
N 50 2 0 
N 90 24 0 
N 3 59 0 
N 8 35 0 
N 83 30 0 
N 41 70 0 
N 6 82 0 
N 96 80 0 
N 67 20 0 
N 61 42 0 
N 52 91 0 
N 65 32 0 
N 39 98 0 
N 13 87 0 
N 22 64 0 
N 95 5 0 
N 0 67 0 
N 50 3 0 
N 82 6 0 
N 34 12 0 
N 3 65 0 
N 93 53 0 
N 37 21 0 
N 69 48 0 
N 30 44 0 
N 1 73 0 
N 50 6 0 
N 78 11 0 
N 75 94 0 
N 46 1 0 
N 42 53 0 
N 70 63 0 
N 10 79 0 
N 66 35 0 
N 70 46 0 
N 11 38 0 
N 53 95 0 
N 95 89 0 
N 86 32 0 
N 32 82 0 
N 91 54 0 
N 38 17 0 
N 20 15 0 
N 82 1 0 
N 64 52 0 
N 49 94 0 
N 13 3 0 
N 13 79 0 
N 79 83 0 
N 74 3 0 
N 80 3 0 
N 58 19 0 
N 95 1 0 
N 15 36 0 
N 41 45 0 
N 64 13 0 
N 70 64 0 
N 17 86 0 
N 85 71 0 
N 90 87 0 
N 82 73 0 
N 6 3 0 
N 43 43 0 
N 19 95 0 
N 91 52 0 
C 0 0 0 
C 20 0 0 
C 40 0 0 
C 60 0 0 
C 80 0 0 
C 100 0 0 
C 0 20 0 
C 20 20 0 
C 40 20 0 
C 60 20 0 
C 80 20 0 
C 100 20 0 
C 0 40 0 
C 20 40 0 
C 40 40 0 
C 60 40 0 
C 80 40 0 
C 100 40 0 
C 0 60 0 
C 20 60 0 
C 40 60 0 
C 60 60 0 
C 80 60 0 
C 100 60 0 
C 0 80 0 
C 20 80 0 
C 40 80 0 
C 60 80 0 
C 80 80 0 
C 100 80 0 
C 0 100 0 
C 20 100 0 
C 40 100 0 
C 60 100 0 
C 80 100 0 
C 100 100 0 
O 0 15 0 
O 0 2 0 
O 36 0 0 
O 13 77 0 
O 96 0 0 
O 22 3 0 
O 5 61 0 
O 18 0 0 
O 12 0 0 
O 0 5 0 
O 38 0 0 
O 99 65 0 
O 30 99 0 
O 99 0 0 
O 20 9 0 
550
Atoms. Timestep: 24
N 9 61 0 
N 84 87 0 
N 24 40 0 
N 45 82 0 
N 19 95 0 
N 18 97 0 
N 47 98 0 
N 46 97 0 
N 98 5 0 
N 37 44 0 
N 80 81 0 
N 5 56 0 
N 87 45 0 
N 60 68 0 
N 71 48 0 
N 33 70 0 
N 99 69 0 
N 45 5 0 
N 5 60 0 
N 3 3 0 
N 11 10 0 
N 77 86 0 
N 73 11 0 
N 3 2 0 
N 98 16 0 
N 39 17 0 
N 39 42 0 
N 84 33 0 
N 74 76 0 
N 94 7 0 
N 8 79 0 
N 48 13 0 
N 59 69 0 
N 5 47 0 
N 45 98 0 
N 49 74 0 
N 49 65 0 
N 39 54 0 
N 5 75 0 
N 47 82 0 
N 98 3 0 
N 49 55 0 
N 77 74 0 
N 78 27 0 
N 17 63 0 
N 94 88 0 
N 55 20 0 
N 38 7 0 
N 88 29 0 
N 14 79 0 
N 64 29 0 
N 30 29 0 
N 94 17 0 
N 5 46 0 
N 50 25 0 
N 20 17 0 
N 82 87 0 
N 87 68 0 
N 31 95 0 
N 93 32 0 
N 48 84 0 
N 78 94 0 
N 74 93 0 
N 36 22 0 
N 25 67 0 
N 5 17 0 
N 5 57 0 
N 67 99 0 
N 67 52 0 
N 95 2 0 
N 15 82 0 
N 83 75 0 
N 79 86 0 
N 8 5 0 
N 64 85 0 
N 84 27 0 
N 17 37 0 
N 14 84 0 
N 18 99 0 
N 15 34 0 
N 89 48 0 
N 12 6 0 
N 76 84 0 
N 29 94 0 
N 44 92 0 
N 30 66 0 
N 96 24 0 
N 45 89 0 
N 36 16 0 
N 28 0 0 
N 82 65 0 
N 66 69 0 
N 2 19 0 
N 45 87 0 
N 85 30 0 
N 20 16 0 
N 11 86 0 
N 38 97 0 
N 44 42 0 
N 11 79 0 
N 12 85 0 
N 94 25 0 
N 57 25 0 
N 21 36 0 
N 81 99 0 
N 8 84 0 
N 94 28 0 
N 83 30 0 
N 92 47 0 
N 12 61 0 
N 86 68 0 
N 98 21 0 
N 57 42 0 
N 85 65 0 
N 11 5 0 
N 2 98 0 
N 47 91 0 
N 59 16 0 
N 50 90 0 
N 80 64 0 
N 98 71 0 
N 85 47 0 
N 98 23 0 
N 36 13 0 
N 83 63 0 
N 81 84 0 
N 87 27 0 
N 13 92 0 
N 84 85 0 
N 19 66 0 
N 12 97 0 
N 65 29 0 
N 72 11 0 
N 96 0 0 
N 59 38 0 
N 36 88 0 
N 44 89 0 
N 38 18 0 
N 80 91 0 
N 5 11 0 
N 9 85 0 
N 57 24 0 
N 59 15 0 
N 68 22 0 
N 43 14 0 
N 53 37 0 
N 17 67 0 
N 46 96 0 
N 94 97 0 
N 72 17 0 
N 95 91 0 
N 81 89 0 
N 19 36 0 
N 70 47 0 
N 5 70 0 
N 41 57 0 
N 80 75 0 
N 18 93 0 
N 38 10 0 
N 26 65 0 
N 82 64 0 
N 83 84 0 
N 90 18 0 
N 68 66 0 
N 66 53 0 
N 34 40 0 
N 4 76 0 
N 39 5 0 
N 46 95 0 
N 77 73 0 
N 37 98 0 
N 56 32 0 
N 18 34 0 
N 75 30 0 
N 80 96 0 
N 40 56 0 
N 59 18 0 
N 66 38 0 
N 13 35 0 
N 81 66 0 
N 77 42 0 
N 47 67 0 
N 50 75 0 
N 13 79 0 
N 19 9 0 
N 56 43 0 
N 75 77 0 
N 54 42 0 
N 69 59 0 
N 89 30 0 
N 6 61 0 
N 91 18 0 
N 27 48 0 
N 85 25 0 
N 72 84 0 
N 11 83 0 
N 38 15 0 
N 71 52 0 
N 97 60 0 
N 26 51 0 
N 69 82 0 
N 86 30 0 
N 12 36 0 
N 5 19 0 
N 76 97 0 
N 36 10 0 
N 67 65 0 
N 59 28 0 
N 10 39 0 
N 50 99 0 
N 50 62 0 
N 22 5 0 
N 46 6 0 
N 52 93 0 
N 86 84 0 
N 21 5 0 
N 30 44 0 
N 86 35 0 
N 41 68 0 
N 5 5 0 
N 29 93 0 
N 95 3 0 
N 75 4 0 
N 87 34 0 
N 0 26 0 
N 11 38 0 
N 10 65 0 
N 85 29 0 
N 7 36 0 
N 63 65 0 
N 20 21 0 
N 34 22 0 
N 34 66 0 
N 20 22 0 
N 9 40 0 
N 20 39 0 
N 70 6 0 
N 64 50 0 
N 30 39 0 
N 8 7 0 
N 7 2 0 
N 59 30 0 
N 62 89 0 
N 26 97 0 
N 41 14 0 
N 79 17 0 
N 17 68 0 
N 84 72 0 
N 62 19 0 
N 20 15 0 
N 60 17 0 
N 31 67 0 
N 33 30 0 
N 36 18 0 
N 43 23 0 
N 83 60 0 
N 77 70 0 
N 82 24 0 
N 42 48 0 
N 93 6 0 
N 38 9 0 
N 11 36 0 
N 41 41 0 
N 66 54 0 
N 47 80 0 
N 48 75 0 
N 5 59 0 
N 3 67 0 
N 37 66 0 
N 59 63 0 
N 37 26 0 
N 73 4 0 
N 52 69 0 
N 67 60 0 
N 67 67 0 
N 72 64 0 
N 62 52 0 
N 51 67 0 
N 10 36 0 
N 57 18 0 
N 58 42 0 
N 5 39 0 
N 47 99 0 
N 80 62 0 
N 77 38 0 
N 96 19 0 
N 44 44 0 
N 5 98 0 
N 46 64 0 
N 54 23 0 
N 65 20 0 
N 34 53 0 
N 77 7 0 
N 47 96 0 
N 41 55 0 
N 95 52 0 
N 7 99 0 
N 42 70 0 
N 67 25 0 
N 57 98 0 
N 80 89 0 
N 13 83 0 
N 13 86 0 
N 9 0 0 
N 24 50 0 
N 98 69 0 
N 45 47 0 
N 54 64 0 
N 43 71 0 
N 68 51 0 
N 20 11 0 
N 75 87 0 
N 38 23 0 
N 93 25 0 
N 49 79 0 
N 44 45 0 
N 87 39 0 
N 77 82 0 
N 7 46 0 
N 20 12 0 
N 53 27 0 
N 95 54 0 
N 2 61 0 
N 2 87 0 
N 68 23 0 
N 35 49 0 
N 43 55 0 
N 22 36 0 
N 2 71 0 
N 83 38 0 
N 2 58 0 
N 17 65 0 
N 10 85 0 
N 20 64 0 
N 12 77 0 
N 67 54 0 
N 63 25 0 
N 9 59 0 
N 71 75 0 
N 78 84 0 
N 46 93 0 
N 19 62 0 
N 79 63 0 
N 4 40 0 
N 0 65 0 
N 19 64 0 
N 46 11 0 
N 36 26 0 
N 47 5 0 
N 16 63 0 
N 97 5 0 
N 20 42 0 
N 55 64 0 
N 88 91 0 
N 17 61 0 
N 77 67 0 
N 43 50 0 
N 99 95 0 
N 99 72 0 
N 73 9 0 
N 2 65 0 
N 90 28 0 
N 78 85 0 
N 56 63 0 
N 92 48 0 
N 7 37 0 
N 98 73 0 
N 66 3 0 
N 46 94 0 
N 61 39 0 
N 15 63 0 
N 95 90 0 
N 38 56 0 
N 96 89 0 
N 55 45 0 
N 78 12 0 
N 11 34 0 
N 64 45 0 
N 83 39 0 
N 45 65 0 
N 34 39 0 
N 44 67 0 
N 37 53 0 
N 69 73 0 
N 69 55 0 
N 42 77 0 
N 39 15 0 
N 79 78 0 
N 81 1 0 
N 8 61 0 
N 96 5 0 
N 57 33 0 
N 3 5 0 
N 61 45 0 
N 16 0 0 
N 93 89 0 
N 25 37 0 
N 42 39 0 
N 9 19 0 
N 66 47 0 
N 34 26 0 
N 96 25 0 
N 23 20 0 
N 13 85 0 
N 26 13 0 
N 83 57 0 
N 23 3 0 
N 30 13 0 
N 45 96 0 
N 72 67 0 
N 85 26 0 
N 1 21 0 
N 48 73 0 
N 5 6 0 
N 40 43 0 
N 95 6 0 
N 55 60 0 
N 10 79 0 
N 66 46 0 
N 40 54 0 
N 21 9 0 
N 56 11 0 
N 78 2 0 
N 20 3 0 
N 45 94 0 
N 60 52 0 
N 96 86 0 
N 22 35 0 
N 33 9 0 
N 4 5 0 
N 30 91 0 
N 86 89 0 
N 66 19 0 
N 2 55 0 
N 94 0 0 
N 49 2 0 
N 90 23 0 
N 4 59 0 
N 8 36 0 
N 84 30 0 
N 41 71 0 
N 7 82 0 
N 97 80 0 
N 67 21 0 
N 61 41 0 
N 52 90 0 
N 65 33 0 
N 39 97 0 
N 13 87 0 
N 22 63 0 
N 94 5 0 
N 1 67 0 
N 49 3 0 
N 81 6 0 
N 35 12 0 
N 4 65 0 
N 94 53 0 
N 37 20 0 
N 69 49 0 
N 30 43 0 
N 2 73 0 
N 49 6 0 
N 77 11 0 
N 76 94 0 
N 46 0 0 
N 41 53 0 
N 69 63 0 
N 10 78 0 
N 66 34 0 
N 70 45 0 
N 10 38 0 
N 52 95 0 
N 95 88 0 
N 85 32 0 
N 31 82 0 
N 91 55 0 
N 38 17 0 
N 20 14 0 
N 83 1 0 
N 63 52 0 
N 48 94 0 
N 12 3 0 
N 13 78 0 
N 78 83 0 
N 73 3 0 
N 80 2 0 
N 59 19 0 
N 95 0 0 
N 15 37 0 
N 41 44 0 
N 63 13 0 
N 70 65 0 
N 17 85 0 
N 85 70 0 
N 91 87 0 
N 83 73 0 
N 6 2 0 
N 43 42 0 
N 18 95 0 
N 91 51 0 
C 0 0 0 
C 20 0 0 
C 40 0 0 
C 60 0 0 
C 80 0 0 
C 100 0 0 
C 0 20 0 
C 20 20 0 
C 40 20 0 
C 60 20 0 
C 80 20 0 
C 100 20 0 
C 0 40 0 
C 20 40 0 
C 40 40 0 
C 60 40 0 
C 80 40 0 
C 100 40 0 
C 0 60 0 
C 20 60 0 
C 40 60 0 
C 60 60 0 
C 80 60 0 
C 100 60 0 
C 0 80 0 
C 20 80 0 
C 40 80 0 
C 60 80 0 
C 80 80 0 
C 100 80 0 
C 0 100 0 
C 20 100 0 
C 40 100 0 
C 60 100 0 
C 80 100 0 
C 100 100 0 
O 0 16 0 
O 0 1 0 
O 37 0 0 
O 13 76 0 
O 22 2 0 
O 4 61 0 
O 17 0 0 
O 12 99 0 
O 0 6 0 
O 38 99 0 
O 99 64 0 
O 30 0 0 
O 99 99 0 
O 20 8 0 
549
Atoms. Timestep: 25
N 8 61 0 
N 84 86 0 
N 24 39 0 
N 44 82 0 
N 20 95 0 
N 17 97 0 
N 47 99 0 
N 46 98 0 
N 97 5 0 
N 36 44 0 
N 79 81 0 
N 5 57 0 
N 87 46 0 
N 59 68 0 
N 71 47 0 
N 33 69 0 
N 99 68 0 
N 44 5 0 
N 5 60 0 
N 3 2 0 
N 11 9 0 
N 76 86 0 
N 72 11 0 
N 2 2 0 
N 97 16 0 
N 39 16 0 
N 40 42 0 
N 84 32 0 
N 74 77 0 
N 93 7 0 
N 8 78 0 
N 48 12 0 
N 58 69 0 
N 4 47 0 
N 45 99 0 
N 50 74 0 
N 49 64 0 
N 40 54 0 
N 6 75 0 
N 46 82 0 
N 97 3 0 
N 50 55 0 
N 77 73 0 
N 78 26 0 
N 16 63 0 
N 94 87 0 
N 56 20 0 
N 38 6 0 
N 87 29 0 
N 14 78 0 
N 64 28 0 
N 31 29 0 
N 94 16 0 
N 4 46 0 
N 50 24 0 
N 20 16 0 
N 81 87 0 
N 87 67 0 
N 30 95 0 
N 93 31 0 
N 47 84 0 
N 79 94 0 
N 74 92 0 
N 37 22 0 
N 25 68 0 
N 4 17 0 
N 5 58 0 
N 67 98 0 
N 68 52 0 
N 94 2 0 
N 14 82 0 
N 83 76 0 
N 79 87 0 
N 7 5 0 
N 65 85 0 
N 84 28 0 
N 18 37 0 
N 14 83 0 
N 17 99 0 
N 16 34 0 
N 88 48 0 
N 12 7 0 
N 76 85 0 
N 30 94 0 
N 44 93 0 
N 30 67 0 
N 96 23 0 
N 44 89 0 
N 37 16 0 
N 29 0 0 
N 83 65 0 
N 67 69 0 
N 2 18 0 
N 45 88 0 
N 85 31 0 
N 20 15 0 
N 11 86 0 
N 38 98 0 
N 44 41 0 
N 12 79 0 
N 12 86 0 
N 94 24 0 
N 56 25 0 
N 21 35 0 
N 82 99 0 
N 8 83 0 
N 93 28 0 
N 83 29 0 
N 91 47 0 
N 11 61 0 
N 86 67 0 
N 98 20 0 
N 58 42 0 
N 86 65 0 
N 12 5 0 
N 2 99 0 
N 47 92 0 
N 58 16 0 
N 50 89 0 
N 80 63 0 
N 98 70 0 
N 84 47 0 
N 97 23 0 
N 37 13 0 
N 84 63 0 
N 82 84 0 
N 87 26 0 
N 13 93 0 
N 84 84 0 
N 18 66 0 
N 12 98 0 
N 65 28 0 
N 72 12 0 
N 96 1 0 
N 59 39 0 
N 37 88 0 
N 44 90 0 
N 38 17 0 
N 79 91 0 
N 5 12 0 
N 9 84 0 
N 57 23 0 
N 59 14 0 
N 68 23 0 
N 42 14 0 
N 54 37 0 
N 16 67 0 
N 45 96 0 
N 94 98 0 
N 72 18 0 
N 96 91 0 
N 80 89 0 
N 20 36 0 
N 70 48 0 
N 5 69 0 
N 40 57 0 
N 79 75 0 
N 18 94 0 
N 38 9 0 
N 26 64 0 
N 83 64 0 
N 83 85 0 
N 89 18 0 
N 68 67 0 
N 66 54 0 
N 33 40 0 
N 5 76 0 
N 38 5 0 
N 46 95 0 
N 78 73 0 
N 37 97 0 
N 55 32 0 
N 17 34 0 
N 76 30 0 
N 79 96 0 
N 41 56 0 
N 59 19 0 
N 65 38 0 
N 13 34 0 
N 81 65 0 
N 77 43 0 
N 48 67 0 
N 51 75 0 
N 13 78 0 
N 19 8 0 
N 55 43 0 
N 75 76 0 
N 53 42 0 
N 69 58 0 
N 88 30 0 
N 5 61 0 
N 91 17 0 
N 27 49 0 
N 84 25 0 
N 72 83 0 
N 12 83 0 
N 38 14 0 
N 71 51 0 
N 98 60 0 
N 26 50 0 
N 69 83 0 
N 86 31 0 
N 11 36 0 
N 5 18 0 
N 76 98 0 
N 37 10 0 
N 67 64 0 
N 59 27 0 
N 10 40 0 
N 49 99 0 
N 51 62 0 
N 22 4 0 
N 45 6 0 
N 52 94 0 
N 86 85 0 
N 21 4 0 
N 30 43 0 
N 86 36 0 
N 41 69 0 
N 4 5 0 
N 29 92 0 
N 94 3 0 
N 76 4 0 
N 87 35 0 
N 0 25 0 
N 10 38 0 
N 9 65 0 
N 84 29 0 
N 6 36 0 
N 63 66 0 
N 20 21 0 
N 33 22 0 
N 33 66 0 
N 20 22 0 
N 9 39 0 
N 19 39 0 
N 69 6 0 
N 65 50 0 
N 29 39 0 
N 8 6 0 
N 6 2 0 
N 59 29 0 
N 62 90 0 
N 26 96 0 
N 40 14 0 
N 80 17 0 
N 16 68 0 
N 83 72 0 
N 62 18 0 
N 20 14 0 
N 60 18 0 
N 31 68 0 
N 33 31 0 
N 37 18 0 
N 43 22 0 
N 83 61 0 
N 77 71 0 
N 82 25 0 
N 42 49 0 
N 92 6 0 
N 38 8 0 
N 11 37 0 
N 41 42 0 
N 67 54 0 
N 48 80 0 
N 47 75 0 
N 4 59 0 
N 3 66 0 
N 38 66 0 
N 59 64 0 
N 37 27 0 
N 72 4 0 
N 53 69 0 
N 67 61 0 
N 67 66 0 
N 72 65 0 
N 62 53 0 
N 51 66 0 
N 10 35 0 
N 58 18 0 
N 59 42 0 
N 5 38 0 
N 46 99 0 
N 80 61 0 
N 76 38 0 
N 96 18 0 
N 44 45 0 
N 6 98 0 
N 46 65 0 
N 54 24 0 
N 65 19 0 
N 35 53 0 
N 77 8 0 
N 47 97 0 
N 40 55 0 
N 95 53 0 
N 8 99 0 
N 42 71 0 
N 68 25 0 
N 57 99 0 
N 80 88 0 
N 13 82 0 
N 13 85 0 
N 10 0 0 
N 24 49 0 
N 98 68 0 
N 45 46 0 
N 54 63 0 
N 43 70 0 
N 69 51 0 
N 20 10 0 
N 75 86 0 
N 38 22 0 
N 92 25 0 
N 49 80 0 
N 43 45 0 
N 88 39 0 
N 77 81 0 
N 6 46 0 
N 20 12 0 
N 52 27 0 
N 96 54 0 
N 3 61 0 
N 2 88 0 
N 67 23 0 
N 35 50 0 
N 43 54 0 
N 23 36 0 
N 2 70 0 
N 83 39 0 
N 3 58 0 
N 17 66 0 
N 11 85 0 
N 20 65 0 
N 12 76 0 
N 68 54 0 
N 63 26 0 
N 9 60 0 
N 70 75 0 
N 77 84 0 
N 45 93 0 
N 18 62 0 
N 79 62 0 
N 4 39 0 
N 1 65 0 
N 19 65 0 
N 45 11 0 
N 36 27 0 
N 46 5 0 
N 15 63 0 
N 96 5 0 
N 19 42 0 
N 55 65 0 
N 88 92 0 
N 16 61 0 
N 77 66 0 
N 43 51 0 
N 99 96 0 
N 99 71 0 
N 73 10 0 
N 2 64 0 
N 91 28 0 
N 78 86 0 
N 55 63 0 
N 93 48 0 
N 7 38 0 
N 99 73 0 
N 66 2 0 
N 45 94 0 
N 61 38 0 
N 14 63 0 
N 96 90 0 
N 37 56 0 
N 97 89 0 
N 56 45 0 
N 79 12 0 
N 10 34 0 
N 65 45 0 
N 83 40 0 
N 45 66 0 
N 33 39 0 
N 43 67 0 
N 38 53 0 
N 68 73 0 
N 68 55 0 
N 41 77 0 
N 39 14 0 
N 79 79 0 
N 80 1 0 
N 7 61 0 
N 96 6 0 
N 56 33 0 
N 3 6 0 
N 61 44 0 
N 17 0 0 
N 93 90 0 
N 26 37 0 
N 42 40 0 
N 8 19 0 
N 67 47 0 
N 33 26 0 
N 95 25 0 
N 23 19 0 
N 13 84 0 
N 25 13 0 
N 83 58 0 
N 23 2 0 
N 30 12 0 
N 45 97 0 
N 71 67 0 
N 86 26 0 
N 0 21 0 
N 47 73 0 
N 5 6 0 
N 40 44 0 
N 95 6 0 
N 56 60 0 
N 10 78 0 
N 67 46 0 
N 41 54 0 
N 20 9 0 
N 56 10 0 
N 77 2 0 
N 20 2 0 
N 45 95 0 
N 59 52 0 
N 97 86 0 
N 22 34 0 
N 33 8 0 
N 4 6 0 
N 30 90 0 
N 85 89 0 
N 67 19 0 
N 3 55 0 
N 94 1 0 
N 48 2 0 
N 90 22 0 
N 4 60 0 
N 9 36 0 
N 84 31 0 
N 41 70 0 
N 7 81 0 
N 97 79 0 
N 68 21 0 
N 61 42 0 
N 51 90 0 
N 65 32 0 
N 39 98 0 
N 13 87 0 
N 22 62 0 
N 94 6 0 
N 1 66 0 
N 48 3 0 
N 80 6 0 
N 36 12 0 
N 4 64 0 
N 94 54 0 
N 37 19 0 
N 69 48 0 
N 30 42 0 
N 3 73 0 
N 49 5 0 
N 78 11 0 
N 75 94 0 
N 46 1 0 
N 41 52 0 
N 69 64 0 
N 11 78 0 
N 67 34 0 
N 70 46 0 
N 10 37 0 
N 52 96 0 
N 96 88 0 
N 86 32 0 
N 31 81 0 
N 92 55 0 
N 38 16 0 
N 20 13 0 
N 82 1 0 
N 64 52 0 
N 47 94 0 
N 12 4 0 
N 13 77 0 
N 79 83 0 
N 72 3 0 
N 80 3 0 
N 60 19 0 
N 95 1 0 
N 16 37 0 
N 41 43 0 
N 62 13 0 
N 70 66 0 
N 16 85 0 
N 85 69 0 
N 90 87 0 
N 84 73 0 
N 5 2 0 
N 42 42 0 
N 17 95 0 
N 91 52 0 
C 0 0 0 
C 20 0 0 
C 40 0 0 
C 60 0 0 
C 80 0 0 
C 100 0 0 
C 0 20 0 
C 20 20 0 
C 40 20 0 
C 60 20 0 
C 80 20 0 
C 100 20 0 
C 0 40 0 
C 20 40 0 
C 40 40 0 
C 60 40 0 
C 80 40 0 
C 100 40 0 
C 0 60 0 
C 20 60 0 
C 40 60 0 
C 60 60 0 
C 80 60 0 
C 100 60 0 
C 0 80 0 
C 20 80 0 
C 40 80 0 
C 60 80 0 
C 80 80 0 
C 100 80 0 
C 0 100 0 
C 20 100 0 
C 40 100 0 
C 60 100 0 
C 80 100 0 
C 100 100 0 
O 99 16 0 
O 99 1 0 
O 38 0 0 
O 13 75 0 
O 22 1 0 
O 4 61 0 
O 12 0 0 
O 0 5 0 
O 37 99 0 
O 99 65 0 
O 30 99 0 
O 99 0 0 
O 20 7 0 
548
Atoms. Timestep: 26
N 8 62 0 
N 83 86 0 
N 25 39 0 
N 45 82 0 
N 21 95 0 
N 16 97 0 
N 47 98 0 
N 46 97 0 
N 96 5 0 
N 36 45 0 
N 80 81 0 
N 5 58 0 
N 86 46 0 
N 60 68 0 
N 71 46 0 
N 33 70 0 
N 99 67 0 
N 44 4 0 
N 5 61 0 
N 4 2 0 
N 12 9 0 
N 75 86 0 
N 72 10 0 
N 2 1 0 
N 97 15 0 
N 39 15 0 
N 39 42 0 
N 85 32 0 
N 73 77 0 
N 92 7 0 
N 9 78 0 
N 48 11 0 
N 57 69 0 
N 5 47 0 
N 44 99 0 
N 50 73 0 
N 48 64 0 
N 40 55 0 
N 7 75 0 
N 46 81 0 
N 98 3 0 
N 50 56 0 
N 77 72 0 
N 79 26 0 
N 15 63 0 
N 95 87 0 
N 56 19 0 
N 38 5 0 
N 87 28 0 
N 13 78 0 
N 64 27 0 
N 31 28 0 
N 95 16 0 
N 4 45 0 
N 50 25 0 
N 20 16 0 
N 81 88 0 
N 88 67 0 
N 30 96 0 
N 92 31 0 
N 48 84 0 
N 80 94 0 
N 75 92 0 
N 37 21 0 
N 25 69 0 
N 5 17 0 
N 6 58 0 
N 67 97 0 
N 67 52 0 
N 95 2 0 
N 15 82 0 
N 83 75 0 
N 78 87 0 
N 6 5 0 
N 66 85 0 
N 84 29 0 
N 18 36 0 
N 14 83 0 
N 17 98 0 
N 16 35 0 
N 88 47 0 
N 13 7 0 
N 77 85 0 
N 30 94 0 
N 44 92 0 
N 30 66 0 
N 97 23 0 
N 43 89 0 
N 37 15 0 
N 30 0 0 
N 84 65 0 
N 68 69 0 
N 1 18 0 
N 44 88 0 
N 84 31 0 
N 20 15 0 
N 11 85 0 
N 38 97 0 
N 44 40 0 
N 13 79 0 
N 12 86 0 
N 95 24 0 
N 57 25 0 
N 21 34 0 
N 82 98 0 
N 8 82 0 
N 93 27 0 
N 83 28 0 
N 91 48 0 
N 11 62 0 
N 86 66 0 
N 98 19 0 
N 58 41 0 
N 87 65 0 
N 12 4 0 
N 2 98 0 
N 47 91 0 
N 58 17 0 
N 50 88 0 
N 81 63 0 
N 98 69 0 
N 83 47 0 
N 98 23 0 
N 37 12 0 
N 84 62 0 
N 81 84 0 
N 87 25 0 
N 12 93 0 
N 85 84 0 
N 18 67 0 
N 12 97 0 
N 65 29 0 
N 72 13 0 
N 97 1 0 
N 58 39 0 
N 38 88 0 
N 43 90 0 
N 38 16 0 
N 79 92 0 
N 6 12 0 
N 10 84 0 
N 57 22 0 
N 59 13 0 
N 67 23 0 
N 41 14 0 
N 54 38 0 
N 15 67 0 
N 44 96 0 
N 95 98 0 
N 71 18 0 
N 97 91 0 
N 81 89 0 
N 20 37 0 
N 70 49 0 
N 6 69 0 
N 41 57 0 
N 79 74 0 
N 18 93 0 
N 38 8 0 
N 26 65 0 
N 84 64 0 
N 84 85 0 
N 90 18 0 
N 68 68 0 
N 65 54 0 
N 33 39 0 
N 6 76 0 
N 38 4 0 
N 45 95 0 
N 79 73 0 
N 37 98 0 
N 56 32 0 
N 17 35 0 
N 76 29 0 
N 78 96 0 
N 42 56 0 
N 60 19 0 
N 64 38 0 
N 12 34 0 
N 82 65 0 
N 77 44 0 
N 47 67 0 
N 50 75 0 
N 13 77 0 
N 19 7 0 
N 55 44 0 
N 75 75 0 
N 54 42 0 
N 69 59 0 
N 87 30 0 
N 5 62 0 
N 92 17 0 
N 27 50 0 
N 84 26 0 
N 72 84 0 
N 12 82 0 
N 38 13 0 
N 71 52 0 
N 99 60 0 
N 26 51 0 
N 68 83 0 
N 86 32 0 
N 11 35 0 
N 6 18 0 
N 76 99 0 
N 37 9 0 
N 66 64 0 
N 59 28 0 
N 10 39 0 
N 48 99 0 
N 51 61 0 
N 22 3 0 
N 45 5 0 
N 51 94 0 
N 86 86 0 
N 21 3 0 
N 29 43 0 
N 86 35 0 
N 42 69 0 
N 3 5 0 
N 29 93 0 
N 95 3 0 
N 76 5 0 
N 87 34 0 
N 0 24 0 
N 10 37 0 
N 10 65 0 
N 84 30 0 
N 7 36 0 
N 62 66 0 
N 20 21 0 
N 32 22 0 
N 32 66 0 
N 20 22 0 
N 9 38 0 
N 19 38 0 
N 69 5 0 
N 65 51 0 
N 30 39 0 
N 8 5 0 
N 6 1 0 
N 58 29 0 
N 62 89 0 
N 26 97 0 
N 39 14 0 
N 80 16 0 
N 16 69 0 
N 83 71 0 
N 62 17 0 
N 20 14 0 
N 59 18 0 
N 31 69 0 
N 33 30 0 
N 38 18 0 
N 43 23 0 
N 83 62 0 
N 77 70 0 
N 83 25 0 
N 43 49 0 
N 91 6 0 
N 38 7 0 
N 11 38 0 
N 41 43 0 
N 68 54 0 
N 48 79 0 
N 47 74 0 
N 5 59 0 
N 4 66 0 
N 39 66 0 
N 60 64 0 
N 36 27 0 
N 71 4 0 
N 52 69 0 
N 67 62 0 
N 67 67 0 
N 72 66 0 
N 63 53 0 
N 51 65 0 
N 10 34 0 
N 57 18 0 
N 60 42 0 
N 6 38 0 
N 46 99 0 
N 80 62 0 
N 76 37 0 
N 96 19 0 
N 44 44 0 
N 7 98 0 
N 46 66 0 
N 54 25 0 
N 66 19 0 
N 35 52 0 
N 77 9 0 
N 47 96 0 
N 40 56 0 
N 96 53 0 
N 8 98 0 
N 41 71 0 
N 68 24 0 
N 56 99 0 
N 80 87 0 
N 13 81 0 
N 13 84 0 
N 11 0 0 
N 24 48 0 
N 98 67 0 
N 46 46 0 
N 53 63 0 
N 44 70 0 
N 68 51 0 
N 20 9 0 
N 74 86 0 
N 38 23 0 
N 93 25 0 
N 50 80 0 
N 43 46 0 
N 88 40 0 
N 77 82 0 
N 5 46 0 
N 21 12 0 
N 51 27 0 
N 97 54 0 
N 3 62 0 
N 2 87 0 
N 67 22 0 
N 36 50 0 
N 42 54 0 
N 23 37 0 
N 3 70 0 
N 83 38 0 
N 3 59 0 
N 17 67 0 
N 12 85 0 
N 20 66 0 
N 12 75 0 
N 68 55 0 
N 62 26 0 
N 9 61 0 
N 69 75 0 
N 77 83 0 
N 45 92 0 
N 17 62 0 
N 79 61 0 
N 5 39 0 
N 1 65 0 
N 19 66 0 
N 45 10 0 
N 36 26 0 
N 46 4 0 
N 15 64 0 
N 95 5 0 
N 19 41 0 
N 56 65 0 
N 88 91 0 
N 15 61 0 
N 76 66 0 
N 44 51 0 
N 99 95 0 
N 99 70 0 
N 73 9 0 
N 2 65 0 
N 92 28 0 
N 78 85 0 
N 55 64 0 
N 93 47 0 
N 7 37 0 
N 99 72 0 
N 65 2 0 
N 44 94 0 
N 62 38 0 
N 13 63 0 
N 96 89 0 
N 37 55 0 
N 97 88 0 
N 56 46 0 
N 78 12 0 
N 10 33 0 
N 65 46 0 
N 82 40 0 
N 45 65 0 
N 33 38 0 
N 43 68 0 
N 38 54 0 
N 67 73 0 
N 67 55 0 
N 42 77 0 
N 39 13 0 
N 78 79 0 
N 81 1 0 
N 7 62 0 
N 96 7 0 
N 57 33 0 
N 2 6 0 
N 62 44 0 
N 16 0 0 
N 94 90 0 
N 26 38 0 
N 42 41 0 
N 9 19 0 
N 66 47 0 
N 34 26 0 
N 96 25 0 
N 22 19 0 
N 13 83 0 
N 24 13 0 
N 82 58 0 
N 22 2 0 
N 30 13 0 
N 44 97 0 
N 72 67 0 
N 86 25 0 
N 1 21 0 
N 46 73 0 
N 5 5 0 
N 40 43 0 
N 94 6 0 
N 55 60 0 
N 11 78 0 
N 67 45 0 
N 41 55 0 
N 20 8 0 
N 56 9 0 
N 78 2 0 
N 21 2 0 
N 44 95 0 
N 59 53 0 
N 97 85 0 
N 22 35 0 
N 33 9 0 
N 4 6 0 
N 30 91 0 
N 85 88 0 
N 67 20 0 
N 3 56 0 
N 94 1 0 
N 48 1 0 
N 90 21 0 
N 4 61 0 
N 8 36 0 
N 83 31 0 
N 42 70 0 
N 7 80 0 
N 97 78 0 
N 68 20 0 
N 62 42 0 
N 50 90 0 
N 66 32 0 
N 39 97 0 
N 13 86 0 
N 22 61 0 
N 93 6 0 
N 2 66 0 
N 47 3 0 
N 79 6 0 
N 36 11 0 
N 4 63 0 
N 95 54 0 
N 36 19 0 
N 68 48 0 
N 30 41 0 
N 4 73 0 
N 49 4 0 
N 79 11 0 
N 75 95 0 
N 46 0 0 
N 42 52 0 
N 70 64 0 
N 12 78 0 
N 67 33 0 
N 70 45 0 
N 10 36 0 
N 51 96 0 
N 96 87 0 
N 86 33 0 
N 30 81 0 
N 92 56 0 
N 38 15 0 
N 20 13 0 
N 83 1 0 
N 64 51 0 
N 46 94 0 
N 12 3 0 
N 13 76 0 
N 79 84 0 
N 72 2 0 
N 81 3 0 
N 61 19 0 
N 95 1 0 
N 16 38 0 
N 41 44 0 
N 62 12 0 
N 70 65 0 
N 15 85 0 
N 85 68 0 
N 90 86 0 
N 84 72 0 
N 5 1 0 
N 43 42 0 
N 17 94 0 
N 91 53 0 
C 0 0 0 
C 20 0 0 
C 40 0 0 
C 60 0 0 
C 80 0 0 
C 100 0 0 
C 0 20 0 
C 20 20 0 
C 40 20 0 
C 60 20 0 
C 80 20 0 
C 100 20 0 
C 0 40 0 
C 20 40 0 
C 40 40 0 
C 60 40 0 
C 80 40 0 
C 100 40 0 
C 0 60 0 
C 20 60 0 
C 40 60 0 
C 60 60 0 
C 80 60 0 
C 100 60 0 
C 0 80 0 
C 20 80 0 
C 40 80 0 
C 60 80 0 
C 80 80 0 
C 100 80 0 
C 0 100 0 
C 20 100 0 
C 40 100 0 
C 60 100 0 
C 80 100 0 
C 100 100 0 
O 0 16 0 
O 0 1 0 
O 38 99 0 
O 13 74 0 
O 22 0 0 
O 12 99 0 
O 99 5 0 
O 36 99 0 
O 99 66 0 
O 29 99 0 
O 99 99 0 
O 20 6 0 
547
Atoms. Timestep: 27
N 8 63 0 
N 82 86 0 
N 24 39 0 
N 45 83 0 
N 21 94 0 
N 15 97 0 
N 47 98 0 
N 46 98 0 
N 97 5 0 
N 36 44 0 
N 81 81 0 
N 6 58 0 
N 85 46 0 
N 60 67 0 
N 71 47 0 
N 34 70 0 
N 99 66 0 
N 44 5 0 
N 6 61 0 
N 3 2 0 
N 12 10 0 
N 74 86 0 
N 72 11 0 
N 1 1 0 
N 97 16 0 
N 39 16 0 
N 39 43 0 
N 84 32 0 
N 73 76 0 
N 93 7 0 
N 9 77 0 
N 48 12 0 
N 57 70 0 
N 4 47 0 
N 43 99 0 
N 50 72 0 
N 49 64 0 
N 40 56 0 
N 8 75 0 
N 45 81 0 
N 98 4 0 
N 51 56 0 
N 77 73 0 
N 80 26 0 
N 15 64 0 
N 95 88 0 
N 55 19 0 
N 38 6 0 
N 87 27 0 
N 13 77 0 
N 64 26 0 
N 32 28 0 
N 94 16 0 
N 4 44 0 
N 50 24 0 
N 20 15 0 
N 80 88 0 
N 89 67 0 
N 29 96 0 
N 92 32 0 
N 47 84 0 
N 81 94 0 
N 75 93 0 
N 38 21 0 
N 25 70 0 
N 4 17 0 
N 7 58 0 
N 68 97 0 
N 67 51 0 
N 94 2 0 
N 15 81 0 
N 83 74 0 
N 78 86 0 
N 7 5 0 
N 67 85 0 
N 83 29 0 
N 18 37 0 
N 14 82 0 
N 17 99 0 
N 17 35 0 
N 87 47 0 
N 13 6 0 
N 78 85 0 
N 30 95 0 
N 44 93 0 
N 30 65 0 
N 96 23 0 
N 43 90 0 
N 37 16 0 
N 29 0 0 
N 85 65 0 
N 67 69 0 
N 0 18 0 
N 44 89 0 
N 83 31 0 
N 20 14 0 
N 12 85 0 
N 38 98 0 
N 43 40 0 
N 13 79 0 
N 13 86 0 
N 95 23 0 
N 56 25 0 
N 20 34 0 
N 83 98 0 
N 8 81 0 
N 93 26 0 
N 82 28 0 
N 91 49 0 
N 12 62 0 
N 87 66 0 
N 98 20 0 
N 58 42 0 
N 88 65 0 
N 13 4 0 
N 2 99 0 
N 47 92 0 
N 57 17 0 
N 51 88 0 
N 80 63 0 
N 98 68 0 
N 83 48 0 
N 98 22 0 
N 37 13 0 
N 85 62 0 
N 81 85 0 
N 87 26 0 
N 12 94 0 
N 85 85 0 
N 18 68 0 
N 12 98 0 
N 65 28 0 
N 72 12 0 
N 96 1 0 
N 59 39 0 
N 38 89 0 
N 42 90 0 
N 38 17 0 
N 79 91 0 
N 6 13 0 
N 10 83 0 
N 58 22 0 
N 58 13 0 
N 67 24 0 
N 40 14 0 
N 53 38 0 
N 15 68 0 
N 43 96 0 
N 95 99 0 
N 71 17 0 
N 98 91 0 
N 80 89 0 
N 19 37 0 
N 70 48 0 
N 6 68 0 
N 41 56 0 
N 78 74 0 
N 19 93 0 
N 38 8 0 
N 26 64 0 
N 85 64 0 
N 84 86 0 
N 90 17 0 
N 69 68 0 
N 64 54 0 
N 32 39 0 
N 6 75 0 
N 38 4 0 
N 45 96 0 
N 79 72 0 
N 37 99 0 
N 56 33 0 
N 18 35 0 
N 76 28 0 
N 77 96 0 
N 42 57 0 
N 59 19 0 
N 63 38 0 
N 13 34 0 
N 82 66 0 
N 77 43 0 
N 46 67 0 
N 50 74 0 
N 13 76 0 
N 19 6 0 
N 56 44 0 
N 75 76 0 
N 55 42 0 
N 68 59 0 
N 86 30 0 
N 6 62 0 
N 92 16 0 
N 27 51 0 
N 85 26 0 
N 72 83 0 
N 12 81 0 
N 38 13 0 
N 71 53 0 
N 99 61 0 
N 26 50 0 
N 68 82 0 
N 86 33 0 
N 11 34 0 
N 6 19 0 
N 77 99 0 
N 38 9 0 
N 66 65 0 
N 60 28 0 
N 10 40 0 
N 47 99 0 
N 51 60 0 
N 22 2 0 
N 45 6 0 
N 51 95 0 
N 86 85 0 
N 21 2 0 
N 29 44 0 
N 86 34 0 
N 42 68 0 
N 4 5 0 
N 29 94 0 
N 95 4 0 
N 75 5 0 
N 87 35 0 
N 0 23 0 
N 10 38 0 
N 10 66 0 
N 85 30 0 
N 6 36 0 
N 61 66 0 
N 20 21 0 
N 32 23 0 
N 31 66 0 
N 20 22 0 
N 9 37 0 
N 20 38 0 
N 70 5 0 
N 65 50 0 
N 29 39 0 
N 9 5 0 
N 5 1 0 
N 58 28 0 
N 63 89 0 
N 27 97 0 
N 38 14 0 
N 79 16 0 
N 16 70 0 
N 84 71 0 
N 62 16 0 
N 20 13 0 
N 59 17 0 
N 31 70 0 
N 34 30 0 
N 38 19 0 
N 43 22 0 
N 83 63 0 
N 78 70 0 
N 82 25 0 
N 44 49 0 
N 92 6 0 
N 39 7 0 
N 11 37 0 
N 42 43 0 
N 67 54 0 
N 48 80 0 
N 47 75 0 
N 6 59 0 
N 5 66 0 
N 39 65 0 
N 59 64 0 
N 36 26 0 
N 71 3 0 
N 52 70 0 
N 67 63 0 
N 67 66 0 
N 73 66 0 
N 63 52 0 
N 50 65 0 
N 10 33 0 
N 58 18 0 
N 60 43 0 
N 6 39 0 
N 45 99 0 
N 79 62 0 
N 77 37 0 
N 95 19 0 
N 43 44 0 
N 7 99 0 
N 45 66 0 
N 54 24 0 
N 67 19 0 
N 35 53 0 
N 78 9 0 
N 46 96 0 
N 39 56 0 
N 97 53 0 
N 9 98 0 
N 40 71 0 
N 68 25 0 
N 55 99 0 
N 79 87 0 
N 13 80 0 
N 13 83 0 
N 12 0 0 
N 24 47 0 
N 98 66 0 
N 46 45 0 
N 52 63 0 
N 43 70 0 
N 69 51 0 
N 20 8 0 
N 74 85 0 
N 38 22 0 
N 93 24 0 
N 50 81 0 
N 43 47 0 
N 87 40 0 
N 77 81 0 
N 5 45 0 
N 21 11 0 
N 51 26 0 
N 97 55 0 
N 3 63 0 
N 3 87 0 
N 68 22 0 
N 37 50 0 
N 42 55 0 
N 23 38 0 
N 4 70 0 
N 82 38 0 
N 4 59 0 
N 17 68 0 
N 12 84 0 
N 20 67 0 
N 12 74 0 
N 69 55 0 
N 61 26 0 
N 9 62 0 
N 69 74 0 
N 77 84 0 
N 45 93 0 
N 17 63 0 
N 80 61 0 
N 5 38 0 
N 2 65 0 
N 18 66 0 
N 44 10 0 
N 36 25 0 
N 45 4 0 
N 15 65 0 
N 95 5 0 
N 18 41 0 
N 56 64 0 
N 89 91 0 
N 15 62 0 
N 77 66 0 
N 44 50 0 
N 99 96 0 
N 99 69 0 
N 74 9 0 
N 2 66 0 
N 91 28 0 
N 79 85 0 
N 54 64 0 
N 94 47 0 
N 7 38 0 
N 99 71 0 
N 66 2 0 
N 44 95 0 
N 62 39 0 
N 13 64 0 
N 95 89 0 
N 36 55 0 
N 97 89 0 
N 56 45 0 
N 77 12 0 
N 11 33 0 
N 65 47 0 
N 82 39 0 
N 45 64 0 
N 33 37 0 
N 43 67 0 
N 38 53 0 
N 66 73 0 
N 66 55 0 
N 42 76 0 
N 39 13 0 
N 78 80 0 
N 80 1 0 
N 7 63 0 
N 96 6 0 
N 57 32 0 
N 2 5 0 
N 62 43 0 
N 15 0 0 
N 95 90 0 
N 26 37 0 
N 42 40 0 
N 8 19 0 
N 66 46 0 
N 35 26 0 
N 95 25 0 
N 21 19 0 
N 13 82 0 
N 23 13 0 
N 81 58 0 
N 22 1 0 
N 30 14 0 
N 44 98 0 
N 72 68 0 
N 85 25 0 
N 1 20 0 
N 46 74 0 
N 5 5 0 
N 40 42 0 
N 95 6 0 
N 55 61 0 
N 12 78 0 
N 66 45 0 
N 41 54 0 
N 20 7 0 
N 56 10 0 
N 78 3 0 
N 21 1 0 
N 43 95 0 
N 58 53 0 
N 97 86 0 
N 22 36 0 
N 33 10 0 
N 5 6 0 
N 29 91 0 
N 86 88 0 
N 67 21 0 
N 4 56 0 
N 93 1 0 
N 47 1 0 
N 89 21 0 
N 4 62 0 
N 8 37 0 
N 82 31 0 
N 42 71 0 
N 7 79 0 
N 98 78 0 
N 68 19 0 
N 63 42 0 
N 50 91 0 
N 66 33 0 
N 39 96 0 
N 13 85 0 
N 21 61 0 
N 93 5 0 
N 3 66 0 
N 47 4 0 
N 78 6 0 
N 36 12 0 
N 5 63 0 
N 96 54 0 
N 36 20 0 
N 68 49 0 
N 30 42 0 
N 4 74 0 
N 48 4 0 
N 80 11 0 
N 75 96 0 
N 46 1 0 
N 42 53 0 
N 71 64 0 
N 12 77 0 
N 67 32 0 
N 71 45 0 
N 10 35 0 
N 51 97 0 
N 97 87 0 
N 87 33 0 
N 30 82 0 
N 92 57 0 
N 38 15 0 
N 20 12 0 
N 82 1 0 
N 64 50 0 
N 46 95 0 
N 12 2 0 
N 13 75 0 
N 78 84 0 
N 71 2 0 
N 82 3 0 
N 61 20 0 
N 95 0 0 
N 17 38 0 
N 40 44 0 
N 61 12 0 
N 69 65 0 
N 15 84 0 
N 85 67 0 
N 90 85 0 
N 84 73 0 
N 4 1 0 
N 43 41 0 
N 16 94 0 
N 90 53 0 
C 0 0 0 
C 20 0 0 
C 40 0 0 
C 60 0 0 
C 80 0 0 
C 100 0 0 
C 0 20 0 
C 20 20 0 
C 40 20 0 
C 60 20 0 
C 80 20 0 
C 100 20 0 
C 0 40 0 
C 20 40 0 
C 40 40 0 
C 60 40 0 
C 80 40 0 
C 100 40 0 
C 0 60 0 
C 20 60 0 
C 40 60 0 
C 60 60 0 
C 80 60 0 
C 100 60 0 
C 0 80 0 
C 20 80 0 
C 40 80 0 
C 60 80 0 
C 80 80 0 
C 100 80 0 
C 0 100 0 
C 20 100 0 
C 40 100 0 
C 60 100 0 
C 80 100 0 
C 100 100 0 
O 99 16 0 
O 99 1 0 
O 39 99 0 
O 13 73 0 
O 22 99 0 
O 11 99 0 
O 0 5 0 
O 36 0 0 
O 28 99 0 
O 0 99 0 
O 20 5 0 
547
Atoms. Timestep: 28
N 8 64 0 
N 81 86 0 
N 24 40 0 
N 45 82 0 
N 22 94 0 
N 14 97 0 
N 46 98 0 
N 45 98 0 
N 97 5 0 
N 35 44 0 
N 81 80 0 
N 5 58 0 
N 84 46 0 
N 60 68 0 
N 70 47 0 
N 35 70 0 
N 99 65 0 
N 43 5 0 
N 6 62 0 
N 3 1 0 
N 12 11 0 
N 75 86 0 
N 73 11 0 
N 2 1 0 
N 96 16 0 
N 39 16 0 
N 39 44 0 
N 85 32 0 
N 74 76 0 
N 92 7 0 
N 10 77 0 
N 49 12 0 
N 57 71 0 
N 4 46 0 
N 42 99 0 
N 49 72 0 
N 48 64 0 
N 39 56 0 
N 8 74 0 
N 46 81 0 
N 98 5 0 
N 51 55 0 
N 77 72 0 
N 80 27 0 
N 15 65 0 
N 95 89 0 
N 55 18 0 
N 38 7 0 
N 88 27 0 
N 13 76 0 
N 64 27 0 
N 32 29 0 
N 95 16 0 
N 5 44 0 
N 51 24 0 
N 20 14 0 
N 81 88 0 
N 89 68 0 
N 28 96 0 
N 92 31 0 
N 48 84 0 
N 82 94 0 
N 75 92 0 
N 39 21 0 
N 24 70 0 
N 4 16 0 
N 7 57 0 
N 69 97 0 
N 66 51 0 
N 95 2 0 
N 15 80 0 
N 83 73 0 
N 78 87 0 
N 6 5 0 
N 67 86 0 
N 83 28 0 
N 18 36 0 
N 14 81 0 
N 18 99 0 
N 16 35 0 
N 88 47 0 
N 13 5 0 
N 79 85 0 
N 29 95 0 
N 43 93 0 
N 29 65 0 
N 97 23 0 
N 42 90 0 
N 36 16 0 
N 29 1 0 
N 84 65 0 
N 68 69 0 
N 1 18 0 
N 43 89 0 
N 83 32 0 
N 20 13 0 
N 12 84 0 
N 39 98 0 
N 44 40 0 
N 13 78 0 
N 13 85 0 
N 95 22 0 
N 56 24 0 
N 19 34 0 
N 82 98 0 
N 8 80 0 
N 93 25 0 
N 81 28 0 
N 92 49 0 
N 13 62 0 
N 87 65 0 
N 98 19 0 
N 57 42 0 
N 88 66 0 
N 12 4 0 
N 1 99 0 
N 47 93 0 
N 57 18 0 
N 51 87 0 
N 80 64 0 
N 98 69 0 
N 82 48 0 
N 98 21 0 
N 37 12 0 
N 86 62 0 
N 81 84 0 
N 88 26 0 
N 12 95 0 
N 85 86 0 
N 17 68 0 
N 12 99 0 
N 65 29 0 
N 73 12 0 
N 97 1 0 
N 60 39 0 
N 39 89 0 
N 42 91 0 
N 39 17 0 
N 78 91 0 
N 7 13 0 
N 11 83 0 
N 59 22 0 
N 58 12 0 
N 68 24 0 
N 40 15 0 
N 53 37 0 
N 15 69 0 
N 42 96 0 
N 94 99 0 
N 70 17 0 
N 98 92 0 
N 79 89 0 
N 19 36 0 
N 71 48 0 
N 7 68 0 
N 42 56 0 
N 77 74 0 
N 19 94 0 
N 38 9 0 
N 26 65 0 
N 84 64 0 
N 84 87 0 
N 91 17 0 
N 69 69 0 
N 64 53 0 
N 33 39 0 
N 6 74 0 
N 38 5 0 
N 44 96 0 
N 78 72 0 
N 38 99 0 
N 56 34 0 
N 19 35 0 
N 77 28 0 
N 77 97 0 
N 42 58 0 
N 59 18 0 
N 63 37 0 
N 13 33 0 
N 83 66 0 
N 78 43 0 
N 47 67 0 
N 50 73 0 
N 13 75 0 
N 19 5 0 
N 56 45 0 
N 75 77 0 
N 56 42 0 
N 68 60 0 
N 87 30 0 
N 7 62 0 
N 93 16 0 
N 28 51 0 
N 85 27 0 
N 72 82 0 
N 12 80 0 
N 38 14 0 
N 71 52 0 
N 99 62 0 
N 25 50 0 
N 67 82 0 
N 87 33 0 
N 10 34 0 
N 6 18 0 
N 77 0 0 
N 39 9 0 
N 65 65 0 
N 60 29 0 
N 10 41 0 
N 46 99 0 
N 50 60 0 
N 22 3 0 
N 44 6 0 
N 50 95 0 
N 86 86 0 
N 21 3 0 
N 29 45 0 
N 85 34 0 
N 43 68 0 
N 3 5 0 
N 28 94 0 
N 94 4 0 
N 76 5 0 
N 88 35 0 
N 1 23 0 
N 11 38 0 
N 10 67 0 
N 84 30 0 
N 7 36 0 
N 61 67 0 
N 20 21 0 
N 31 23 0 
N 31 67 0 
N 20 22 0 
N 9 38 0 
N 19 38 0 
N 69 5 0 
N 64 50 0 
N 30 39 0 
N 10 5 0 
N 6 1 0 
N 58 27 0 
N 63 90 0 
N 27 98 0 
N 38 15 0 
N 80 16 0 
N 16 71 0 
N 84 70 0 
N 63 16 0 
N 20 12 0 
N 59 16 0 
N 31 69 0 
N 33 30 0 
N 38 18 0 
N 43 21 0 
N 82 63 0 
N 78 69 0 
N 83 25 0 
N 44 50 0 
N 91 6 0 
N 39 8 0 
N 10 37 0 
N 42 42 0 
N 66 54 0 
N 47 80 0 
N 46 75 0 
N 5 59 0 
N 5 67 0 
N 39 64 0 
N 59 63 0 
N 37 26 0 
N 72 3 0 
N 52 69 0 
N 68 63 0 
N 67 67 0 
N 73 67 0 
N 63 51 0 
N 49 65 0 
N 11 33 0 
N 58 19 0 
N 59 43 0 
N 5 39 0 
N 45 99 0 
N 79 61 0 
N 78 37 0 
N 96 19 0 
N 44 44 0 
N 8 99 0 
N 46 66 0 
N 54 23 0 
N 66 19 0 
N 35 54 0 
N 77 9 0 
N 46 97 0 
N 39 55 0 
N 98 53 0 
N 10 98 0 
N 39 71 0 
N 68 26 0 
N 54 99 0 
N 79 86 0 
N 13 80 0 
N 13 82 0 
N 11 0 0 
N 23 47 0 
N 98 67 0 
N 46 46 0 
N 51 63 0 
N 43 71 0 
N 70 51 0 
N 20 7 0 
N 74 84 0 
N 39 22 0 
N 93 23 0 
N 50 82 0 
N 43 48 0 
N 88 40 0 
N 77 82 0 
N 4 45 0 
N 21 10 0 
N 50 26 0 
N 98 55 0 
N 4 63 0 
N 3 88 0 
N 69 22 0 
N 36 50 0 
N 43 55 0 
N 23 37 0 
N 5 70 0 
N 82 37 0 
N 3 59 0 
N 17 69 0 
N 12 83 0 
N 19 67 0 
N 12 73 0 
N 70 55 0 
N 60 26 0 
N 9 63 0 
N 69 73 0 
N 78 84 0 
N 45 94 0 
N 16 63 0 
N 81 61 0 
N 6 38 0 
N 3 65 0 
N 18 67 0 
N 44 11 0 
N 37 25 0 
N 45 5 0 
N 15 66 0 
N 94 5 0 
N 17 41 0 
N 56 63 0 
N 88 91 0 
N 15 63 0 
N 76 66 0 
N 43 50 0 
N 99 97 0 
N 99 70 0 
N 73 9 0 
N 3 66 0 
N 92 28 0 
N 79 84 0 
N 53 64 0 
N 93 47 0 
N 7 37 0 
N 98 71 0 
N 66 3 0 
N 43 95 0 
N 61 39 0 
N 13 65 0 
N 95 90 0 
N 35 55 0 
N 96 89 0 
N 57 45 0 
N 77 13 0 
N 12 33 0 
N 66 47 0 
N 82 40 0 
N 45 65 0 
N 33 38 0 
N 44 67 0 
N 38 52 0 
N 66 74 0 
N 67 55 0 
N 42 77 0 
N 39 14 0 
N 78 79 0 
N 81 1 0 
N 7 64 0 
N 96 5 0 
N 57 31 0 
N 1 5 0 
N 62 44 0 
N 15 1 0 
N 94 90 0 
N 27 37 0 
N 42 39 0 
N 9 19 0 
N 65 46 0 
N 34 26 0 
N 96 25 0 
N 20 19 0 
N 13 81 0 
N 23 12 0 
N 81 59 0 
N 22 1 0 
N 30 15 0 
N 44 99 0 
N 71 68 0 
N 85 24 0 
N 2 20 0 
N 45 74 0 
N 5 5 0 
N 41 42 0 
N 94 6 0 
N 55 60 0 
N 12 77 0 
N 67 45 0 
N 41 55 0 
N 20 6 0 
N 55 10 0 
N 78 2 0 
N 21 1 0 
N 42 95 0 
N 57 53 0 
N 96 86 0 
N 21 36 0 
N 34 10 0 
N 4 6 0 
N 28 91 0 
N 86 87 0 
N 67 20 0 
N 3 56 0 
N 94 1 0 
N 46 1 0 
N 90 21 0 
N 5 62 0 
N 8 36 0 
N 82 32 0 
N 41 71 0 
N 7 78 0 
N 98 77 0 
N 68 18 0 
N 63 41 0 
N 50 92 0 
N 66 32 0 
N 39 97 0 
N 13 84 0 
N 21 62 0 
N 92 5 0 
N 4 66 0 
N 46 4 0 
N 77 6 0 
N 36 11 0 
N 5 64 0 
N 96 53 0 
N 36 19 0 
N 69 49 0 
N 30 41 0 
N 5 74 0 
N 48 5 0 
N 79 11 0 
N 75 95 0 
N 46 2 0 
N 41 53 0 
N 72 64 0 
N 12 76 0 
N 68 32 0 
N 70 45 0 
N 10 36 0 
N 51 98 0 
N 96 87 0 
N 88 33 0 
N 30 83 0 
N 91 57 0 
N 39 15 0 
N 20 11 0 
N 83 1 0 
N 63 50 0 
N 45 95 0 
N 11 2 0 
N 13 74 0 
N 78 83 0 
N 70 2 0 
N 83 3 0 
N 62 20 0 
N 95 1 0 
N 17 39 0 
N 40 43 0 
N 60 12 0 
N 68 65 0 
N 15 83 0 
N 85 66 0 
N 91 85 0 
N 84 74 0 
N 4 1 0 
N 42 41 0 
N 16 95 0 
N 91 53 0 
C 0 0 0 
C 20 0 0 
C 40 0 0 
C 60 0 0 
C 80 0 0 
C 100 0 0 
C 0 20 0 
C 20 20 0 
C 40 20 0 
C 60 20 0 
C 80 20 0 
C 100 20 0 
C 0 40 0 
C 20 40 0 
C 40 40 0 
C 60 40 0 
C 80 40 0 
C 100 40 0 
C 0 60 0 
C 20 60 0 
C 40 60 0 
C 60 60 0 
C 80 60 0 
C 100 60 0 
C 0 80 0 
C 20 80 0 
C 40 80 0 
C 60 80 0 
C 80 80 0 
C 100 80 0 
C 0 100 0 
C 20 100 0 
C 40 100 0 
C 60 100 0 
C 80 100 0 
C 100 100 0 
O 99 15 0 
O 99 0 0 
O 40 99 0 
O 13 72 0 
O 22 0 0 
O 10 99 0 
O 99 5 0 
O 35 0 0 
O 27 99 0 
O 99 99 0 
O 20 4 0 
543
Atoms. Timestep: 29
N 8 65 0 
N 81 85 0 
N 24 41 0 
N 45 81 0 
N 21 94 0 
N 14 96 0 
N 45 98 0 
N 44 98 0 
N 97 4 0 
N 36 44 0 
N 81 81 0 
N 5 59 0 
N 85 46 0 
N 61 68 0 
N 71 47 0 
N 34 70 0 
N 98 65 0 
N 42 5 0 
N 7 62 0 
N 3 0 0 
N 13 11 0 
N 74 86 0 
N 73 12 0 
N 2 0 0 
N 96 15 0 
N 39 17 0 
N 40 44 0 
N 85 31 0 
N 75 76 0 
N 93 7 0 
N 10 76 0 
N 48 12 0 
N 56 71 0 
N 4 47 0 
N 41 99 0 
N 49 71 0 
N 48 63 0 
N 38 56 0 
N 8 73 0 
N 46 82 0 
N 99 5 0 
N 51 54 0 
N 78 72 0 
N 80 26 0 
N 15 66 0 
N 96 89 0 
N 55 19 0 
N 38 8 0 
N 87 27 0 
N 13 75 0 
N 64 26 0 
N 31 29 0 
N 95 15 0 
N 5 45 0 
N 51 25 0 
N 20 15 0 
N 81 87 0 
N 90 68 0 
N 29 96 0 
N 93 31 0 
N 49 84 0 
N 83 94 0 
N 75 91 0 
N 39 20 0 
N 24 71 0 
N 5 16 0 
N 7 56 0 
N 69 98 0 
N 66 52 0 
N 96 2 0 
N 15 79 0 
N 83 74 0 
N 78 88 0 
N 6 4 0 
N 68 86 0 
N 83 27 0 
N 18 37 0 
N 14 80 0 
N 18 98 0 
N 16 34 0 
N 87 47 0 
N 14 5 0 
N 80 85 0 
N 30 95 0 
N 42 93 0 
N 28 65 0 
N 98 23 0 
N 42 91 0 
N 35 16 0 
N 30 1 0 
N 84 64 0 
N 68 68 0 
N 1 17 0 
N 42 89 0 
N 83 31 0 
N 20 12 0 
N 12 83 0 
N 40 98 0 
N 44 39 0 
N 13 77 0 
N 13 84 0 
N 95 21 0 
N 56 23 0 
N 19 35 0 
N 82 99 0 
N 9 80 0 
N 93 24 0 
N 82 28 0 
N 91 49 0 
N 13 63 0 
N 88 65 0 
N 98 18 0 
N 57 41 0 
N 87 66 0 
N 13 4 0 
N 2 99 0 
N 46 93 0 
N 56 18 0 
N 51 88 0 
N 81 64 0 
N 97 69 0 
N 82 49 0 
N 99 21 0 
N 37 11 0 
N 86 61 0 
N 81 83 0 
N 87 26 0 
N 12 96 0 
N 85 85 0 
N 16 68 0 
N 12 0 0 
N 65 30 0 
N 73 13 0 
N 97 0 0 
N 61 39 0 
N 40 89 0 
N 42 92 0 
N 40 17 0 
N 78 92 0 
N 7 14 0 
N 11 82 0 
N 59 21 0 
N 57 12 0 
N 68 25 0 
N 40 16 0 
N 53 36 0 
N 15 70 0 
N 42 97 0 
N 95 99 0 
N 69 17 0 
N 98 93 0 
N 78 89 0 
N 19 37 0 
N 71 49 0 
N 7 69 0 
N 41 56 0 
N 78 74 0 
N 20 94 0 
N 39 9 0 
N 26 66 0 
N 84 63 0 
N 83 87 0 
N 91 16 0 
N 69 68 0 
N 64 52 0 
N 33 38 0 
N 7 74 0 
N 39 5 0 
N 44 97 0 
N 78 73 0 
N 39 99 0 
N 57 34 0 
N 20 35 0 
N 76 28 0 
N 77 98 0 
N 43 58 0 
N 59 19 0 
N 64 37 0 
N 14 33 0 
N 84 66 0 
N 78 42 0 
N 48 67 0 
N 49 73 0 
N 13 74 0 
N 19 4 0 
N 55 45 0 
N 76 77 0 
N 56 43 0 
N 68 59 0 
N 86 30 0 
N 7 63 0 
N 94 16 0 
N 29 51 0 
N 86 27 0 
N 71 82 0 
N 13 80 0 
N 39 14 0 
N 71 51 0 
N 0 62 0 
N 25 49 0 
N 66 82 0 
N 87 34 0 
N 10 33 0 
N 6 19 0 
N 76 0 0 
N 40 9 0 
N 66 65 0 
N 59 29 0 
N 10 42 0 
N 45 99 0 
N 50 61 0 
N 21 3 0 
N 43 6 0 
N 49 95 0 
N 86 85 0 
N 20 3 0 
N 29 44 0 
N 85 33 0 
N 43 67 0 
N 3 5 0 
N 28 93 0 
N 94 5 0 
N 76 4 0 
N 87 35 0 
N 2 23 0 
N 12 38 0 
N 11 67 0 
N 84 29 0 
N 7 37 0 
N 60 67 0 
N 20 21 0 
N 31 24 0 
N 32 67 0 
N 20 22 0 
N 9 39 0 
N 20 38 0 
N 69 4 0 
N 63 50 0 
N 29 39 0 
N 11 5 0 
N 6 0 0 
N 58 28 0 
N 62 90 0 
N 27 99 0 
N 38 16 0 
N 81 16 0 
N 16 72 0 
N 83 70 0 
N 62 16 0 
N 20 11 0 
N 60 16 0 
N 30 69 0 
N 32 30 0 
N 39 18 0 
N 44 21 0 
N 83 63 0 
N 78 68 0 
N 83 26 0 
N 45 50 0 
N 92 6 0 
N 40 8 0 
N 10 38 0 
N 43 42 0 
N 66 53 0 
N 47 81 0 
N 46 76 0 
N 5 60 0 
N 5 68 0 
N 39 63 0 
N 58 63 0 
N 37 25 0 
N 72 4 0 
N 53 69 0 
N 68 64 0 
N 66 67 0 
N 72 67 0 
N 62 51 0 
N 49 64 0 
N 11 34 0 
N 58 18 0 
N 59 44 0 
N 6 39 0 
N 44 99 0 
N 80 61 0 
N 78 38 0 
N 97 19 0 
N 44 45 0 
N 8 98 0 
N 47 66 0 
N 53 23 0 
N 65 19 0 
N 35 55 0 
N 77 8 0 
N 45 97 0 
N 38 55 0 
N 97 53 0 
N 10 99 0 
N 40 71 0 
N 68 27 0 
N 53 99 0 
N 79 87 0 
N 13 79 0 
N 13 82 0 
N 10 0 0 
N 24 47 0 
N 98 68 0 
N 47 46 0 
N 50 63 0 
N 42 71 0 
N 70 50 0 
N 20 6 0 
N 75 84 0 
N 38 22 0 
N 94 23 0 
N 50 83 0 
N 44 48 0 
N 87 40 0 
N 77 83 0 
N 4 44 0 
N 21 11 0 
N 51 26 0 
N 97 55 0 
N 4 64 0 
N 4 88 0 
N 68 22 0 
N 37 50 0 
N 43 54 0 
N 23 36 0 
N 6 70 0 
N 82 38 0 
N 2 59 0 
N 17 70 0 
N 12 82 0 
N 19 68 0 
N 12 72 0 
N 70 54 0 
N 59 26 0 
N 10 63 0 
N 69 74 0 
N 79 84 0 
N 45 95 0 
N 15 63 0 
N 81 60 0 
N 6 37 0 
N 3 66 0 
N 17 67 0 
N 44 12 0 
N 38 25 0 
N 44 5 0 
N 15 67 0 
N 95 5 0 
N 18 41 0 
N 55 63 0 
N 89 91 0 
N 14 63 0 
N 75 66 0 
N 42 50 0 
N 99 98 0 
N 98 70 0 
N 72 9 0 
N 4 66 0 
N 93 28 0 
N 80 84 0 
N 53 65 0 
N 93 46 0 
N 8 37 0 
N 97 71 0 
N 66 4 0 
N 42 95 0 
N 62 39 0 
N 13 66 0 
N 95 91 0 
N 35 56 0 
N 96 90 0 
N 57 46 0 
N 77 12 0 
N 12 34 0 
N 66 48 0 
N 83 40 0 
N 45 66 0 
N 32 38 0 
N 44 68 0 
N 38 51 0 
N 67 74 0 
N 66 55 0 
N 41 77 0 
N 40 14 0 
N 78 78 0 
N 80 1 0 
N 7 65 0 
N 96 5 0 
N 56 31 0 
N 2 5 0 
N 62 45 0 
N 14 1 0 
N 94 91 0 
N 28 37 0 
N 43 39 0 
N 10 19 0 
N 66 46 0 
N 33 26 0 
N 96 24 0 
N 20 18 0 
N 13 81 0 
N 23 11 0 
N 81 58 0 
N 22 0 0 
N 30 16 0 
N 43 99 0 
N 71 69 0 
N 85 25 0 
N 2 19 0 
N 46 74 0 
N 5 5 0 
N 40 42 0 
N 95 6 0 
N 55 61 0 
N 12 76 0 
N 66 45 0 
N 40 55 0 
N 20 5 0 
N 55 11 0 
N 78 1 0 
N 20 1 0 
N 41 95 0 
N 57 52 0 
N 97 86 0 
N 22 36 0 
N 34 9 0 
N 4 5 0 
N 28 92 0 
N 85 87 0 
N 68 20 0 
N 3 57 0 
N 94 0 0 
N 46 2 0 
N 90 20 0 
N 5 63 0 
N 9 36 0 
N 81 32 0 
N 41 72 0 
N 7 77 0 
N 98 76 0 
N 68 17 0 
N 64 41 0 
N 49 92 0 
N 67 32 0 
N 40 97 0 
N 13 83 0 
N 20 62 0 
N 93 5 0 
N 4 67 0 
N 46 5 0 
N 78 6 0 
N 35 11 0 
N 6 64 0 
N 96 54 0 
N 35 19 0 
N 68 49 0 
N 29 41 0 
N 5 73 0 
N 48 6 0 
N 80 11 0 
N 74 95 0 
N 46 3 0 
N 41 54 0 
N 72 65 0 
N 12 75 0 
N 68 31 0 
N 70 44 0 
N 11 36 0 
N 51 99 0 
N 97 87 0 
N 88 32 0 
N 29 83 0 
N 91 58 0 
N 39 15 0 
N 20 10 0 
N 84 1 0 
N 63 49 0 
N 45 96 0 
N 11 3 0 
N 13 73 0 
N 79 83 0 
N 69 2 0 
N 83 4 0 
N 63 20 0 
N 95 0 0 
N 17 40 0 
N 41 43 0 
N 59 12 0 
N 69 65 0 
N 15 82 0 
N 85 65 0 
N 90 85 0 
N 85 74 0 
N 4 0 0 
N 41 41 0 
N 15 95 0 
N 92 53 0 
C 0 0 0 
C 20 0 0 
C 40 0 0 
C 60 0 0 
C 80 0 0 
C 100 0 0 
C 0 20 0 
C 20 20 0 
C 40 20 0 
C 60 20 0 
C 80 20 0 
C 100 20 0 
C 0 40 0 
C 20 40 0 
C 40 40 0 
C 60 40 0 
C 80 40 0 
C 100 40 0 
C 0 60 0 
C 20 60 0 
C 40 60 0 
C 60 60 0 
C 80 60 0 
C 100 60 0 
C 0 80 0 
C 20 80 0 
C 40 80 0 
C 60 80 0 
C 80 80 0 
C 100 80 0 
C 0 100 0 
C 20 100 0 
C 40 100 0 
C 60 100 0 
C 80 100 0 
C 100 100 0 
O 99 14 0 
O 99 99 0 
O 40 99 0 
O 13 71 0 
O 35 99 0 
O 0 99 0 
O 20 4 0 
540
Atoms. Timestep: 30
N 9 65 0 
N 80 85 0 
N 25 41 0 
N 45 80 0 
N 22 94 0 
N 13 96 0 
N 44 98 0 
N 43 98 0 
N 97 5 0 
N 36 43 0 
N 81 80 0 
N 4 59 0 
N 85 47 0 
N 62 68 0 
N 71 46 0 
N 35 70 0 
N 98 66 0 
N 41 5 0 
N 7 63 0 
N 2 0 0 
N 13 12 0 
N 74 85 0 
N 73 13 0 
N 1 0 0 
N 97 15 0 
N 40 17 0 
N 40 43 0 
N 85 30 0 
N 74 76 0 
N 93 8 0 
N 10 75 0 
N 49 12 0 
N 56 70 0 
N 5 47 0 
N 41 99 0 
N 49 70 0 
N 48 62 0 
N 39 56 0 
N 8 72 0 
N 47 82 0 
N 99 6 0 
N 51 55 0 
N 77 72 0 
N 81 26 0 
N 14 66 0 
N 96 90 0 
N 56 19 0 
N 37 8 0 
N 86 27 0 
N 13 74 0 
N 63 26 0 
N 30 29 0 
N 95 14 0 
N 5 46 0 
N 52 25 0 
N 21 15 0 
N 81 86 0 
N 89 68 0 
N 30 96 0 
N 93 30 0 
N 48 84 0 
N 83 95 0 
N 75 90 0 
N 39 21 0 
N 23 71 0 
N 5 15 0 
N 6 56 0 
N 70 98 0 
N 66 53 0 
N 95 2 0 
N 15 78 0 
N 83 73 0 
N 77 88 0 
N 6 5 0 
N 68 85 0 
N 82 27 0 
N 17 37 0 
N 14 79 0 
N 18 99 0 
N 16 33 0 
N 88 47 0 
N 13 5 0 
N 80 86 0 
N 31 95 0 
N 42 94 0 
N 27 65 0 
N 98 22 0 
N 41 91 0 
N 35 17 0 
N 29 1 0 
N 85 64 0 
N 68 67 0 
N 2 17 0 
N 42 90 0 
N 83 30 0 
N 20 13 0 
N 12 83 0 
N 39 98 0 
N 44 38 0 
N 13 77 0 
N 13 84 0 
N 95 20 0 
N 55 23 0 
N 20 35 0 
N 81 99 0 
N 9 79 0 
N 93 23 0 
N 81 28 0 
N 91 50 0 
N 13 64 0 
N 88 66 0 
N 99 18 0 
N 58 41 0 
N 87 65 0 
N 12 4 0 
N 1 99 0 
N 46 94 0 
N 57 18 0 
N 52 88 0 
N 81 63 0 
N 96 69 0 
N 81 49 0 
N 99 20 0 
N 36 11 0 
N 86 60 0 
N 82 83 0 
N 88 26 0 
N 11 96 0 
N 84 85 0 
N 16 69 0 
N 12 1 0 
N 65 31 0 
N 74 13 0 
N 97 1 0 
N 62 39 0 
N 39 89 0 
N 41 92 0 
N 40 18 0 
N 78 93 0 
N 8 14 0 
N 12 82 0 
N 58 21 0 
N 57 11 0 
N 67 25 0 
N 39 16 0 
N 53 37 0 
N 15 71 0 
N 42 98 0 
N 94 99 0 
N 70 17 0 
N 97 93 0 
N 79 89 0 
N 20 37 0 
N 71 48 0 
N 8 69 0 
N 41 57 0 
N 78 73 0 
N 20 95 0 
N 39 10 0 
N 25 66 0 
N 85 63 0 
N 83 88 0 
N 92 16 0 
N 70 68 0 
N 65 52 0 
N 33 39 0 
N 7 73 0 
N 38 5 0 
N 43 97 0 
N 77 73 0 
N 40 99 0 
N 57 33 0 
N 21 35 0 
N 75 28 0 
N 78 98 0 
N 43 59 0 
N 59 20 0 
N 63 37 0 
N 15 33 0 
N 85 66 0 
N 78 43 0 
N 48 66 0 
N 50 73 0 
N 13 73 0 
N 19 3 0 
N 55 44 0 
N 77 77 0 
N 57 43 0 
N 68 60 0 
N 86 29 0 
N 8 63 0 
N 94 15 0 
N 28 51 0 
N 86 26 0 
N 71 81 0 
N 13 79 0 
N 39 15 0 
N 71 50 0 
N 0 63 0 
N 26 49 0 
N 67 82 0 
N 87 33 0 
N 9 33 0 
N 6 18 0 
N 76 1 0 
N 40 10 0 
N 65 65 0 
N 59 28 0 
N 9 42 0 
N 44 99 0 
N 50 62 0 
N 22 3 0 
N 43 7 0 
N 49 96 0 
N 86 84 0 
N 20 3 0 
N 29 45 0 
N 84 33 0 
N 43 68 0 
N 3 6 0 
N 29 93 0 
N 94 6 0 
N 77 4 0 
N 88 35 0 
N 3 23 0 
N 12 37 0 
N 12 67 0 
N 84 28 0 
N 7 36 0 
N 60 68 0 
N 19 21 0 
N 30 24 0 
N 32 66 0 
N 19 22 0 
N 9 40 0 
N 19 38 0 
N 69 5 0 
N 64 50 0 
N 30 39 0 
N 10 5 0 
N 6 1 0 
N 58 29 0 
N 61 90 0 
N 28 99 0 
N 38 17 0 
N 81 15 0 
N 16 71 0 
N 83 71 0 
N 62 17 0 
N 20 10 0 
N 60 15 0 
N 30 70 0 
N 32 29 0 
N 39 19 0 
N 45 21 0 
N 82 63 0 
N 79 68 0 
N 84 26 0 
N 46 50 0 
N 92 7 0 
N 40 8 0 
N 10 37 0 
N 44 42 0 
N 65 53 0 
N 46 81 0 
N 46 77 0 
N 5 61 0 
N 6 68 0 
N 40 63 0 
N 58 64 0 
N 36 25 0 
N 73 4 0 
N 53 68 0 
N 69 64 0 
N 66 68 0 
N 72 66 0 
N 63 51 0 
N 49 65 0 
N 11 35 0 
N 58 19 0 
N 59 43 0 
N 6 40 0 
N 43 99 0 
N 80 62 0 
N 78 37 0 
N 97 18 0 
N 44 44 0 
N 7 98 0 
N 47 65 0 
N 53 22 0 
N 64 19 0 
N 35 54 0 
N 78 8 0 
N 45 97 0 
N 37 55 0 
N 96 53 0 
N 9 99 0 
N 40 70 0 
N 68 28 0 
N 52 99 0 
N 79 88 0 
N 13 78 0 
N 13 82 0 
N 10 1 0 
N 25 47 0 
N 98 69 0 
N 47 47 0 
N 50 64 0 
N 43 71 0 
N 70 51 0 
N 21 6 0 
N 74 84 0 
N 38 23 0 
N 95 23 0 
N 49 83 0 
N 43 48 0 
N 87 39 0 
N 76 83 0 
N 3 44 0 
N 21 10 0 
N 50 26 0 
N 97 56 0 
N 4 65 0 
N 3 88 0 
N 69 22 0 
N 38 50 0 
N 43 53 0 
N 23 37 0 
N 7 70 0 
N 82 37 0 
N 2 60 0 
N 16 70 0 
N 12 81 0 
N 19 69 0 
N 12 71 0 
N 70 55 0 
N 59 25 0 
N 11 63 0 
N 69 73 0 
N 79 85 0 
N 44 95 0 
N 15 64 0 
N 82 60 0 
N 6 36 0 
N 4 66 0 
N 17 68 0 
N 43 12 0 
N 38 24 0 
N 44 6 0 
N 15 68 0 
N 95 6 0 
N 18 40 0 
N 54 63 0 
N 88 91 0 
N 14 64 0 
N 76 66 0 
N 42 51 0 
N 99 99 0 
N 98 71 0 
N 72 10 0 
N 5 66 0 
N 94 28 0 
N 81 84 0 
N 52 65 0 
N 94 46 0 
N 8 36 0 
N 96 71 0 
N 66 3 0 
N 41 95 0 
N 62 40 0 
N 13 67 0 
N 95 92 0 
N 34 56 0 
N 97 90 0 
N 58 46 0 
N 77 11 0 
N 12 35 0 
N 65 48 0 
N 83 41 0 
N 45 67 0 
N 31 38 0 
N 44 67 0 
N 37 51 0 
N 68 74 0 
N 65 55 0 
N 40 77 0 
N 40 14 0 
N 77 78 0 
N 81 1 0 
N 7 66 0 
N 96 6 0 
N 56 32 0 
N 1 5 0 
N 62 44 0 
N 14 2 0 
N 94 92 0 
N 28 36 0 
N 43 40 0 
N 11 19 0 
N 66 47 0 
N 34 26 0 
N 96 23 0 
N 21 18 0 
N 13 81 0 
N 24 11 0 
N 81 59 0 
N 22 1 0 
N 31 16 0 
N 42 99 0 
N 70 69 0 
N 84 25 0 
N 2 18 0 
N 46 75 0 
N 4 5 0 
N 39 42 0 
N 95 7 0 
N 56 61 0 
N 13 76 0 
N 65 45 0 
N 40 54 0 
N 20 4 0 
N 54 11 0 
N 78 2 0 
N 20 2 0 
N 40 95 0 
N 58 52 0 
N 98 86 0 
N 22 35 0 
N 35 9 0 
N 4 6 0 
N 29 92 0 
N 84 87 0 
N 68 21 0 
N 3 56 0 
N 94 1 0 
N 46 3 0 
N 90 19 0 
N 5 64 0 
N 9 35 0 
N 81 31 0 
N 41 73 0 
N 8 77 0 
N 98 75 0 
N 67 17 0 
N 64 40 0 
N 48 92 0 
N 66 32 0 
N 40 97 0 
N 13 83 0 
N 19 62 0 
N 93 6 0 
N 4 68 0 
N 46 6 0 
N 77 6 0 
N 35 12 0 
N 7 64 0 
N 96 55 0 
N 35 20 0 
N 68 48 0 
N 29 40 0 
N 6 73 0 
N 47 6 0 
N 80 10 0 
N 73 95 0 
N 46 4 0 
N 41 55 0 
N 72 64 0 
N 12 74 0 
N 67 31 0 
N 70 45 0 
N 12 36 0 
N 50 99 0 
N 97 88 0 
N 87 32 0 
N 28 83 0 
N 90 58 0 
N 40 15 0 
N 20 9 0 
N 85 1 0 
N 62 49 0 
N 44 96 0 
N 11 4 0 
N 14 73 0 
N 80 83 0 
N 68 2 0 
N 83 5 0 
N 62 20 0 
N 96 0 0 
N 17 41 0 
N 41 44 0 
N 60 12 0 
N 69 66 0 
N 14 82 0 
N 86 65 0 
N 91 85 0 
N 85 73 0 
N 4 1 0 
N 41 40 0 
N 16 95 0 
N 91 53 0 
C 0 0 0 
C 20 0 0 
C 40 0 0 
C 60 0 0 
C 80 0 0 
C 100 0 0 
C 0 20 0 
C 20 20 0 
C 40 20 0 
C 60 20 0 
C 80 20 0 
C 100 20 0 
C 0 40 0 
C 20 40 0 
C 40 40 0 
C 60 40 0 
C 80 40 0 
C 100 40 0 
C 0 60 0 
C 20 60 0 
C 40 60 0 
C 60 60 0 
C 80 60 0 
C 100 60 0 
C 0 80 0 
C 20 80 0 
C 40 80 0 
C 60 80 0 
C 80 80 0 
C 100 80 0 
C 0 100 0 
C 20 100 0 
C 40 100 0 
C 60 100 0 
C 80 100 0 
C 100 100 0 
O 99 13 0 
O 13 70 0 
O 36 99 0 
O 0 99 0 
539
Atoms. Timestep: 31
N 9 66 0 
N 79 85 0 
N 26 41 0 
N 45 81 0 
N 23 94 0 
N 13 97 0 
N 43 98 0 
N 42 98 0 
N 98 5 0 
N 36 42 0 
N 81 81 0 
N 4 60 0 
N 85 46 0 
N 62 67 0 
N 70 46 0 
N 35 71 0 
N 97 66 0 
N 40 5 0 
N 8 63 0 
N 2 1 0 
N 14 12 0 
N 73 85 0 
N 72 13 0 
N 1 1 0 
N 97 14 0 
N 40 18 0 
N 40 42 0 
N 85 31 0 
N 74 75 0 
N 94 8 0 
N 10 74 0 
N 48 12 0 
N 55 70 0 
N 6 47 0 
N 40 99 0 
N 49 69 0 
N 48 63 0 
N 38 56 0 
N 8 71 0 
N 47 83 0 
N 99 7 0 
N 51 54 0 
N 77 71 0 
N 80 26 0 
N 14 67 0 
N 96 91 0 
N 56 20 0 
N 36 8 0 
N 87 27 0 
N 13 73 0 
N 62 26 0 
N 30 28 0 
N 95 13 0 
N 6 46 0 
N 53 25 0 
N 22 15 0 
N 82 86 0 
N 88 68 0 
N 30 97 0 
N 92 30 0 
N 48 85 0 
N 82 95 0 
N 75 91 0 
N 39 22 0 
N 22 71 0 
N 6 15 0 
N 6 57 0 
N 70 97 0 
N 66 54 0 
N 95 3 0 
N 15 77 0 
N 83 74 0 
N 77 87 0 
N 6 6 0 
N 69 85 0 
N 82 28 0 
N 17 38 0 
N 14 78 0 
N 19 99 0 
N 15 33 0 
N 89 47 0 
N 12 5 0 
N 79 86 0 
N 31 96 0 
N 42 95 0 
N 26 65 0 
N 99 22 0 
N 40 91 0 
N 36 17 0 
N 30 1 0 
N 84 64 0 
N 67 67 0 
N 3 17 0 
N 41 90 0 
N 84 30 0 
N 20 14 0 
N 12 82 0 
N 38 98 0 
N 44 37 0 
N 13 76 0 
N 13 84 0 
N 96 20 0 
N 56 23 0 
N 21 35 0 
N 81 98 0 
N 10 79 0 
N 94 23 0 
N 80 28 0 
N 90 50 0 
N 13 65 0 
N 88 65 0 
N 99 17 0 
N 58 42 0 
N 87 64 0 
N 11 4 0 
N 0 99 0 
N 46 95 0 
N 56 18 0 
N 51 88 0 
N 80 63 0 
N 95 69 0 
N 81 48 0 
N 99 19 0 
N 36 11 0 
N 87 60 0 
N 81 83 0 
N 89 26 0 
N 10 96 0 
N 83 85 0 
N 16 69 0 
N 12 2 0 
N 65 32 0 
N 74 14 0 
N 97 2 0 
N 62 38 0 
N 39 90 0 
N 40 92 0 
N 41 18 0 
N 78 92 0 
N 9 14 0 
N 12 81 0 
N 59 21 0 
N 58 11 0 
N 68 25 0 
N 39 17 0 
N 52 37 0 
N 15 72 0 
N 41 98 0 
N 93 99 0 
N 69 17 0 
N 97 94 0 
N 78 89 0 
N 20 38 0 
N 71 47 0 
N 9 69 0 
N 42 57 0 
N 79 73 0 
N 20 96 0 
N 38 10 0 
N 24 66 0 
N 84 63 0 
N 82 88 0 
N 93 16 0 
N 70 69 0 
N 64 52 0 
N 33 40 0 
N 8 73 0 
N 38 6 0 
N 42 97 0 
N 76 73 0 
N 39 99 0 
N 57 32 0 
N 22 35 0 
N 75 29 0 
N 78 97 0 
N 43 58 0 
N 59 19 0 
N 63 38 0 
N 15 32 0 
N 85 65 0 
N 78 42 0 
N 48 67 0 
N 50 74 0 
N 13 72 0 
N 19 2 0 
N 54 44 0 
N 78 77 0 
N 57 42 0 
N 67 60 0 
N 86 30 0 
N 9 63 0 
N 95 15 0 
N 28 52 0 
N 87 26 0 
N 70 81 0 
N 13 79 0 
N 38 15 0 
N 72 50 0 
N 1 63 0 
N 25 49 0 
N 66 82 0 
N 86 33 0 
N 10 33 0 
N 6 17 0 
N 76 0 0 
N 40 11 0 
N 64 65 0 
N 59 29 0 
N 9 43 0 
N 44 99 0 
N 51 62 0 
N 22 4 0 
N 42 7 0 
N 49 97 0 
N 87 84 0 
N 20 4 0 
N 28 45 0 
N 83 33 0 
N 42 68 0 
N 2 6 0 
N 30 93 0 
N 95 6 0 
N 78 4 0 
N 88 36 0 
N 3 22 0 
N 12 38 0 
N 13 67 0 
N 84 29 0 
N 8 36 0 
N 60 67 0 
N 19 20 0 
N 30 25 0 
N 32 65 0 
N 18 22 0 
N 9 39 0 
N 19 37 0 
N 70 5 0 
N 63 50 0 
N 30 38 0 
N 10 6 0 
N 5 1 0 
N 58 28 0 
N 62 90 0 
N 29 99 0 
N 38 18 0 
N 81 14 0 
N 16 70 0 
N 83 70 0 
N 61 17 0 
N 20 11 0 
N 60 16 0 
N 29 70 0 
N 32 30 0 
N 39 20 0 
N 44 21 0 
N 82 62 0 
N 80 68 0 
N 84 27 0 
N 47 50 0 
N 92 8 0 
N 40 9 0 
N 9 37 0 
N 45 42 0 
N 65 54 0 
N 46 82 0 
N 46 76 0 
N 5 62 0 
N 6 69 0 
N 39 63 0 
N 57 64 0 
N 36 26 0 
N 73 5 0 
N 53 67 0 
N 68 64 0 
N 67 68 0 
N 73 66 0 
N 64 51 0 
N 49 66 0 
N 11 34 0 
N 58 18 0 
N 59 44 0 
N 6 41 0 
N 43 99 0 
N 81 62 0 
N 78 36 0 
N 98 18 0 
N 45 44 0 
N 6 98 0 
N 46 65 0 
N 53 21 0 
N 65 19 0 
N 35 55 0 
N 77 8 0 
N 44 97 0 
N 37 56 0 
N 95 53 0 
N 8 99 0 
N 41 70 0 
N 68 29 0 
N 51 99 0 
N 80 88 0 
N 13 78 0 
N 13 82 0 
N 10 2 0 
N 24 47 0 
N 98 70 0 
N 46 47 0 
N 51 64 0 
N 43 70 0 
N 71 51 0 
N 21 7 0 
N 73 84 0 
N 37 23 0 
N 96 23 0 
N 48 83 0 
N 43 49 0 
N 87 38 0 
N 77 83 0 
N 2 44 0 
N 21 9 0 
N 51 26 0 
N 98 56 0 
N 4 66 0 
N 3 89 0 
N 69 23 0 
N 39 50 0 
N 43 54 0 
N 23 38 0 
N 8 70 0 
N 83 37 0 
N 2 61 0 
N 15 70 0 
N 13 81 0 
N 19 70 0 
N 13 71 0 
N 71 55 0 
N 58 25 0 
N 11 64 0 
N 69 74 0 
N 79 84 0 
N 43 95 0 
N 15 65 0 
N 83 60 0 
N 6 35 0 
N 4 67 0 
N 16 68 0 
N 43 13 0 
N 37 24 0 
N 43 6 0 
N 15 69 0 
N 95 7 0 
N 17 40 0 
N 53 63 0 
N 88 92 0 
N 14 65 0 
N 77 66 0 
N 42 52 0 
N 98 99 0 
N 97 71 0 
N 72 9 0 
N 5 67 0 
N 95 28 0 
N 82 84 0 
N 52 64 0 
N 93 46 0 
N 8 37 0 
N 95 71 0 
N 65 3 0 
N 40 95 0 
N 61 40 0 
N 13 68 0 
N 95 93 0 
N 34 57 0 
N 97 91 0 
N 57 46 0 
N 77 10 0 
N 13 35 0 
N 65 47 0 
N 84 41 0 
N 44 67 0 
N 31 39 0 
N 44 66 0 
N 36 51 0 
N 67 74 0 
N 66 55 0 
N 41 77 0 
N 40 15 0 
N 78 78 0 
N 81 0 0 
N 8 66 0 
N 97 6 0 
N 56 31 0 
N 0 5 0 
N 62 43 0 
N 13 2 0 
N 93 92 0 
N 27 36 0 
N 43 39 0 
N 12 19 0 
N 67 47 0 
N 34 25 0 
N 97 23 0 
N 21 19 0 
N 13 80 0 
N 25 11 0 
N 81 58 0 
N 23 1 0 
N 32 16 0 
N 42 99 0 
N 69 69 0 
N 84 24 0 
N 3 18 0 
N 45 75 0 
N 3 5 0 
N 39 43 0 
N 95 8 0 
N 55 61 0 
N 13 75 0 
N 64 45 0 
N 41 54 0 
N 20 5 0 
N 55 11 0 
N 78 1 0 
N 21 2 0 
N 40 96 0 
N 58 51 0 
N 98 87 0 
N 22 36 0 
N 35 10 0 
N 4 7 0 
N 30 92 0 
N 83 87 0 
N 68 20 0 
N 3 57 0 
N 93 1 0 
N 46 4 0 
N 91 19 0 
N 6 64 0 
N 9 36 0 
N 81 30 0 
N 41 72 0 
N 8 76 0 
N 98 74 0 
N 67 18 0 
N 64 39 0 
N 48 93 0 
N 66 33 0 
N 39 97 0 
N 13 83 0 
N 18 62 0 
N 93 7 0 
N 4 69 0 
N 45 6 0 
N 77 7 0 
N 36 12 0 
N 8 64 0 
N 97 55 0 
N 34 20 0 
N 67 48 0 
N 29 39 0 
N 6 72 0 
N 47 7 0 
N 79 10 0 
N 74 95 0 
N 45 4 0 
N 42 55 0 
N 71 64 0 
N 12 73 0 
N 66 31 0 
N 71 45 0 
N 11 36 0 
N 49 99 0 
N 97 89 0 
N 88 32 0 
N 28 82 0 
N 91 58 0 
N 40 16 0 
N 20 8 0 
N 85 2 0 
N 61 49 0 
N 43 96 0 
N 10 4 0 
N 14 72 0 
N 80 82 0 
N 68 1 0 
N 83 6 0 
N 63 20 0 
N 97 0 0 
N 17 42 0 
N 41 43 0 
N 61 12 0 
N 69 65 0 
N 14 81 0 
N 86 66 0 
N 92 85 0 
N 84 73 0 
N 4 2 0 
N 41 41 0 
N 16 96 0 
N 90 53 0 
C 0 0 0 
C 20 0 0 
C 40 0 0 
C 60 0 0 
C 80 0 0 
C 100 0 0 
C 0 20 0 
C 20 20 0 
C 40 20 0 
C 60 20 0 
C 80 20 0 
C 100 20 0 
C 0 40 0 
C 20 40 0 
C 40 40 0 
C 60 40 0 
C 80 40 0 
C 100 40 0 
C 0 60 0 
C 20 60 0 
C 40 60 0 
C 60 60 0 
C 80 60 0 
C 100 60 0 
C 0 80 0 
C 20 80 0 
C 40 80 0 
C 60 80 0 
C 80 80 0 
C 100 80 0 
C 0 100 0 
C 20 100 0 
C 40 100 0 
C 60 100 0 
C 80 100 0 
C 100 100 0 
O 0 13 0 
O 12 70 0 
O 36 0 0 
539
Atoms. Timestep: 32
N 9 67 0 
N 80 85 0 
N 26 40 0 
N 45 80 0 
N 24 94 0 
N 14 97 0 
N 43 97 0 
N 41 98 0 
N 97 5 0 
N 35 42 0 
N 81 80 0 
N 5 60 0 
N 86 46 0 
N 63 67 0 
N 71 46 0 
N 34 71 0 
N 97 67 0 
N 40 4 0 
N 9 63 0 
N 2 2 0 
N 14 13 0 
N 73 86 0 
N 73 13 0 
N 0 1 0 
N 96 14 0 
N 39 18 0 
N 39 42 0 
N 86 31 0 
N 74 76 0 
N 94 9 0 
N 10 73 0 
N 47 12 0 
N 55 71 0 
N 6 46 0 
N 39 99 0 
N 48 69 0 
N 49 63 0 
N 37 56 0 
N 9 71 0 
N 47 84 0 
N 99 8 0 
N 51 53 0 
N 78 71 0 
N 79 26 0 
N 13 67 0 
N 96 90 0 
N 56 21 0 
N 36 7 0 
N 86 27 0 
N 13 72 0 
N 62 27 0 
N 30 27 0 
N 94 13 0 
N 5 46 0 
N 54 25 0 
N 22 16 0 
N 81 86 0 
N 89 68 0 
N 31 97 0 
N 92 29 0 
N 47 85 0 
N 81 95 0 
N 75 90 0 
N 39 21 0 
N 22 70 0 
N 6 14 0 
N 7 57 0 
N 70 96 0 
N 66 55 0 
N 96 3 0 
N 15 76 0 
N 83 75 0 
N 77 86 0 
N 6 7 0 
N 70 85 0 
N 82 29 0 
N 17 39 0 
N 14 77 0 
N 19 98 0 
N 16 33 0 
N 89 48 0 
N 11 5 0 
N 78 86 0 
N 32 96 0 
N 42 94 0 
N 26 66 0 
N 99 21 0 
N 40 90 0 
N 36 16 0 
N 31 1 0 
N 85 64 0 
N 67 66 0 
N 2 17 0 
N 41 89 0 
N 83 30 0 
N 20 15 0 
N 12 82 0 
N 37 98 0 
N 44 38 0 
N 13 75 0 
N 13 83 0 
N 95 20 0 
N 55 23 0 
N 21 36 0 
N 81 97 0 
N 10 78 0 
N 94 22 0 
N 81 28 0 
N 90 49 0 
N 13 66 0 
N 89 65 0 
N 99 16 0 
N 59 42 0 
N 88 64 0 
N 10 4 0 
N 99 99 0 
N 46 94 0 
N 57 18 0 
N 52 88 0 
N 81 63 0 
N 95 70 0 
N 80 48 0 
N 99 18 0 
N 36 10 0 
N 88 60 0 
N 81 84 0 
N 89 27 0 
N 10 95 0 
N 82 85 0 
N 16 70 0 
N 12 3 0 
N 64 32 0 
N 74 13 0 
N 97 3 0 
N 63 38 0 
N 38 90 0 
N 39 92 0 
N 41 19 0 
N 77 92 0 
N 9 13 0 
N 12 81 0 
N 58 21 0 
N 57 11 0 
N 67 25 0 
N 38 17 0 
N 52 36 0 
N 15 73 0 
N 40 98 0 
N 94 99 0 
N 68 17 0 
N 96 94 0 
N 79 89 0 
N 19 38 0 
N 70 47 0 
N 10 69 0 
N 43 57 0 
N 79 74 0 
N 20 95 0 
N 37 10 0 
N 24 67 0 
N 85 63 0 
N 82 89 0 
N 93 15 0 
N 70 68 0 
N 63 52 0 
N 34 40 0 
N 9 73 0 
N 37 6 0 
N 41 97 0 
N 76 74 0 
N 38 99 0 
N 56 32 0 
N 22 34 0 
N 74 29 0 
N 78 96 0 
N 43 59 0 
N 59 20 0 
N 64 38 0 
N 16 32 0 
N 84 65 0 
N 78 43 0 
N 47 67 0 
N 51 74 0 
N 12 72 0 
N 20 2 0 
N 54 45 0 
N 79 77 0 
N 57 41 0 
N 67 61 0 
N 87 30 0 
N 9 64 0 
N 95 14 0 
N 29 52 0 
N 88 26 0 
N 70 82 0 
N 12 79 0 
N 37 15 0 
N 72 49 0 
N 1 64 0 
N 24 49 0 
N 67 82 0 
N 85 33 0 
N 11 33 0 
N 5 17 0 
N 75 0 0 
N 39 11 0 
N 63 65 0 
N 59 30 0 
N 9 42 0 
N 45 99 0 
N 50 62 0 
N 22 3 0 
N 42 6 0 
N 49 96 0 
N 87 85 0 
N 21 4 0 
N 28 44 0 
N 84 33 0 
N 43 68 0 
N 1 6 0 
N 30 92 0 
N 95 7 0 
N 79 4 0 
N 88 37 0 
N 3 21 0 
N 13 38 0 
N 13 68 0 
N 84 28 0 
N 8 35 0 
N 60 66 0 
N 19 21 0 
N 29 25 0 
N 32 64 0 
N 18 21 0 
N 9 40 0 
N 20 37 0 
N 71 5 0 
N 63 49 0 
N 31 38 0 
N 9 6 0 
N 4 1 0 
N 58 29 0 
N 62 91 0 
N 29 98 0 
N 37 18 0 
N 80 14 0 
N 15 70 0 
N 83 69 0 
N 61 16 0 
N 21 11 0 
N 60 15 0 
N 28 70 0 
N 32 31 0 
N 38 20 0 
N 44 22 0 
N 82 63 0 
N 81 68 0 
N 85 27 0 
N 47 51 0 
N 92 9 0 
N 40 8 0 
N 9 36 0 
N 44 42 0 
N 65 53 0 
N 46 81 0 
N 46 75 0 
N 6 62 0 
N 7 69 0 
N 40 63 0 
N 57 63 0 
N 35 26 0 
N 73 6 0 
N 52 67 0 
N 68 65 0 
N 66 68 0 
N 73 67 0 
N 64 50 0 
N 49 67 0 
N 12 34 0 
N 59 18 0 
N 58 44 0 
N 6 42 0 
N 42 99 0 
N 81 61 0 
N 77 36 0 
N 98 17 0 
N 45 45 0 
N 5 98 0 
N 47 65 0 
N 53 20 0 
N 65 20 0 
N 36 55 0 
N 76 8 0 
N 44 96 0 
N 37 55 0 
N 94 53 0 
N 9 99 0 
N 41 69 0 
N 68 30 0 
N 51 98 0 
N 81 88 0 
N 12 78 0 
N 13 81 0 
N 11 2 0 
N 24 48 0 
N 98 69 0 
N 46 48 0 
N 51 63 0 
N 42 70 0 
N 71 52 0 
N 22 7 0 
N 72 84 0 
N 36 23 0 
N 95 23 0 
N 48 82 0 
N 42 49 0 
N 88 38 0 
N 77 82 0 
N 1 44 0 
N 21 8 0 
N 51 27 0 
N 98 55 0 
N 5 66 0 
N 3 90 0 
N 70 23 0 
N 39 51 0 
N 42 54 0 
N 22 38 0 
N 9 70 0 
N 83 38 0 
N 1 61 0 
N 14 70 0 
N 13 80 0 
N 18 70 0 
N 12 71 0 
N 71 54 0 
N 58 24 0 
N 12 64 0 
N 69 73 0 
N 80 84 0 
N 43 94 0 
N 14 65 0 
N 82 60 0 
N 7 35 0 
N 4 68 0 
N 15 68 0 
N 43 12 0 
N 36 24 0 
N 43 5 0 
N 14 69 0 
N 96 7 0 
N 16 40 0 
N 54 63 0 
N 88 91 0 
N 14 66 0 
N 77 67 0 
N 42 51 0 
N 98 98 0 
N 97 70 0 
N 72 8 0 
N 5 68 0 
N 95 27 0 
N 82 83 0 
N 53 64 0 
N 94 46 0 
N 7 37 0 
N 94 71 0 
N 65 2 0 
N 39 95 0 
N 61 39 0 
N 13 69 0 
N 96 93 0 
N 34 58 0 
N 98 91 0 
N 58 46 0 
N 77 11 0 
N 14 35 0 
N 64 47 0 
N 85 41 0 
N 45 67 0 
N 32 39 0 
N 44 65 0 
N 35 51 0 
N 67 75 0 
N 66 56 0 
N 40 77 0 
N 40 14 0 
N 78 79 0 
N 81 99 0 
N 8 67 0 
N 97 7 0 
N 57 31 0 
N 0 6 0 
N 61 43 0 
N 13 1 0 
N 93 91 0 
N 26 36 0 
N 42 39 0 
N 11 19 0 
N 66 47 0 
N 34 26 0 
N 97 22 0 
N 21 18 0 
N 12 80 0 
N 25 10 0 
N 82 58 0 
N 23 0 0 
N 32 15 0 
N 41 99 0 
N 68 69 0 
N 83 24 0 
N 2 18 0 
N 44 75 0 
N 2 5 0 
N 39 44 0 
N 95 9 0 
N 54 61 0 
N 12 75 0 
N 64 46 0 
N 41 53 0 
N 21 5 0 
N 54 11 0 
N 78 0 0 
N 21 1 0 
N 39 96 0 
N 58 52 0 
N 97 87 0 
N 22 37 0 
N 35 9 0 
N 3 7 0 
N 30 91 0 
N 82 87 0 
N 69 20 0 
N 4 57 0 
N 92 1 0 
N 46 3 0 
N 91 18 0 
N 6 65 0 
N 10 36 0 
N 82 30 0 
N 42 72 0 
N 8 75 0 
N 98 73 0 
N 67 19 0 
N 63 39 0 
N 48 92 0 
N 67 33 0 
N 38 97 0 
N 12 83 0 
N 18 63 0 
N 92 7 0 
N 5 69 0 
N 44 6 0 
N 78 7 0 
N 36 12 0 
N 8 65 0 
N 97 54 0 
N 34 21 0 
N 68 48 0 
N 30 39 0 
N 7 72 0 
N 46 7 0 
N 79 9 0 
N 73 95 0 
N 44 4 0 
N 42 56 0 
N 70 64 0 
N 12 74 0 
N 67 31 0 
N 72 45 0 
N 12 36 0 
N 48 99 0 
N 97 90 0 
N 89 32 0 
N 28 81 0 
N 92 58 0 
N 39 16 0 
N 20 7 0 
N 84 2 0 
N 61 50 0 
N 42 96 0 
N 9 4 0 
N 14 71 0 
N 81 82 0 
N 69 1 0 
N 82 6 0 
N 62 20 0 
N 97 1 0 
N 16 42 0 
N 40 43 0 
N 61 13 0 
N 69 64 0 
N 14 80 0 
N 85 66 0 
N 91 85 0 
N 83 73 0 
N 4 3 0 
N 40 41 0 
N 17 96 0 
N 90 52 0 
C 0 0 0 
C 20 0 0 
C 40 0 0 
C 60 0 0 
C 80 0 0 
C 100 0 0 
C 0 20 0 
C 20 20 0 
C 40 20 0 
C 60 20 0 
C 80 20 0 
C 100 20 0 
C 0 40 0 
C 20 40 0 
C 40 40 0 
C 60 40 0 
C 80 40 0 
C 100 40 0 
C 0 60 0 
C 20 60 0 
C 40 60 0 
C 60 60 0 
C 80 60 0 
C 100 60 0 
C 0 80 0 
C 20 80 0 
C 40 80 0 
C 60 80 0 
C 80 80 0 
C 100 80 0 
C 0 100 0 
C 20 100 0 
C 40 100 0 
C 60 100 0 
C 80 100 0 
C 100 100 0 
O 0 12 0 
O 12 69 0 
O 37 0 0 
538
Atoms. Timestep: 33
N 9 68 0 
N 80 84 0 
N 27 40 0 
N 46 80 0 
N 24 93 0 
N 15 97 0 
N 42 97 0 
N 41 97 0 
N 97 6 0 
N 35 43 0 
N 82 80 0 
N 5 59 0 
N 85 46 0 
N 63 68 0 
N 70 46 0 
N 33 71 0 
N 96 67 0 
N 40 3 0 
N 9 62 0 
N 1 2 0 
N 14 12 0 
N 72 86 0 
N 74 13 0 
N 0 2 0 
N 96 13 0 
N 38 18 0 
N 38 42 0 
N 87 31 0 
N 74 77 0 
N 93 9 0 
N 11 73 0 
N 48 12 0 
N 55 72 0 
N 6 47 0 
N 38 99 0 
N 49 69 0 
N 48 63 0 
N 37 57 0 
N 9 72 0 
N 46 84 0 
N 99 9 0 
N 51 54 0 
N 79 71 0 
N 78 26 0 
N 13 66 0 
N 96 89 0 
N 55 21 0 
N 36 6 0 
N 86 26 0 
N 12 72 0 
N 61 27 0 
N 30 26 0 
N 94 12 0 
N 5 45 0 
N 54 26 0 
N 21 16 0 
N 81 87 0 
N 88 68 0 
N 31 96 0 
N 93 29 0 
N 48 85 0 
N 80 95 0 
N 74 90 0 
N 38 21 0 
N 22 69 0 
N 5 14 0 
N 6 57 0 
N 69 96 0 
N 65 55 0 
N 96 4 0 
N 15 75 0 
N 82 75 0 
N 78 86 0 
N 5 7 0 
N 71 85 0 
N 82 28 0 
N 16 39 0 
N 15 77 0 
N 19 99 0 
N 17 33 0 
N 88 48 0 
N 12 5 0 
N 79 86 0 
N 32 95 0 
N 41 94 0 
N 26 67 0 
N 99 20 0 
N 39 90 0 
N 37 16 0 
N 32 1 0 
N 86 64 0 
N 67 67 0 
N 1 17 0 
N 41 88 0 
N 83 29 0 
N 21 15 0 
N 11 82 0 
N 37 97 0 
N 44 37 0 
N 14 75 0 
N 13 82 0 
N 94 20 0 
N 56 23 0 
N 21 35 0 
N 82 97 0 
N 10 79 0 
N 94 21 0 
N 80 28 0 
N 90 48 0 
N 13 65 0 
N 88 65 0 
N 99 15 0 
N 59 43 0 
N 88 63 0 
N 10 5 0 
N 98 99 0 
N 46 93 0 
N 57 17 0 
N 52 87 0 
N 81 64 0 
N 94 70 0 
N 79 48 0 
N 98 18 0 
N 37 10 0 
N 88 59 0 
N 81 85 0 
N 89 28 0 
N 11 95 0 
N 82 84 0 
N 16 71 0 
N 12 2 0 
N 64 33 0 
N 75 13 0 
N 97 4 0 
N 62 38 0 
N 38 89 0 
N 38 92 0 
N 42 19 0 
N 78 92 0 
N 8 13 0 
N 11 81 0 
N 58 20 0 
N 57 12 0 
N 67 26 0 
N 39 17 0 
N 52 37 0 
N 15 72 0 
N 39 98 0 
N 93 99 0 
N 68 18 0 
N 95 94 0 
N 78 89 0 
N 18 38 0 
N 69 47 0 
N 10 68 0 
N 43 56 0 
N 78 74 0 
N 20 94 0 
N 37 9 0 
N 23 67 0 
N 84 63 0 
N 82 90 0 
N 93 14 0 
N 70 69 0 
N 63 53 0 
N 35 40 0 
N 8 73 0 
N 37 5 0 
N 40 97 0 
N 76 73 0 
N 38 98 0 
N 55 32 0 
N 21 34 0 
N 74 28 0 
N 78 97 0 
N 43 58 0 
N 59 21 0 
N 64 37 0 
N 15 32 0 
N 84 64 0 
N 78 44 0 
N 47 66 0 
N 50 74 0 
N 11 72 0 
N 20 1 0 
N 54 46 0 
N 80 77 0 
N 56 41 0 
N 68 61 0 
N 88 30 0 
N 8 64 0 
N 95 13 0 
N 29 51 0 
N 89 26 0 
N 71 82 0 
N 13 79 0 
N 37 14 0 
N 71 49 0 
N 2 64 0 
N 25 49 0 
N 67 83 0 
N 85 32 0 
N 11 34 0 
N 5 16 0 
N 76 0 0 
N 38 11 0 
N 62 65 0 
N 60 30 0 
N 8 42 0 
N 45 98 0 
N 50 61 0 
N 22 2 0 
N 41 6 0 
N 49 95 0 
N 87 86 0 
N 22 4 0 
N 28 45 0 
N 84 34 0 
N 43 69 0 
N 0 6 0 
N 31 92 0 
N 95 8 0 
N 80 4 0 
N 89 37 0 
N 2 21 0 
N 12 38 0 
N 12 68 0 
N 85 28 0 
N 8 34 0 
N 60 65 0 
N 19 20 0 
N 30 25 0 
N 31 64 0 
N 18 20 0 
N 9 39 0 
N 19 37 0 
N 70 5 0 
N 63 48 0 
N 31 37 0 
N 8 6 0 
N 3 1 0 
N 58 30 0 
N 63 91 0 
N 29 97 0 
N 37 17 0 
N 81 14 0 
N 15 71 0 
N 82 69 0 
N 61 15 0 
N 22 11 0 
N 59 15 0 
N 27 70 0 
N 32 32 0 
N 37 20 0 
N 43 22 0 
N 82 64 0 
N 81 69 0 
N 84 27 0 
N 47 52 0 
N 91 9 0 
N 39 8 0 
N 9 35 0 
N 44 41 0 
N 65 52 0 
N 45 81 0 
N 45 75 0 
N 6 61 0 
N 7 68 0 
N 41 63 0 
N 58 63 0 
N 34 26 0 
N 73 5 0 
N 52 68 0 
N 68 66 0 
N 67 68 0 
N 73 66 0 
N 64 51 0 
N 48 67 0 
N 13 34 0 
N 59 17 0 
N 59 44 0 
N 6 43 0 
N 41 99 0 
N 81 62 0 
N 77 35 0 
N 98 16 0 
N 46 45 0 
N 5 97 0 
N 47 64 0 
N 53 21 0 
N 65 19 0 
N 36 56 0 
N 75 8 0 
N 43 96 0 
N 37 54 0 
N 94 54 0 
N 9 0 0 
N 42 69 0 
N 68 29 0 
N 50 98 0 
N 82 88 0 
N 11 78 0 
N 14 81 0 
N 10 2 0 
N 24 47 0 
N 98 68 0 
N 46 49 0 
N 50 63 0 
N 41 70 0 
N 72 52 0 
N 23 7 0 
N 73 84 0 
N 36 24 0 
N 94 23 0 
N 47 82 0 
N 43 49 0 
N 88 39 0 
N 76 82 0 
N 2 44 0 
N 22 8 0 
N 50 27 0 
N 99 55 0 
N 5 65 0 
N 2 90 0 
N 70 24 0 
N 38 51 0 
N 43 54 0 
N 23 38 0 
N 9 69 0 
N 82 38 0 
N 1 60 0 
N 14 69 0 
N 14 80 0 
N 17 70 0 
N 12 70 0 
N 71 55 0 
N 57 24 0 
N 11 64 0 
N 69 74 0 
N 80 83 0 
N 43 93 0 
N 14 64 0 
N 81 60 0 
N 7 34 0 
N 4 69 0 
N 15 67 0 
N 43 11 0 
N 37 24 0 
N 42 5 0 
N 14 68 0 
N 96 8 0 
N 15 40 0 
N 53 63 0 
N 88 92 0 
N 14 67 0 
N 76 67 0 
N 42 52 0 
N 97 98 0 
N 98 70 0 
N 72 9 0 
N 5 67 0 
N 95 26 0 
N 83 83 0 
N 53 65 0 
N 94 47 0 
N 7 38 0 
N 95 71 0 
N 64 2 0 
N 38 95 0 
N 61 38 0 
N 12 69 0 
N 97 93 0 
N 34 59 0 
N 98 90 0 
N 58 47 0 
N 76 11 0 
N 14 34 0 
N 64 46 0 
N 84 41 0 
N 46 67 0 
N 32 38 0 
N 45 65 0 
N 35 50 0 
N 67 76 0 
N 65 56 0 
N 40 76 0 
N 40 13 0 
N 77 79 0 
N 81 0 0 
N 8 68 0 
N 97 8 0 
N 58 31 0 
N 0 7 0 
N 60 43 0 
N 14 1 0 
N 93 92 0 
N 26 37 0 
N 43 39 0 
N 11 18 0 
N 66 48 0 
N 34 25 0 
N 96 22 0 
N 20 18 0 
N 12 80 0 
N 24 10 0 
N 82 59 0 
N 24 0 0 
N 32 16 0 
N 40 99 0 
N 67 69 0 
N 83 23 0 
N 1 18 0 
N 44 74 0 
N 1 5 0 
N 39 45 0 
N 95 10 0 
N 54 62 0 
N 12 74 0 
N 63 46 0 
N 41 54 0 
N 22 5 0 
N 53 11 0 
N 78 1 0 
N 22 1 0 
N 39 96 0 
N 57 52 0 
N 97 86 0 
N 21 37 0 
N 36 9 0 
N 3 6 0 
N 31 91 0 
N 82 86 0 
N 70 20 0 
N 4 58 0 
N 91 1 0 
N 46 2 0 
N 91 17 0 
N 7 65 0 
N 10 37 0 
N 82 31 0 
N 42 73 0 
N 9 75 0 
N 98 72 0 
N 67 20 0 
N 62 39 0 
N 48 91 0 
N 67 34 0 
N 38 96 0 
N 12 83 0 
N 17 63 0 
N 91 7 0 
N 6 69 0 
N 44 5 0 
N 79 7 0 
N 37 12 0 
N 9 65 0 
N 98 54 0 
N 34 22 0 
N 69 48 0 
N 31 39 0 
N 7 71 0 
N 45 7 0 
N 80 9 0 
N 72 95 0 
N 43 4 0 
N 42 57 0 
N 71 64 0 
N 12 73 0 
N 67 30 0 
N 72 46 0 
N 12 37 0 
N 48 98 0 
N 97 89 0 
N 90 32 0 
N 28 82 0 
N 92 59 0 
N 39 15 0 
N 19 7 0 
N 83 2 0 
N 61 51 0 
N 41 96 0 
N 8 4 0 
N 13 71 0 
N 81 83 0 
N 69 2 0 
N 81 6 0 
N 61 20 0 
N 96 1 0 
N 15 42 0 
N 40 44 0 
N 61 12 0 
N 69 63 0 
N 14 79 0 
N 85 65 0 
N 92 85 0 
N 82 73 0 
N 4 4 0 
N 40 42 0 
N 17 97 0 
N 91 52 0 
C 0 0 0 
C 20 0 0 
C 40 0 0 
C 60 0 0 
C 80 0 0 
C 100 0 0 
C 0 20 0 
C 20 20 0 
C 40 20 0 
C 60 20 0 
C 80 20 0 
C 100 20 0 
C 0 40 0 
C 20 40 0 
C 40 40 0 
C 60 40 0 
C 80 40 0 
C 100 40 0 
C 0 60 0 
C 20 60 0 
C 40 60 0 
C 60 60 0 
C 80 60 0 
C 100 60 0 
C 0 80 0 
C 20 80 0 
C 40 80 0 
C 60 80 0 
C 80 80 0 
C 100 80 0 
C 0 100 0 
C 20 100 0 
C 40 100 0 
C 60 100 0 
C 80 100 0 
C 100 100 0 
O 99 12 0 
O 37 99 0 
537
Atoms. Timestep: 34
N 9 69 0 
N 80 83 0 
N 26 40 0 
N 47 80 0 
N 23 93 0 
N 14 97 0 
N 42 98 0 
N 41 98 0 
N 98 6 0 
N 36 43 0 
N 82 79 0 
N 6 59 0 
N 85 45 0 
N 63 67 0 
N 70 47 0 
N 33 70 0 
N 96 68 0 
N 40 4 0 
N 9 63 0 
N 2 2 0 
N 15 12 0 
N 72 85 0 
N 73 13 0 
N 0 3 0 
N 97 13 0 
N 38 19 0 
N 38 43 0 
N 86 31 0 
N 74 78 0 
N 94 9 0 
N 11 72 0 
N 48 11 0 
N 56 72 0 
N 6 46 0 
N 37 99 0 
N 49 70 0 
N 48 64 0 
N 38 57 0 
N 8 72 0 
N 45 84 0 
N 99 10 0 
N 51 55 0 
N 79 70 0 
N 78 25 0 
N 13 65 0 
N 96 88 0 
N 55 22 0 
N 36 7 0 
N 86 25 0 
N 13 72 0 
N 61 26 0 
N 30 25 0 
N 93 12 0 
N 6 45 0 
N 54 25 0 
N 22 16 0 
N 80 87 0 
N 87 68 0 
N 32 96 0 
N 93 30 0 
N 48 84 0 
N 79 95 0 
N 75 90 0 
N 38 20 0 
N 23 69 0 
N 6 14 0 
N 5 57 0 
N 69 95 0 
N 64 55 0 
N 97 4 0 
N 14 75 0 
N 82 76 0 
N 79 86 0 
N 6 7 0 
N 70 85 0 
N 82 27 0 
N 15 39 0 
N 15 76 0 
N 20 99 0 
N 17 34 0 
N 88 47 0 
N 13 5 0 
N 79 85 0 
N 33 95 0 
N 40 94 0 
N 26 68 0 
N 99 19 0 
N 39 91 0 
N 37 17 0 
N 32 2 0 
N 86 65 0 
N 66 67 0 
N 1 16 0 
N 40 88 0 
N 82 29 0 
N 21 14 0 
N 11 83 0 
N 37 97 0 
N 43 37 0 
N 14 74 0 
N 12 82 0 
N 94 19 0 
N 55 23 0 
N 22 35 0 
N 83 97 0 
N 9 79 0 
N 95 21 0 
N 79 28 0 
N 91 48 0 
N 12 65 0 
N 87 65 0 
N 99 14 0 
N 58 43 0 
N 87 63 0 
N 10 6 0 
N 98 98 0 
N 45 93 0 
N 57 16 0 
N 52 86 0 
N 80 64 0 
N 94 69 0 
N 79 47 0 
N 99 18 0 
N 37 11 0 
N 89 59 0 
N 81 86 0 
N 90 28 0 
N 10 95 0 
N 81 84 0 
N 17 71 0 
N 13 2 0 
N 65 33 0 
N 75 12 0 
N 98 4 0 
N 61 38 0 
N 37 89 0 
N 38 93 0 
N 43 19 0 
N 77 92 0 
N 8 12 0 
N 10 81 0 
N 57 20 0 
N 56 12 0 
N 67 25 0 
N 38 17 0 
N 53 37 0 
N 16 72 0 
N 38 98 0 
N 93 98 0 
N 68 17 0 
N 94 94 0 
N 78 90 0 
N 18 39 0 
N 68 47 0 
N 11 68 0 
N 42 56 0 
N 79 74 0 
N 21 94 0 
N 37 9 0 
N 23 68 0 
N 84 62 0 
N 83 90 0 
N 93 13 0 
N 71 69 0 
N 63 52 0 
N 35 39 0 
N 9 73 0 
N 37 6 0 
N 39 97 0 
N 76 72 0 
N 37 98 0 
N 55 33 0 
N 22 34 0 
N 75 28 0 
N 78 98 0 
N 42 58 0 
N 58 21 0 
N 63 37 0 
N 16 32 0 
N 85 64 0 
N 77 44 0 
N 47 65 0 
N 49 74 0 
N 11 71 0 
N 21 1 0 
N 54 47 0 
N 80 76 0 
N 56 40 0 
N 68 60 0 
N 89 30 0 
N 7 64 0 
N 95 12 0 
N 29 50 0 
N 89 27 0 
N 70 82 0 
N 12 79 0 
N 37 15 0 
N 71 48 0 
N 3 64 0 
N 24 49 0 
N 68 83 0 
N 86 32 0 
N 11 35 0 
N 6 16 0 
N 75 0 0 
N 39 11 0 
N 63 65 0 
N 59 30 0 
N 7 42 0 
N 44 98 0 
N 49 61 0 
N 23 2 0 
N 41 7 0 
N 49 96 0 
N 87 87 0 
N 22 5 0 
N 28 44 0 
N 84 35 0 
N 43 70 0 
N 0 7 0 
N 31 93 0 
N 95 9 0 
N 80 5 0 
N 89 38 0 
N 3 21 0 
N 12 37 0 
N 13 68 0 
N 85 29 0 
N 8 33 0 
N 61 65 0 
N 19 21 0 
N 29 25 0 
N 32 64 0 
N 18 21 0 
N 8 39 0 
N 19 38 0 
N 70 4 0 
N 64 48 0 
N 30 37 0 
N 8 7 0 
N 3 2 0 
N 57 30 0 
N 64 91 0 
N 29 98 0 
N 37 18 0 
N 81 13 0 
N 15 70 0 
N 82 68 0 
N 61 16 0 
N 22 12 0 
N 59 14 0 
N 27 71 0 
N 31 32 0 
N 37 21 0 
N 43 23 0 
N 83 64 0 
N 81 70 0 
N 84 26 0 
N 47 51 0 
N 91 10 0 
N 38 8 0 
N 9 34 0 
N 43 41 0 
N 65 53 0 
N 45 80 0 
N 45 76 0 
N 7 61 0 
N 7 67 0 
N 41 64 0 
N 58 64 0 
N 33 26 0 
N 74 5 0 
N 52 69 0 
N 68 65 0 
N 68 68 0 
N 72 66 0 
N 64 52 0 
N 48 68 0 
N 13 33 0 
N 59 18 0 
N 58 44 0 
N 7 43 0 
N 40 99 0 
N 82 62 0 
N 77 34 0 
N 99 16 0 
N 45 45 0 
N 6 97 0 
N 47 63 0 
N 53 22 0 
N 66 19 0 
N 36 55 0 
N 76 8 0 
N 42 96 0 
N 37 55 0 
N 94 53 0 
N 9 1 0 
N 42 68 0 
N 68 30 0 
N 50 99 0 
N 82 89 0 
N 11 79 0 
N 13 81 0 
N 11 2 0 
N 24 48 0 
N 98 67 0 
N 46 48 0 
N 50 62 0 
N 40 70 0 
N 71 52 0 
N 23 6 0 
N 73 85 0 
N 35 24 0 
N 95 23 0 
N 47 81 0 
N 42 49 0 
N 88 40 0 
N 75 82 0 
N 3 44 0 
N 21 8 0 
N 50 28 0 
N 99 54 0 
N 6 65 0 
N 2 89 0 
N 69 24 0 
N 39 51 0 
N 43 55 0 
N 24 38 0 
N 9 70 0 
N 82 39 0 
N 1 59 0 
N 14 68 0 
N 14 79 0 
N 17 69 0 
N 12 69 0 
N 72 55 0 
N 58 24 0 
N 12 64 0 
N 69 73 0 
N 81 83 0 
N 42 93 0 
N 13 64 0 
N 82 60 0 
N 7 33 0 
N 5 69 0 
N 15 66 0 
N 42 11 0 
N 38 24 0 
N 41 5 0 
N 15 68 0 
N 96 9 0 
N 14 40 0 
N 54 63 0 
N 89 92 0 
N 13 67 0 
N 76 66 0 
N 42 53 0 
N 97 97 0 
N 98 69 0 
N 72 8 0 
N 6 67 0 
N 96 26 0 
N 83 84 0 
N 52 65 0 
N 95 47 0 
N 7 37 0 
N 96 71 0 
N 64 1 0 
N 37 95 0 
N 61 37 0 
N 13 69 0 
N 98 93 0 
N 33 59 0 
N 98 89 0 
N 58 46 0 
N 76 10 0 
N 14 33 0 
N 64 45 0 
N 83 41 0 
N 47 67 0 
N 32 39 0 
N 46 65 0 
N 36 50 0 
N 67 77 0 
N 66 56 0 
N 39 76 0 
N 40 14 0 
N 76 79 0 
N 82 0 0 
N 8 69 0 
N 98 8 0 
N 57 31 0 
N 0 8 0 
N 60 42 0 
N 14 2 0 
N 94 92 0 
N 26 36 0 
N 44 39 0 
N 11 17 0 
N 66 49 0 
N 33 25 0 
N 96 21 0 
N 20 17 0 
N 12 81 0 
N 24 9 0 
N 82 58 0 
N 25 0 0 
N 32 17 0 
N 39 99 0 
N 66 69 0 
N 83 24 0 
N 2 18 0 
N 44 75 0 
N 1 6 0 
N 39 44 0 
N 95 11 0 
N 53 62 0 
N 11 74 0 
N 63 45 0 
N 41 53 0 
N 22 6 0 
N 53 12 0 
N 78 2 0 
N 23 1 0 
N 38 96 0 
N 57 53 0 
N 97 87 0 
N 21 36 0 
N 36 8 0 
N 4 6 0 
N 32 91 0 
N 83 86 0 
N 71 20 0 
N 5 58 0 
N 92 1 0 
N 46 3 0 
N 92 17 0 
N 7 66 0 
N 10 38 0 
N 83 31 0 
N 42 72 0 
N 10 75 0 
N 97 72 0 
N 68 20 0 
N 61 39 0 
N 48 92 0 
N 67 35 0 
N 37 96 0 
N 13 83 0 
N 18 63 0 
N 91 8 0 
N 6 68 0 
N 44 6 0 
N 79 8 0 
N 37 13 0 
N 9 64 0 
N 97 54 0 
N 34 23 0 
N 68 48 0 
N 31 38 0 
N 8 71 0 
N 45 8 0 
N 80 8 0 
N 72 94 0 
N 43 5 0 
N 43 57 0 
N 70 64 0 
N 13 73 0 
N 67 29 0 
N 73 46 0 
N 11 37 0 
N 47 98 0 
N 97 88 0 
N 90 33 0 
N 29 82 0 
N 93 59 0 
N 39 16 0 
N 20 7 0 
N 83 3 0 
N 60 51 0 
N 40 96 0 
N 9 4 0 
N 12 71 0 
N 82 83 0 
N 68 2 0 
N 81 5 0 
N 61 21 0 
N 96 2 0 
N 14 42 0 
N 40 45 0 
N 61 13 0 
N 69 62 0 
N 15 79 0 
N 84 65 0 
N 93 85 0 
N 82 72 0 
N 5 4 0 
N 40 43 0 
N 17 98 0 
N 91 53 0 
C 0 0 0 
C 20 0 0 
C 40 0 0 
C 60 0 0 
C 80 0 0 
C 100 0 0 
C 0 20 0 
C 20 20 0 
C 40 20 0 
C 60 20 0 
C 80 20 0 
C 100 20 0 
C 0 40 0 
C 20 40 0 
C 40 40 0 
C 60 40 0 
C 80 40 0 
C 100 40 0 
C 0 60 0 
C 20 60 0 
C 40 60 0 
C 60 60 0 
C 80 60 0 
C 100 60 0 
C 0 80 0 
C 20 80 0 
C 40 80 0 
C 60 80 0 
C 80 80 0 
C 100 80 0 
C 0 100 0 
C 20 100 0 
C 40 100 0 
C 60 100 0 
C 80 100 0 
C 100 100 0 
O 99 11 0 
536
Atoms. Timestep: 35
N 9 70 0 
N 80 84 0 
N 25 40 0 
N 47 81 0 
N 24 93 0 
N 13 97 0 
N 41 98 0 
N 40 98 0 
N 97 6 0 
N 36 42 0 
N 82 80 0 
N 7 59 0 
N 85 46 0 
N 62 67 0 
N 70 46 0 
N 33 71 0 
N 95 68 0 
N 41 4 0 
N 8 63 0 
N 3 2 0 
N 16 12 0 
N 72 86 0 
N 72 13 0 
N 1 3 0 
N 96 13 0 
N 39 19 0 
N 38 42 0 
N 85 31 0 
N 75 78 0 
N 94 10 0 
N 11 71 0 
N 49 11 0 
N 55 72 0 
N 6 45 0 
N 36 99 0 
N 49 69 0 
N 49 64 0 
N 38 58 0 
N 9 72 0 
N 45 85 0 
N 99 11 0 
N 51 54 0 
N 80 70 0 
N 78 24 0 
N 13 66 0 
N 96 89 0 
N 56 22 0 
N 35 7 0 
N 86 26 0 
N 13 73 0 
N 60 26 0 
N 30 24 0 
N 93 11 0 
N 6 44 0 
N 54 24 0 
N 21 16 0 
N 80 88 0 
N 86 68 0 
N 31 96 0 
N 94 30 0 
N 48 85 0 
N 80 95 0 
N 75 89 0 
N 39 20 0 
N 23 68 0 
N 6 13 0 
N 4 57 0 
N 69 94 0 
N 63 55 0 
N 97 5 0 
N 14 76 0 
N 81 76 0 
N 78 86 0 
N 6 6 0 
N 70 84 0 
N 82 28 0 
N 15 38 0 
N 15 75 0 
N 21 99 0 
N 18 34 0 
N 87 47 0 
N 14 5 0 
N 78 85 0 
N 32 95 0 
N 40 93 0 
N 26 69 0 
N 99 18 0 
N 39 92 0 
N 37 16 0 
N 32 3 0 
N 86 66 0 
N 65 67 0 
N 1 15 0 
N 40 89 0 
N 83 29 0 
N 20 14 0 
N 10 83 0 
N 36 97 0 
N 43 38 0 
N 15 74 0 
N 13 82 0 
N 94 18 0 
N 54 23 0 
N 23 35 0 
N 83 96 0 
N 9 80 0 
N 96 21 0 
N 79 29 0 
N 91 49 0 
N 11 65 0 
N 88 65 0 
N 99 13 0 
N 58 42 0 
N 88 63 0 
N 11 6 0 
N 98 97 0 
N 46 93 0 
N 58 16 0 
N 52 87 0 
N 80 65 0 
N 93 69 0 
N 79 48 0 
N 99 17 0 
N 36 11 0 
N 89 58 0 
N 81 85 0 
N 90 27 0 
N 10 94 0 
N 82 84 0 
N 17 70 0 
N 13 1 0 
N 65 34 0 
N 75 13 0 
N 99 4 0 
N 60 38 0 
N 36 89 0 
N 39 93 0 
N 43 20 0 
N 78 92 0 
N 8 11 0 
N 11 81 0 
N 58 20 0 
N 56 11 0 
N 68 25 0 
N 38 18 0 
N 53 38 0 
N 16 71 0 
N 38 99 0 
N 94 98 0 
N 68 18 0 
N 93 94 0 
N 78 91 0 
N 17 39 0 
N 67 47 0 
N 10 68 0 
N 42 55 0 
N 80 74 0 
N 22 94 0 
N 36 9 0 
N 24 68 0 
N 83 62 0 
N 83 91 0 
N 94 13 0 
N 71 70 0 
N 63 53 0 
N 36 39 0 
N 9 74 0 
N 37 7 0 
N 38 97 0 
N 76 73 0 
N 36 98 0 
N 55 34 0 
N 23 34 0 
N 75 29 0 
N 78 99 0 
N 43 58 0 
N 58 22 0 
N 63 38 0 
N 15 32 0 
N 86 64 0 
N 76 44 0 
N 48 65 0 
N 48 74 0 
N 11 70 0 
N 21 2 0 
N 53 47 0 
N 79 76 0 
N 55 40 0 
N 69 60 0 
N 89 31 0 
N 7 63 0 
N 96 12 0 
N 29 49 0 
N 88 27 0 
N 70 83 0 
N 13 79 0 
N 38 15 0 
N 70 48 0 
N 2 64 0 
N 24 50 0 
N 67 83 0 
N 86 33 0 
N 11 34 0 
N 7 16 0 
N 75 99 0 
N 40 11 0 
N 62 65 0 
N 58 30 0 
N 6 42 0 
N 45 98 0 
N 49 62 0 
N 24 2 0 
N 42 7 0 
N 48 96 0 
N 87 88 0 
N 23 5 0 
N 29 44 0 
N 83 35 0 
N 43 69 0 
N 0 8 0 
N 31 92 0 
N 95 10 0 
N 81 5 0 
N 89 39 0 
N 3 20 0 
N 12 36 0 
N 12 68 0 
N 86 29 0 
N 7 33 0 
N 60 65 0 
N 20 21 0 
N 28 25 0 
N 32 63 0 
N 18 22 0 
N 8 38 0 
N 19 37 0 
N 70 5 0 
N 64 47 0 
N 31 37 0 
N 8 8 0 
N 3 3 0 
N 57 31 0 
N 64 90 0 
N 30 98 0 
N 37 19 0 
N 81 12 0 
N 15 69 0 
N 82 67 0 
N 61 17 0 
N 21 12 0 
N 58 14 0 
N 26 71 0 
N 31 31 0 
N 37 20 0 
N 42 23 0 
N 83 63 0 
N 81 69 0 
N 84 25 0 
N 47 52 0 
N 91 11 0 
N 39 8 0 
N 10 34 0 
N 44 41 0 
N 65 54 0 
N 45 79 0 
N 46 76 0 
N 7 62 0 
N 7 68 0 
N 40 64 0 
N 58 63 0 
N 32 26 0 
N 73 5 0 
N 51 69 0 
N 69 65 0 
N 67 68 0 
N 71 66 0 
N 64 53 0 
N 48 69 0 
N 12 33 0 
N 58 18 0 
N 57 44 0 
N 7 44 0 
N 41 99 0 
N 81 62 0 
N 77 33 0 
N 99 15 0 
N 45 44 0 
N 7 97 0 
N 47 62 0 
N 53 23 0 
N 66 20 0 
N 36 54 0 
N 77 8 0 
N 43 96 0 
N 37 56 0 
N 94 54 0 
N 9 2 0 
N 41 68 0 
N 69 30 0 
N 49 99 0 
N 83 89 0 
N 11 80 0 
N 13 80 0 
N 11 1 0 
N 23 48 0 
N 97 67 0 
N 47 48 0 
N 50 61 0 
N 39 70 0 
N 70 52 0 
N 23 7 0 
N 74 85 0 
N 35 25 0 
N 96 23 0 
N 46 81 0 
N 41 49 0 
N 88 41 0 
N 75 83 0 
N 2 44 0 
N 21 9 0 
N 50 29 0 
N 0 54 0 
N 7 65 0 
N 3 89 0 
N 69 25 0 
N 39 52 0 
N 44 55 0 
N 24 37 0 
N 9 71 0 
N 82 40 0 
N 1 58 0 
N 15 68 0 
N 14 80 0 
N 16 69 0 
N 13 69 0 
N 72 56 0 
N 59 24 0 
N 13 64 0 
N 69 72 0 
N 81 82 0 
N 42 94 0 
N 13 63 0 
N 82 61 0 
N 7 34 0 
N 5 68 0 
N 16 66 0 
N 42 12 0 
N 38 25 0 
N 40 5 0 
N 16 68 0 
N 97 9 0 
N 13 40 0 
N 55 63 0 
N 89 91 0 
N 12 67 0 
N 75 66 0 
N 42 54 0 
N 97 96 0 
N 99 69 0 
N 72 7 0 
N 6 68 0 
N 97 26 0 
N 84 84 0 
N 53 65 0 
N 96 47 0 
N 8 37 0 
N 97 71 0 
N 63 1 0 
N 37 94 0 
N 61 36 0 
N 14 69 0 
N 98 92 0 
N 34 59 0 
N 98 88 0 
N 58 45 0 
N 76 9 0 
N 15 33 0 
N 64 44 0 
N 84 41 0 
N 47 68 0 
N 32 38 0 
N 46 64 0 
N 36 51 0 
N 67 78 0 
N 67 56 0 
N 39 75 0 
N 40 13 0 
N 75 79 0 
N 83 0 0 
N 8 68 0 
N 98 9 0 
N 58 31 0 
N 0 9 0 
N 60 41 0 
N 14 3 0 
N 93 92 0 
N 27 36 0 
N 44 40 0 
N 10 17 0 
N 66 48 0 
N 34 25 0 
N 96 20 0 
N 20 18 0 
N 12 80 0 
N 25 9 0 
N 81 58 0 
N 26 0 0 
N 32 16 0 
N 39 98 0 
N 65 69 0 
N 82 24 0 
N 2 17 0 
N 44 76 0 
N 2 6 0 
N 38 44 0 
N 96 11 0 
N 53 63 0 
N 11 75 0 
N 63 46 0 
N 41 52 0 
N 21 6 0 
N 53 11 0 
N 78 1 0 
N 23 0 0 
N 39 96 0 
N 57 54 0 
N 96 87 0 
N 21 35 0 
N 37 8 0 
N 4 7 0 
N 32 90 0 
N 83 87 0 
N 72 20 0 
N 5 59 0 
N 93 1 0 
N 45 3 0 
N 92 16 0 
N 8 66 0 
N 9 38 0 
N 83 30 0 
N 41 72 0 
N 10 76 0 
N 97 73 0 
N 69 20 0 
N 62 39 0 
N 48 93 0 
N 66 35 0 
N 36 96 0 
N 12 83 0 
N 18 64 0 
N 91 9 0 
N 6 69 0 
N 44 7 0 
N 80 8 0 
N 37 12 0 
N 8 64 0 
N 96 54 0 
N 35 23 0 
N 68 49 0 
N 31 39 0 
N 8 70 0 
N 44 8 0 
N 80 7 0 
N 71 94 0 
N 43 6 0 
N 42 57 0 
N 70 63 0 
N 12 73 0 
N 66 29 0 
N 74 46 0 
N 11 38 0 
N 47 99 0 
N 97 89 0 
N 89 33 0 
N 28 82 0 
N 93 58 0 
N 39 17 0 
N 20 8 0 
N 82 3 0 
N 59 51 0 
N 40 95 0 
N 9 5 0 
N 12 72 0 
N 82 82 0 
N 67 2 0 
N 82 5 0 
N 60 21 0 
N 97 2 0 
N 15 42 0 
N 41 45 0 
N 61 14 0 
N 69 61 0 
N 16 79 0 
N 85 65 0 
N 94 85 0 
N 82 73 0 
N 6 4 0 
N 39 43 0 
N 17 97 0 
N 91 52 0 
C 0 0 0 
C 20 0 0 
C 40 0 0 
C 60 0 0 
C 80 0 0 
C 100 0 0 
C 0 20 0 
C 20 20 0 
C 40 20 0 
C 60 20 0 
C 80 20 0 
C 100 20 0 
C 0 40 0 
C 20 40 0 
C 40 40 0 
C 60 40 0 
C 80 40 0 
C 100 40 0 
C 0 60 0 
C 20 60 0 
C 40 60 0 
C 60 60 0 
C 80 60 0 
C 100 60 0 
C 0 80 0 
C 20 80 0 
C 40 80 0 
C 60 80 0 
C 80 80 0 
C 100 80 0 
C 0 100 0 
C 20 100 0 
C 40 100 0 
C 60 100 0 
C 80 100 0 
C 100 100 0 
